609
Lattice="20.0 0.0 0.0 0.0 20.0 0.0 0.0 0.0 20.0" Properties=species:S:1:pos:R:3 relative_density=0.96 cell_dim_angstroms="_JSON [20.0, 20.0, 20.0]" n_grains=16 grain_size=10.0 crystalline_fraction=1.0 grain_radius=7.780929270162494 pbc="T T T"
O       11.75464448       9.36712590      14.32668140
O       14.85238043       5.41458804      11.89306559
O       11.90828760       7.16038326      12.91732266
O       12.84974501       6.64137562      16.03729361
Si      13.30043411       5.18072122      15.57421697
O       10.46965965       5.93229305       7.80294528
O        9.57583722       7.19744449      11.61445335
Si      10.75136273       6.26406044      12.18883063
O       11.40493226       5.46620410      10.96522598
Si      11.85837727       3.95281023      10.48086228
Si      10.53348764       9.23956040      15.38938922
O        9.33911359       8.44453584      14.69914957
Si       9.10480620       8.00861953      10.30503702
O       10.14159173       5.26218946      13.29824912
Si      10.48828829       4.42554266      14.65058396
O        9.80412056       5.15018321      15.90087170
O       10.61282593       3.19018433       9.78176189
Si       9.04839012       3.21324430       9.52806886
O        7.59492880       2.98215788      13.18658558
O        7.18302140       6.98096345      14.28074240
Si       8.61539264       5.01439115      16.97930680
O        7.37164021       4.21795590      16.26653546
Si       6.02123502       6.10452172      13.56000407
O        6.68938502       5.27879646      12.33133099
Si       7.14360586       3.78727477      11.86040886
O        5.91333569       3.01150738      11.17253005
O        0.92983856       8.65110041       5.16578771
Si       0.49945248       7.42290624       6.14131630
O        0.62586158       6.02147565       5.32027672
O        1.42757508       7.46548435       7.42690363
O        1.06298589       3.57078588       6.20702912
O        3.89739887       8.13734792       6.65536715
Si       2.92291220       7.85923973       7.93007958
O        2.94644097       6.99823769       2.77016649
Si       1.56935426       4.69987900       5.23328272
O        5.04062234       6.18500639       4.13987507
O        7.07595505       4.54476724       1.75326223
O        3.08704612       5.11308791       5.58857023
Si       4.62289096       4.94033112       5.10779003
O        4.75461987       3.56080816       4.31714071
Si       5.71819810       2.23830130       4.19595425
O        5.41483888       7.70817659       2.03401625
O        4.35711199       8.77271090       4.15545151
Si       4.41881465       9.30066587       5.68656531
O        5.93690078       9.71440449       6.06431628
Si       7.47003993       9.56161117       5.58710850
O        7.62321738       8.14353896       4.79723688
O        8.48972412       6.29667444       3.16431450
Si       8.55650148       6.83443526       4.66968143
O        3.51143810       6.64317690       8.81672428
Si       3.09237873       5.43280292       9.74898082
O        3.26048190       4.00719204       8.96913926
O        4.06760435       5.45938844      11.05743781
Si       5.95893428      10.00173831      10.24502908
O        6.12025270       8.59773868       9.45755743
O        5.57781844       5.00143364       6.42833046
O        7.19678509       2.66256754       4.58433408
O        4.12666882       2.14694133       7.34554722
O        7.66224746       4.19337443       7.78095504
O        5.70065618       3.09548955       9.25036895
Si       7.25960498       2.93970694       8.76491641
Si       7.05809665       5.39544871       6.92790240
O        6.99229453       6.74911909       7.80951911
Si       7.04014302       7.30216584       9.33012918
O       14.07280127      15.00254920      12.96542086
Si      15.52430202      14.35294338      12.73240265
O       16.57676356      15.48662673      12.39275877
O       15.91644917      13.51598844      14.02354093
O       15.12711493      14.82729824      16.19935262
Si      15.76792100      13.46365664      15.64947785
O       14.75779581      12.21540119      16.03366204
Si      17.82741042      16.30858700      13.04919689
O       16.19989664      18.06193973      16.15085502
O       17.61670364      16.40359254      14.62724455
Si      17.66298518      17.41156566      15.90846583
O       18.71180402      18.56040097      15.60905073
Si      14.72207621      18.26244513      15.47870370
O       13.75575132      17.05369391      15.87621672
Si      13.70000679      15.56771212      16.51629014
O       13.51951192      15.65159966      18.13222191
O       17.22273228      13.23990184      16.31196066
O       18.64308607      11.59054419      14.82410248
Si      18.66373741      12.58673452      16.04420310
O       19.08518389      11.77511192      17.38276021
O        0.33995703      11.52531166      19.67427636
O       16.13088909      10.03890002      16.34370550
O       15.62656868      13.03649335      19.24299259
O       18.28322579      13.13493805      19.53709362
Si      18.91396656      11.73339963      19.01062607
O       17.93858683      10.50438582      19.37992829
O       18.07583479      16.59251395      17.22995934
O        0.77874275      14.66997917      17.99964476
Si      16.87937060      13.83077572      19.85210789
O       16.67033647      13.91431100       1.45113929
O        3.46348793       3.65773567      14.92105501
O        2.83692913       5.28247237      16.89050576
O        5.54267284       5.36866474       0.81962500
Si       4.60596687       4.21305471       1.47733284
O        4.01572059       3.26851385       0.31644524
O        3.41227503       4.89841606       2.27885917
O        1.89777653       3.57147121      18.69991972
Si       1.84185027       5.08442024      18.18018836
O        2.33372589       6.05904547      19.36436032
Si       1.93615793       7.41843966       0.16523592
O        3.57859736       0.42532901      16.48333017
Si       2.08920570       2.95256475      14.35695528
O        1.09649930       0.58621882      17.28063703
O        1.13590807       2.63163444      15.61131890
Si       0.25859735       1.48056544      16.28416908
O       19.63026274       0.54044305      15.06826923
Si       2.66903707       2.59658935      19.73901990
O        0.36356583       5.42157908      17.72440264
O        0.39140926       7.48687830      16.04358533
Si      19.47856696       6.31255400      16.71054552
O       18.88674221       5.38607341      15.50387370
O       18.29153439       7.03002336      17.51897797
O       15.78897815       7.16579757      18.32512456
O        0.93958010       5.03783001       3.11490150
O        1.17647530       8.41538485      19.11869532
O        0.97009233       7.10631858       1.40472078
Si       0.06638730       5.94860548       2.09547031
O       19.45019436       5.00192814       0.87340165
O       18.86011026       6.63643965       2.88979033
O       17.36627006       5.32899646      19.30609617
O       17.77815101       7.81603873      19.97631789
O       19.01329421       2.16500889      17.09638664
O       17.93947898       3.33590436      14.16056857
Si      17.53548891       4.70385327      14.96304325
O       16.54798285       2.33566381      17.89322664
O       16.60772528       4.36486115      16.21897224
Si      15.66692707       3.21608159      16.86889570
Si      18.05162826       2.00052761      18.36771415
O       18.47333886       2.97827789      19.53519462
Si      18.14513920       4.32744657       0.34495171
O        9.54858674       3.01775717       6.29949588
O       12.01394868       3.63197411       6.96289155
O       11.50171418       1.46927964       5.45139154
O       14.58290527       3.32513222       7.47994859
O        7.04282067       0.51374525       4.23936144
Si       6.85626591      19.60599332       5.56099603
O        7.81526497       0.21177816       6.72514593
O        7.29373490      18.06786562       5.21291241
O       10.41506026      19.85011398       7.23492664
Si      11.22910414      19.97229648       5.85234112
O       10.34955142      19.26198091       4.68543582
Si      10.47338259      18.22555039       3.43672387
O       13.01593781       4.27114263       9.30757650
Si      13.12079256       3.21393338       8.08786982
O       11.09801618       0.80177758      10.42251979
O       12.78613881       1.72884438       8.55600749
Si      12.64210211       0.81338562       9.90279603
O       13.59224354       1.39942580      11.07873591
Si       9.68443676       1.52857438      10.22946727
O        8.80342817       0.83346825       9.04168049
Si       8.91071744      19.81687073       7.81848105
O        8.57629732      18.31029088       8.36695049
O        9.35036973      17.97707321      10.80551585
O       12.63392331      19.23994606       6.01236172
Si      14.21024906      19.23479899       5.53501783
O       15.13669237      19.82241305       6.66706152
O       14.62105226      17.72891731       5.18018909
O       15.75737962      15.43163689       5.74987529
O        8.42495034      15.79871056       5.77548481
O       10.12021747      16.67950351       3.95050433
Si       9.95230399      15.77219843       5.25162279
O       10.92591089      16.40655857       6.43561916
O       10.42496259      14.29237985       4.94439965
O       13.50943460      16.08229771       6.96258292
Si      14.36096356      16.16673553       5.54943573
O       13.47334948      15.47982727       4.41490672
O       13.05667502      19.30616456       9.57866912
O       14.20512437      17.02634433      10.14262027
O       11.94998523      17.64610194      11.35789059
Si      12.77472152      17.74384548       9.94522205
O       11.92027289      17.05428462       8.77534801
Si      12.01846895      16.02856414       7.55005816
O        8.97139512      13.68460446       4.09388149
Si       8.37518192      13.57108143       5.61053515
O        7.20438629      12.47961625       5.62683015
O        6.03271697      15.72608707       7.86193874
O        7.61021935      11.98950971       1.58101483
O        6.94758915       9.45938660       1.15101207
O        5.81714409      12.70819665       3.35437982
Si       6.03117923      11.85454862       4.74017952
O        6.43826927      10.32632433       4.31723986
O        7.32018635      16.57381069       2.84883619
O        4.78368105      15.91113835       2.84095959
O        5.38238958      15.33362959       5.34911192
Si       4.20974423      15.82647848       4.32417669
O        3.66341901      17.26521225       4.79879473
Si       6.15829784      15.93472882       1.96351259
O        6.56038092      14.38333994       1.56311422
Si       6.24905670      12.84787793       1.85495848
Si       3.96199282      12.76086147      19.84119672
O        3.40152548      14.22839003       0.29966129
O        4.66169966      11.84170048       5.61078748
O        5.24638685      11.26192107       8.11399982
Si       4.08464741      11.75188417       7.10355309
O        3.56062368      13.21852985       7.55587894
O        2.88559416      10.67856962       7.13425779
O        4.39517566       8.76996968       1.08304811
Si       3.82667919       8.69121046       2.60204080
O        3.27182924      10.15246574       3.04837437
O        1.46879589      10.86021777       4.88225263
Si       1.71443816      10.01573697       6.22115336
O        2.99640583      14.72365738       4.34882522
O        2.50785688      15.62748305       7.53997461
Si       2.21521197      14.06174306       7.82949122
O        0.47059589      14.04665941       4.30554486
O        1.02874741      13.51848559       6.84453968
Si      19.89623483      13.95838301       5.82141069
O       19.34079595      15.43531236       6.30540493
O       18.67663740      12.89616020       5.83802628
O        2.75691777      11.70195238      19.86399022
O        1.61394716      14.92612519       2.10439724
Si       1.82784575      14.08440486       3.46400815
O        2.25345443      12.56504208       3.03404919
Si       1.96128526      11.03762033       3.33540047
O        0.77467658      10.46600756       2.36957837
Si      19.64879567      10.91177105       1.33917524
O       19.08934345      12.39807029       1.80153415
Si      17.52059267      12.22046552       4.97053738
O       17.94283673      10.74328758       4.50636329
Si       6.63771916      10.68495948      18.88041579
O        6.79456257      11.93836253      17.87316929
O        5.58580365       9.59286369      18.31929605
Si       2.27290157      11.03522543      18.57410041
O        7.89846161       6.11562615       0.54201336
Si       8.43286351       5.55924023      19.16002666
O        8.61004335       6.80502319      18.13112143
O        7.37428318       4.48065541      18.54254532
O        6.81950020       8.01411331      16.56776149
Si       5.46733098       8.27392401      17.42586725
O        5.21191262       6.97878709      18.36227598
O        7.56526995      13.49441273      15.89949394
Si       6.46892469      12.42441902      16.38580244
O        8.41719887       9.82720201      14.19127872
O        6.45646642      11.12197248      15.42368523
Si       6.99918597      10.56260360      14.01593199
O        7.15156298      11.82009029      12.99920825
O        9.39341733       8.34796992      16.15620211
Si       8.26778844       7.31378474      16.63356866
O        4.23732222       8.47391114      16.36632996
O        2.28315041       9.77367053      17.62902310
Si       2.82101493       9.19190598      16.19452294
O        2.96067600      10.45246790      15.19646798
O        1.73224656       8.12657159      15.61910040
O        6.04948979       3.36392201      16.60850145
Si       4.62572663       4.08646346      16.43217739
O        4.76984208       5.32480079      15.41997556
O        3.00544537       6.53932875      13.86208008
O        5.93653001       9.49303152      13.42221784
Si       5.79944700       8.17337222      12.52353648
Si       4.43116630       5.82718183      13.91249117
O        6.38029620      13.39733803       9.13152791
Si       6.26518301      11.97295390       9.84630317
O        7.55231707      11.78626236      10.78939573
O        9.02002544      15.39015183       9.46353815
O        9.67352175      12.79490933       9.60472992
Si       9.10846491      12.18767581      10.94085175
O        9.25545479      13.28355596      12.15194361
Si       9.77043470      13.51652573      13.63782831
O       10.09334447      11.55994379       6.46510501
O        8.64265190      10.03451590       8.10189539
Si       9.97860703      10.10131435       7.21288168
O        9.92013854       8.94095929       6.12365411
Si      10.77232332       7.76926253       5.42788048
Si       9.24879396      12.85026100       6.12109612
O        9.38472344      13.97017424       7.27504056
Si       9.88972728      14.18699089       8.81463555
O       11.46167177      14.64673024       8.82504318
Si      12.78201839      14.72302137       7.92301288
O       12.73956628      13.52273097       6.82520235
Si      13.58256142      12.33556197       6.17756036
O        9.95198127      10.87560978      11.33228894
Si       9.84566602       9.43074586      12.08392413
O       11.12870107       9.24345755      13.04344570
O       12.76817965      15.42450846      12.05950054
O        9.54300486      12.10342365      14.47850898
O       11.33333386      13.92040853      13.69525711
Si      12.68199338      14.00930516      12.80219742
O       12.60661201      12.85364346      11.69926459
O       13.27475548      10.25820450      11.83568372
O       12.83642902      10.74115145      14.37132697
O       11.29525013       9.93404665       8.17819988
O       12.34256556       8.15767320       5.47071526
O       13.64382721       9.00104964       8.72010957
O       12.19045637       7.49194431      10.33498840
Si      13.55368021       7.56213591       9.43523666
O       13.48302884       6.41456887       8.32492215
O       14.85254958       7.38536256      10.39741191
O       14.08729551      14.50598345       8.91177430
O       13.42817934      10.97141392       6.94473048
O       15.14986304      12.73782754       6.18137958
Si      12.84261618      10.34614678       8.31980255
O       12.95611645      11.43181518       9.51319335
Si      13.47221546      11.67341224      11.01139168
O       16.47162407      13.58345090       9.42114474
O       15.02255636      12.07233574      11.06283292
Si      16.35836010      12.15571120      10.14925637
O       16.32314938      11.00493379       9.07343149
Si       1.19931850       3.53224664       8.08083127
O        0.16109524       2.32726378       7.73654699
O        3.85972301       0.71337427       8.59793618
Si       4.07075157       0.41024319       7.06178330
O        2.74124589       0.83989424       6.24987351
O       18.49586767       5.13393403       6.27296135
O       16.50164287       5.32446526       7.99152567
Si      16.03048697       4.63243316       9.36669712
O       17.30689229       4.10442750      10.15378568
O       18.69215700       1.83100539       9.90075283
Si      18.91543393       1.50750476       8.34264083
O       17.57811126       1.91569672       7.50268618
Si       3.10193412       1.69065023       9.65068582
O        0.60401721       1.28639844      12.63366916
O        1.86378867       0.87285593      10.33134839
Si       1.35924072       0.21075923      11.71072692
O       18.97503763       3.28850393      12.01120437
O       16.68122453       1.99657411      11.61355726
Si      16.21440919       1.28937678      12.99945861
O       17.51245724       0.77312040      13.77032485
Si      18.12050660      19.47601292      14.53016385
O        4.36346886      18.83674273       6.85289791
O       19.17989070      19.92556165       8.13452567
O        0.46112122      19.55288027       5.84645947
Si      19.95506619      18.87642890       7.20608970
O        1.27541166      18.28305604       7.97668453
O       18.96429463      17.65018842       6.85127177
O       17.97883493      15.23860041       7.24481296
O       16.11836039      19.40994657       9.24092850
O       17.48593765      17.16182481       8.99506389
Si      17.70639743      16.80584962       7.45625828
O        0.36651416      19.02039739      11.37195377
Si       1.84931311      17.02096510       8.74913425
O       19.39899701      16.59302845      11.71238770
O        0.64018831      16.21799200       9.44836478
O       15.18469705       0.10030910      12.63846037
O       18.86300708      18.49375198      13.50213280
Si      19.08867605      18.16847683      11.93569007
O       17.77825717      18.60596901      11.12942545
Si      16.70561360      18.12391097      10.02381756
O       15.48210830      17.32893037      10.72319794
Si      14.99712811      16.61549493      12.08773696
O       10.22880328      19.51583721      11.88633520
O       10.95620945      15.61361995      12.93753679
O        8.76493241      16.53650366      11.82613623
O       12.51719440       2.89138276      12.22656189
O       11.49497246       0.94493059      13.71343764
Si      10.06934932       0.53134272      13.09725592
O        9.31362561       1.85626208      12.60148816
Si      12.15247173      16.68863441      12.79969746
O       14.00641545      19.16271797      15.16791400
O       12.11476821      17.69750007      14.06845630
Si      12.86991421      18.09640213      15.44950640
O       15.56972352       4.25243855      13.54940569
Si      14.85629275      19.91219391      14.01998665
O       14.09086880       1.25610931      13.49900651
Si      12.67092086       2.05077810      13.56996703
O       14.55222666       4.53220805      15.95373779
O       12.64355227       3.04247080      14.81265679
Si      13.41427124       3.41576246      16.22405979
O       14.04667135       2.07540699      16.82555783
O        9.21730718      19.80726488      14.25139690
O        7.32891242      18.30715575      13.14394439
Si       8.05234617      18.71435355      14.52444887
O        8.74509626      17.35307326      15.11690300
O        6.96720399      19.31246302      15.56415857
O        9.27866881       2.69571339      15.88762615
O        8.24546471       0.75603783      17.38794917
Si       6.81373772       0.34413328      16.79180860
O        6.04567690       1.67252515      16.26631148
O       11.77337806      18.69660899      16.45870348
O       10.28759464      15.70664070      16.42727924
O       10.75996977      18.97893105      18.87905255
O        8.86095146      17.48380874      17.72941144
Si       9.59699991      17.87889951      19.10620796
O        8.49754662      18.49015870       0.14438513
O       12.32232715       4.04297752      17.22276813
O       13.04882860       0.13129092      18.30910455
O       10.84096772       1.04684425      17.19619617
Si       9.45010816       1.84433148      17.22864096
O        9.40790207       2.84307145      18.48779982
Si       8.97024870      19.08271331       2.44239082
O       10.55125213      18.72578641       2.22053667
O        8.69389141       0.63520130       2.17451066
O       12.73422772       0.13455684       2.78323133
Si      12.59870131       0.76818489       4.25098556
Si       8.33710073       1.71238231       1.05598246
O       11.05999086       1.25704298       4.46166448
Si      10.11496487       2.47584623       4.93911105
Si      16.18897174      18.39164381       4.88324089
O       15.88269578      19.38521140       3.64208182
O       12.86758244      18.10285686       1.15679366
Si      11.94241761      19.32563092       1.65574832
O       11.61575219       0.32528241       0.42353182
O       13.60313313       2.02984037       4.40460883
Si      14.46043055       2.87829933       5.43894006
O       16.03059435       2.54306328       5.23475342
O       14.15167971       4.48363572       5.17803895
O       18.20822377       3.97281432       5.80154826
O       14.76976826       6.77789019       4.17622270
Si      15.67159445       7.65227186       5.19721981
O       17.23314585       7.31935395       5.02561938
O        9.77372783       3.43279495       3.71602343
Si      10.20226256       3.84030680       2.20384078
O       11.75346812       3.46823100       2.01924926
O        9.90594922       5.38566846       1.94099361
O       13.93697619       4.89732811       2.56739831
Si      13.80517432       5.54757102       4.04478210
O       12.26912986       5.98930559       4.23936420
O       16.00545744       1.32641080       1.86691842
O       18.32381218       1.90384808       4.16392369
Si      17.41007606       3.14554838       4.65721805
O       16.60234299       3.64836188       0.86815636
O       17.05422297       4.12747886       3.41110398
Si      15.60299399       2.40069061       0.72212710
O       14.07346442       2.86841772       0.94979102
Si      13.15484441       4.07273634       1.40786911
O       12.77398026       5.06507061       0.19875275
Si      13.20850219       5.46532790      18.66744707
O        0.93104287       9.13993608      14.81105070
Si      16.65711093       6.62885813      14.07263777
O       18.22432351       6.29648990      13.77263143
O       16.08951134       7.61155222      12.92031450
O        0.17863674       7.71356069      12.71213278
Si       0.15724948       9.15708969      13.36181078
Si      15.32735282       7.61326186      11.49728449
O       18.64992561       9.63184972      13.58086826
Si      17.61648499      10.85062107      13.35108115
O        2.68030282       5.59899508      11.67790857
Si       3.57490149       7.00040610      11.65803196
Si       1.90807319       4.63322180      12.68131791
O        0.38391501       5.07311973      12.87188972
Si      19.33231916       6.32584141      12.63196807
O       18.62709316       6.21767624      11.18058615
Si      18.70724201       5.43218151       9.77345024
O        0.26810222       5.06183872       9.46475540
O        0.96606744      10.17959046      12.37616997
Si       1.85227129      11.53736492      12.35116829
O        3.37772234      11.15564880      12.03611261
O        1.27197375      12.49489570      11.19675650
O       16.10846255       8.62987174      10.51426744
O       16.90753660      10.74867481      11.90401807
Si      16.96699847       9.97612714      10.47638535
O        0.50748626      11.03137128       9.13479340
Si       0.50718378      12.50709183       9.77467171
O        2.99745373       7.95759080      10.51581621
Si       4.54431243      11.18775151      10.91810123
O        3.83177699      11.07957214       9.43552235
O       18.15096372       6.40348352       8.62738222
Si       2.23298575       7.94255305       9.07045350
Si      17.36875972       6.39190877       7.19774164
O        0.69997952       8.43118350       9.27732283
O       15.83741614       6.87455555       7.41264608
Si      19.68719842       9.64208487       9.04229911
O       18.14521069       7.44023054       6.22218452
O       18.97912933       9.51611056       7.59926831
Si      19.05419954       8.74908002       6.17596950
O       19.68267077      19.24073028       1.27100422
Si      19.70381936      18.59007340      19.77776614
O        1.19472493       1.94068343       2.63811386
Si       2.15517822       1.86328396       1.32709773
O       19.66285404       2.85255630       4.54565955
Si      19.68670788       2.22611555       3.07482321
O       18.82417149       0.84409829       3.08243242
Si      18.82753278      19.32636049       2.61393591
O       19.52810800      18.38274993       3.77134451
Si       0.36112319      18.41096271       5.13052265
O        1.30720120      19.71766588       5.09255665
Si       2.84380973       0.21880717       5.34880659
O        1.23020627      18.28860756      19.32124582
O        1.34726992      18.18896367      16.68889138
Si       2.20073841      18.20333938      18.04339839
O        3.17932549      19.52485870      18.00672693
O        3.07611084      16.86931203      18.14992111
O        5.26502850      15.56998434      18.75485777
O       19.42552992      14.85389910       3.13445253
Si       0.40309598      14.75252331       1.82591062
O        1.36577291      16.06884943       1.79701206
Si       3.72994048      15.83612276      19.20735076
O        2.90211541      14.46380037      19.22250732
O        3.02330356       0.50569361       1.45549874
O        4.66492406       1.52917648      18.75020058
Si       4.68214252       0.00628276      18.24091363
O        5.21053540      19.21342320       2.05526724
O        5.34166703      19.07226406      19.39933312
Si       6.19484845      19.12539215       0.77945289
O        7.16538439       0.41230527       0.73849932
O        7.09276835      17.77629305       0.89766596
O        1.21404467      17.04582720       5.25237996
O        3.69520740       0.06449441       4.00008188
Si       3.71440868      19.48603502       2.50695958
O        2.83080686      18.12212925       2.55599981
Si       2.90260666      16.56778612       2.05786679
O        6.59104367      15.24610083      16.60609221
O        8.59746088      14.32018105      15.14726372
Si       6.98738056      14.46397476      15.25311948
O        6.33833120      12.99752231      15.25634732
O        6.45528209      15.31924194      14.00540072
O        4.72045968      18.02106028      16.57598885
O        4.85043755       0.37915160      15.32127650
O        4.09843466      16.40571064      14.59137168
Si       5.31151426      16.36958832      13.54534344
O        5.92180733      17.87378909      13.40554108
Si       6.40788844      18.96397199      12.33470170
O        3.66787470      13.50361043      17.57210384
O        1.94306799      14.00504153      15.69720655
O        3.91417307      13.08398035      14.20451637
Si       2.31917981      13.23127766      14.32946055
Si       2.48867839      14.51464537      17.11877036
O        3.10915038      15.99552101      16.97392439
Si       3.55782615      17.18253415      15.91787597
O        2.31888531      18.11519615      15.51791574
Si       0.72617075      18.29083677      15.63790333
O        4.73620800      15.86571484      12.12061262
O        6.74636919      14.89568935      10.63669351
Si       5.14554806      15.06908038      10.74975084
O        4.46904102      13.62011061      10.75508304
O        4.59381097      15.92616704       9.49011374
O        3.15445808       0.89884139      13.39167457
O        6.89906118      18.22450508      10.99377636
O        5.15192018      19.94687949      11.93332677
Si       3.53933761       0.08400118      12.05811911
O        2.89022424      18.61539479      12.03099102
O        2.25936001      16.96963194      10.07926121
Si       3.45156311      16.95123001       8.99316269
O        4.07567321      18.41100667       8.86548316
O        1.79948725      14.12071263      13.07526750
Si       3.29769503      12.69650129      10.09462513
O        0.05276404      14.63388384      11.19330525
O        2.06858741      13.65056318       9.69989920
Si       0.47187630      13.83277342       9.82887650
O       19.44285623      15.14934034      13.67444320
Si       0.65700357      15.10379029      12.58757537
O        1.25265665      16.63104859      12.44450315
Si       1.71648089      17.72302852      11.39060730
O       15.68723049      17.36445829      18.53898271
Si      16.25076541      16.00671311      19.24013473
O       17.22991255      19.83999073      16.75651172
O       18.73690480      17.67905686      17.23735642
Si      18.55092684      19.26148203      17.47524667
O       14.81853916      18.71448983      16.45036313
Si      14.35734445      18.01303519      17.86118728
O       13.75764265      19.12622910      18.81758593
O       14.86343704       1.46347843      18.45937325
O       17.39858020      16.40847118       0.28719873
Si      18.74693050      15.87464927       1.01063001
O       18.63922678      16.12641406       2.58656427
O       13.92153000      15.68782992       2.37372052
O       15.02719179      18.05141655       1.97671141
O       17.46073074      18.48983251       2.98065190
Si      18.00228757      17.13718158       3.68426701
O       16.78953631      16.43182874       4.44270368
O       18.44656521      19.58246160      19.07279210
Si      17.83624381       0.57616944       0.17581680
O       16.59993441      19.83253320       0.91359875
Si      16.15125330      19.16327087       2.28719257
Si       7.72378830      10.59094148       1.34599773
O        7.76181327       9.65550672       0.01612619
O        9.19793407      10.71426973       2.00165647
O        9.16660473       7.42883776      19.55079577
Si       9.10879547       6.47220893       0.81610675
O        9.21638530       7.38292306       2.14595660
Si       9.94677098       7.52452807       3.56701027
Si       9.18714825      15.69594374       2.48586884
O        9.24719630      14.73353732       1.17229071
O       10.67229858      15.80674275       3.13546455
O       10.64197977      12.52691015       0.71325681
Si      10.57432258      11.55508637       1.96830330
O       10.65650407      12.49734442       3.29064598
Si      11.41135178      12.64821106       4.71760661
O        8.02924240      12.07080348      17.44009949
Si       8.78529914       8.89991621      18.98931333
O       10.64056040      11.93017337      17.33533504
O       10.12148326       9.78508836      18.84998101
Si      11.13326859      10.43297278      17.76848046
O       11.17484806       9.46825454      16.47649497
O        9.43650380      13.88674086      16.11030997
Si       9.41256009      12.93349297      17.41591827
O        9.47450356      13.85783592      18.73430300
Si      10.23550934      14.00330801       0.12509101
O       11.56615151      14.90923487       0.00679997
Si      12.58356449      15.54887019      18.90802956
O       12.62286396      14.59150508      17.64106899
O       11.84493668      10.52777235       1.90366349
O       11.28779620       8.43867470       3.40846067
Si      12.30634946       9.05292014       2.34327250
O       12.31637499       8.10953124       1.02257850
O       13.77386238       9.16219954       2.99464937
O       16.38832670       9.01207167       2.89791124
O       12.72090415      13.53391199       4.57221466
Si      13.74846672      14.18715036       3.50199131
O       13.78169076      13.21532673       2.17623967
O       15.25186436      14.30030657       4.17262512
O       15.16604514      10.99155986       1.66760781
Si      15.12713895      10.05864151       2.97766498
O       15.22373394      10.95198118       4.29134008
O       12.58027230      10.55001667      18.42966150
O       13.47699880       9.62549182      15.28676014
O       12.57844356       7.21192746      18.57831046
Si      13.33046944       7.36397289       0.00291070
O       15.19076083      10.37373436      18.34836380
O       14.64169117       8.26337477      19.86394887
Si      15.68079955       8.88762100      18.78955767
O       15.72519797       7.92324975      17.48467270
O       17.14962963       8.98477598      19.44186785
Si      13.93982875      11.40073247      18.38723398
O       14.05076677      12.34920726      19.72292875
Si      14.77754714      12.45149345       1.14003436
609
Lattice="20.0 0.0 0.0 0.0 20.0 0.0 0.0 0.0 20.0" Properties=species:S:1:pos:R:3 relative_density=0.96 cell_dim_angstroms="_JSON [20.0, 20.0, 20.0]" n_grains=16 grain_size=10.0 crystalline_fraction=1.0 grain_radius=7.780929270162494 pbc="T T T"
O       11.75464448       9.36712590      14.32668140
O       14.85238043       5.41458804      11.89306559
O       11.90828760       7.16038326      12.91732266
O       12.84974501       6.64137562      16.03729361
Si      13.30043411       5.18072122      15.57421697
O       10.46965965       5.93229305       7.80294528
O        9.57583722       7.19744449      11.61445335
Si      10.75136273       6.26406044      12.18883063
O       11.40493226       5.46620410      10.96522598
Si      11.85837727       3.95281023      10.48086228
Si      10.53348764       9.23956040      15.38938922
O        9.33911359       8.44453584      14.69914957
Si       9.10480620       8.00861953      10.30503702
O       10.14159173       5.26218946      13.29824912
Si      10.48828829       4.42554266      14.65058396
O        9.80412056       5.15018321      15.90087170
O       10.61282593       3.19018433       9.78176189
Si       9.04839012       3.21324430       9.52806886
O        7.59492880       2.98215788      13.18658558
O        7.18302140       6.98096345      14.28074240
Si       8.61539264       5.01439115      16.97930680
O        7.37164021       4.21795590      16.26653546
Si       6.02123502       6.10452172      13.56000407
O        6.68938502       5.27879646      12.33133099
Si       7.14360586       3.78727477      11.86040886
O        5.91333569       3.01150738      11.17253005
O        0.92983856       8.65110041       5.16578771
Si       0.49945248       7.42290624       6.14131630
O        0.62586158       6.02147565       5.32027672
O        1.42757508       7.46548435       7.42690363
O        1.06298589       3.57078588       6.20702912
O        3.89739887       8.13734792       6.65536715
Si       2.92291220       7.85923973       7.93007958
O        2.94644097       6.99823769       2.77016649
Si       1.56935426       4.69987900       5.23328272
O        5.04062234       6.18500639       4.13987507
O        7.07595505       4.54476724       1.75326223
O        3.08704612       5.11308791       5.58857023
Si       4.62289096       4.94033112       5.10779003
O        4.75461987       3.56080816       4.31714071
Si       5.71819810       2.23830130       4.19595425
O        5.41483888       7.70817659       2.03401625
O        4.35711199       8.77271090       4.15545151
Si       4.41881465       9.30066587       5.68656531
O        5.93690078       9.71440449       6.06431628
Si       7.47003993       9.56161117       5.58710850
O        7.62321738       8.14353896       4.79723688
O        8.48972412       6.29667444       3.16431450
Si       8.55650148       6.83443526       4.66968143
O        3.51143810       6.64317690       8.81672428
Si       3.09237873       5.43280292       9.74898082
O        3.26048190       4.00719204       8.96913926
O        4.06760435       5.45938844      11.05743781
Si       5.95893428      10.00173831      10.24502908
O        6.12025270       8.59773868       9.45755743
O        5.57781844       5.00143364       6.42833046
O        7.19678509       2.66256754       4.58433408
O        4.12666882       2.14694133       7.34554722
O        7.66224746       4.19337443       7.78095504
O        5.70065618       3.09548955       9.25036895
Si       7.25960498       2.93970694       8.76491641
Si       7.05809665       5.39544871       6.92790240
O        6.99229453       6.74911909       7.80951911
Si       7.04014302       7.30216584       9.33012918
O       14.07280127      15.00254920      12.96542086
Si      15.52430202      14.35294338      12.73240265
O       16.57676356      15.48662673      12.39275877
O       15.91644917      13.51598844      14.02354093
O       15.12711493      14.82729824      16.19935262
Si      15.76792100      13.46365664      15.64947785
O       14.75779581      12.21540119      16.03366204
Si      17.82741042      16.30858700      13.04919689
O       16.19989664      18.06193973      16.15085502
O       17.61670364      16.40359254      14.62724455
Si      17.66298518      17.41156566      15.90846583
O       18.71180402      18.56040097      15.60905073
Si      14.72207621      18.26244513      15.47870370
O       13.75575132      17.05369391      15.87621672
Si      13.70000679      15.56771212      16.51629014
O       13.51951192      15.65159966      18.13222191
O       17.22273228      13.23990184      16.31196066
O       18.64308607      11.59054419      14.82410248
Si      18.66373741      12.58673452      16.04420310
O       19.08518389      11.77511192      17.38276021
O        0.33995703      11.52531166      19.67427636
O       16.13088909      10.03890002      16.34370550
O       15.62656868      13.03649335      19.24299259
O       18.28322579      13.13493805      19.53709362
Si      18.91396656      11.73339963      19.01062607
O       17.93858683      10.50438582      19.37992829
O       18.07583479      16.59251395      17.22995934
O        0.77874275      14.66997917      17.99964476
Si      16.87937060      13.83077572      19.85210789
O       16.67033647      13.91431100       1.45113929
O        3.46348793       3.65773567      14.92105501
O        2.83692913       5.28247237      16.89050576
O        5.54267284       5.36866474       0.81962500
Si       4.60596687       4.21305471       1.47733284
O        4.01572059       3.26851385       0.31644524
O        3.41227503       4.89841606       2.27885917
O        1.89777653       3.57147121      18.69991972
Si       1.84185027       5.08442024      18.18018836
O        2.33372589       6.05904547      19.36436032
Si       1.93615793       7.41843966       0.16523592
O        3.57859736       0.42532901      16.48333017
Si       2.08920570       2.95256475      14.35695528
O        1.09649930       0.58621882      17.28063703
O        1.13590807       2.63163444      15.61131890
Si       0.25859735       1.48056544      16.28416908
O       19.63026274       0.54044305      15.06826923
Si       2.66903707       2.59658935      19.73901990
O        0.36356583       5.42157908      17.72440264
O        0.39140926       7.48687830      16.04358533
Si      19.47856696       6.31255400      16.71054552
O       18.88674221       5.38607341      15.50387370
O       18.29153439       7.03002336      17.51897797
O       15.78897815       7.16579757      18.32512456
O        0.93958010       5.03783001       3.11490150
O        1.17647530       8.41538485      19.11869532
O        0.97009233       7.10631858       1.40472078
Si       0.06638730       5.94860548       2.09547031
O       19.45019436       5.00192814       0.87340165
O       18.86011026       6.63643965       2.88979033
O       17.36627006       5.32899646      19.30609617
O       17.77815101       7.81603873      19.97631789
O       19.01329421       2.16500889      17.09638664
O       17.93947898       3.33590436      14.16056857
Si      17.53548891       4.70385327      14.96304325
O       16.54798285       2.33566381      17.89322664
O       16.60772528       4.36486115      16.21897224
Si      15.66692707       3.21608159      16.86889570
Si      18.05162826       2.00052761      18.36771415
O       18.47333886       2.97827789      19.53519462
Si      18.14513920       4.32744657       0.34495171
O        9.54858674       3.01775717       6.29949588
O       12.01394868       3.63197411       6.96289155
O       11.50171418       1.46927964       5.45139154
O       14.58290527       3.32513222       7.47994859
O        7.04282067       0.51374525       4.23936144
Si       6.85626591      19.60599332       5.56099603
O        7.81526497       0.21177816       6.72514593
O        7.29373490      18.06786562       5.21291241
O       10.41506026      19.85011398       7.23492664
Si      11.22910414      19.97229648       5.85234112
O       10.34955142      19.26198091       4.68543582
Si      10.47338259      18.22555039       3.43672387
O       13.01593781       4.27114263       9.30757650
Si      13.12079256       3.21393338       8.08786982
O       11.09801618       0.80177758      10.42251979
O       12.78613881       1.72884438       8.55600749
Si      12.64210211       0.81338562       9.90279603
O       13.59224354       1.39942580      11.07873591
Si       9.68443676       1.52857438      10.22946727
O        8.80342817       0.83346825       9.04168049
Si       8.91071744      19.81687073       7.81848105
O        8.57629732      18.31029088       8.36695049
O        9.35036973      17.97707321      10.80551585
O       12.63392331      19.23994606       6.01236172
Si      14.21024906      19.23479899       5.53501783
O       15.13669237      19.82241305       6.66706152
O       14.62105226      17.72891731       5.18018909
O       15.75737962      15.43163689       5.74987529
O        8.42495034      15.79871056       5.77548481
O       10.12021747      16.67950351       3.95050433
Si       9.95230399      15.77219843       5.25162279
O       10.92591089      16.40655857       6.43561916
O       10.42496259      14.29237985       4.94439965
O       13.50943460      16.08229771       6.96258292
Si      14.36096356      16.16673553       5.54943573
O       13.47334948      15.47982727       4.41490672
O       13.05667502      19.30616456       9.57866912
O       14.20512437      17.02634433      10.14262027
O       11.94998523      17.64610194      11.35789059
Si      12.77472152      17.74384548       9.94522205
O       11.92027289      17.05428462       8.77534801
Si      12.01846895      16.02856414       7.55005816
O        8.97139512      13.68460446       4.09388149
Si       8.37518192      13.57108143       5.61053515
O        7.20438629      12.47961625       5.62683015
O        6.03271697      15.72608707       7.86193874
O        7.61021935      11.98950971       1.58101483
O        6.94758915       9.45938660       1.15101207
O        5.81714409      12.70819665       3.35437982
Si       6.03117923      11.85454862       4.74017952
O        6.43826927      10.32632433       4.31723986
O        7.32018635      16.57381069       2.84883619
O        4.78368105      15.91113835       2.84095959
O        5.38238958      15.33362959       5.34911192
Si       4.20974423      15.82647848       4.32417669
O        3.66341901      17.26521225       4.79879473
Si       6.15829784      15.93472882       1.96351259
O        6.56038092      14.38333994       1.56311422
Si       6.24905670      12.84787793       1.85495848
Si       3.96199282      12.76086147      19.84119672
O        3.40152548      14.22839003       0.29966129
O        4.66169966      11.84170048       5.61078748
O        5.24638685      11.26192107       8.11399982
Si       4.08464741      11.75188417       7.10355309
O        3.56062368      13.21852985       7.55587894
O        2.88559416      10.67856962       7.13425779
O        4.39517566       8.76996968       1.08304811
Si       3.82667919       8.69121046       2.60204080
O        3.27182924      10.15246574       3.04837437
O        1.46879589      10.86021777       4.88225263
Si       1.71443816      10.01573697       6.22115336
O        2.99640583      14.72365738       4.34882522
O        2.50785688      15.62748305       7.53997461
Si       2.21521197      14.06174306       7.82949122
O        0.47059589      14.04665941       4.30554486
O        1.02874741      13.51848559       6.84453968
Si      19.89623483      13.95838301       5.82141069
O       19.34079595      15.43531236       6.30540493
O       18.67663740      12.89616020       5.83802628
O        2.75691777      11.70195238      19.86399022
O        1.61394716      14.92612519       2.10439724
Si       1.82784575      14.08440486       3.46400815
O        2.25345443      12.56504208       3.03404919
Si       1.96128526      11.03762033       3.33540047
O        0.77467658      10.46600756       2.36957837
Si      19.64879567      10.91177105       1.33917524
O       19.08934345      12.39807029       1.80153415
Si      17.52059267      12.22046552       4.97053738
O       17.94283673      10.74328758       4.50636329
Si       6.63771916      10.68495948      18.88041579
O        6.79456257      11.93836253      17.87316929
O        5.58580365       9.59286369      18.31929605
Si       2.27290157      11.03522543      18.57410041
O        7.89846161       6.11562615       0.54201336
Si       8.43286351       5.55924023      19.16002666
O        8.61004335       6.80502319      18.13112143
O        7.37428318       4.48065541      18.54254532
O        6.81950020       8.01411331      16.56776149
Si       5.46733098       8.27392401      17.42586725
O        5.21191262       6.97878709      18.36227598
O        7.56526995      13.49441273      15.89949394
Si       6.46892469      12.42441902      16.38580244
O        8.41719887       9.82720201      14.19127872
O        6.45646642      11.12197248      15.42368523
Si       6.99918597      10.56260360      14.01593199
O        7.15156298      11.82009029      12.99920825
O        9.39341733       8.34796992      16.15620211
Si       8.26778844       7.31378474      16.63356866
O        4.23732222       8.47391114      16.36632996
O        2.28315041       9.77367053      17.62902310
Si       2.82101493       9.19190598      16.19452294
O        2.96067600      10.45246790      15.19646798
O        1.73224656       8.12657159      15.61910040
O        6.04948979       3.36392201      16.60850145
Si       4.62572663       4.08646346      16.43217739
O        4.76984208       5.32480079      15.41997556
O        3.00544537       6.53932875      13.86208008
O        5.93653001       9.49303152      13.42221784
Si       5.79944700       8.17337222      12.52353648
Si       4.43116630       5.82718183      13.91249117
O        6.38029620      13.39733803       9.13152791
Si       6.26518301      11.97295390       9.84630317
O        7.55231707      11.78626236      10.78939573
O        9.02002544      15.39015183       9.46353815
O        9.67352175      12.79490933       9.60472992
Si       9.10846491      12.18767581      10.94085175
O        9.25545479      13.28355596      12.15194361
Si       9.77043470      13.51652573      13.63782831
O       10.09334447      11.55994379       6.46510501
O        8.64265190      10.03451590       8.10189539
Si       9.97860703      10.10131435       7.21288168
O        9.92013854       8.94095929       6.12365411
Si      10.77232332       7.76926253       5.42788048
Si       9.24879396      12.85026100       6.12109612
O        9.38472344      13.97017424       7.27504056
Si       9.88972728      14.18699089       8.81463555
O       11.46167177      14.64673024       8.82504318
Si      12.78201839      14.72302137       7.92301288
O       12.73956628      13.52273097       6.82520235
Si      13.58256142      12.33556197       6.17756036
O        9.95198127      10.87560978      11.33228894
Si       9.84566602       9.43074586      12.08392413
O       11.12870107       9.24345755      13.04344570
O       12.76817965      15.42450846      12.05950054
O        9.54300486      12.10342365      14.47850898
O       11.33333386      13.92040853      13.69525711
Si      12.68199338      14.00930516      12.80219742
O       12.60661201      12.85364346      11.69926459
O       13.27475548      10.25820450      11.83568372
O       12.83642902      10.74115145      14.37132697
O       11.29525013       9.93404665       8.17819988
O       12.34256556       8.15767320       5.47071526
O       13.64382721       9.00104964       8.72010957
O       12.19045637       7.49194431      10.33498840
Si      13.55368021       7.56213591       9.43523666
O       13.48302884       6.41456887       8.32492215
O       14.85254958       7.38536256      10.39741191
O       14.08729551      14.50598345       8.91177430
O       13.42817934      10.97141392       6.94473048
O       15.14986304      12.73782754       6.18137958
Si      12.84261618      10.34614678       8.31980255
O       12.95611645      11.43181518       9.51319335
Si      13.47221546      11.67341224      11.01139168
O       16.47162407      13.58345090       9.42114474
O       15.02255636      12.07233574      11.06283292
Si      16.35836010      12.15571120      10.14925637
O       16.32314938      11.00493379       9.07343149
Si       1.19931850       3.53224664       8.08083127
O        0.16109524       2.32726378       7.73654699
O        3.85972301       0.71337427       8.59793618
Si       4.07075157       0.41024319       7.06178330
O        2.74124589       0.83989424       6.24987351
O       18.49586767       5.13393403       6.27296135
O       16.50164287       5.32446526       7.99152567
Si      16.03048697       4.63243316       9.36669712
O       17.30689229       4.10442750      10.15378568
O       18.69215700       1.83100539       9.90075283
Si      18.91543393       1.50750476       8.34264083
O       17.57811126       1.91569672       7.50268618
Si       3.10193412       1.69065023       9.65068582
O        0.60401721       1.28639844      12.63366916
O        1.86378867       0.87285593      10.33134839
Si       1.35924072       0.21075923      11.71072692
O       18.97503763       3.28850393      12.01120437
O       16.68122453       1.99657411      11.61355726
Si      16.21440919       1.28937678      12.99945861
O       17.51245724       0.77312040      13.77032485
Si      18.12050660      19.47601292      14.53016385
O        4.36346886      18.83674273       6.85289791
O       19.17989070      19.92556165       8.13452567
O        0.46112122      19.55288027       5.84645947
Si      19.95506619      18.87642890       7.20608970
O        1.27541166      18.28305604       7.97668453
O       18.96429463      17.65018842       6.85127177
O       17.97883493      15.23860041       7.24481296
O       16.11836039      19.40994657       9.24092850
O       17.48593765      17.16182481       8.99506389
Si      17.70639743      16.80584962       7.45625828
O        0.36651416      19.02039739      11.37195377
Si       1.84931311      17.02096510       8.74913425
O       19.39899701      16.59302845      11.71238770
O        0.64018831      16.21799200       9.44836478
O       15.18469705       0.10030910      12.63846037
O       18.86300708      18.49375198      13.50213280
Si      19.08867605      18.16847683      11.93569007
O       17.77825717      18.60596901      11.12942545
Si      16.70561360      18.12391097      10.02381756
O       15.48210830      17.32893037      10.72319794
Si      14.99712811      16.61549493      12.08773696
O       10.22880328      19.51583721      11.88633520
O       10.95620945      15.61361995      12.93753679
O        8.76493241      16.53650366      11.82613623
O       12.51719440       2.89138276      12.22656189
O       11.49497246       0.94493059      13.71343764
Si      10.06934932       0.53134272      13.09725592
O        9.31362561       1.85626208      12.60148816
Si      12.15247173      16.68863441      12.79969746
O       14.00641545      19.16271797      15.16791400
O       12.11476821      17.69750007      14.06845630
Si      12.86991421      18.09640213      15.44950640
O       15.56972352       4.25243855      13.54940569
Si      14.85629275      19.91219391      14.01998665
O       14.09086880       1.25610931      13.49900651
Si      12.67092086       2.05077810      13.56996703
O       14.55222666       4.53220805      15.95373779
O       12.64355227       3.04247080      14.81265679
Si      13.41427124       3.41576246      16.22405979
O       14.04667135       2.07540699      16.82555783
O        9.21730718      19.80726488      14.25139690
O        7.32891242      18.30715575      13.14394439
Si       8.05234617      18.71435355      14.52444887
O        8.74509626      17.35307326      15.11690300
O        6.96720399      19.31246302      15.56415857
O        9.27866881       2.69571339      15.88762615
O        8.24546471       0.75603783      17.38794917
Si       6.81373772       0.34413328      16.79180860
O        6.04567690       1.67252515      16.26631148
O       11.77337806      18.69660899      16.45870348
O       10.28759464      15.70664070      16.42727924
O       10.75996977      18.97893105      18.87905255
O        8.86095146      17.48380874      17.72941144
Si       9.59699991      17.87889951      19.10620796
O        8.49754662      18.49015870       0.14438513
O       12.32232715       4.04297752      17.22276813
O       13.04882860       0.13129092      18.30910455
O       10.84096772       1.04684425      17.19619617
Si       9.45010816       1.84433148      17.22864096
O        9.40790207       2.84307145      18.48779982
Si       8.97024870      19.08271331       2.44239082
O       10.55125213      18.72578641       2.22053667
O        8.69389141       0.63520130       2.17451066
O       12.73422772       0.13455684       2.78323133
Si      12.59870131       0.76818489       4.25098556
Si       8.33710073       1.71238231       1.05598246
O       11.05999086       1.25704298       4.46166448
Si      10.11496487       2.47584623       4.93911105
Si      16.18897174      18.39164381       4.88324089
O       15.88269578      19.38521140       3.64208182
O       12.86758244      18.10285686       1.15679366
Si      11.94241761      19.32563092       1.65574832
O       11.61575219       0.32528241       0.42353182
O       13.60313313       2.02984037       4.40460883
Si      14.46043055       2.87829933       5.43894006
O       16.03059435       2.54306328       5.23475342
O       14.15167971       4.48363572       5.17803895
O       18.20822377       3.97281432       5.80154826
O       14.76976826       6.77789019       4.17622270
Si      15.67159445       7.65227186       5.19721981
O       17.23314585       7.31935395       5.02561938
O        9.77372783       3.43279495       3.71602343
Si      10.20226256       3.84030680       2.20384078
O       11.75346812       3.46823100       2.01924926
O        9.90594922       5.38566846       1.94099361
O       13.93697619       4.89732811       2.56739831
Si      13.80517432       5.54757102       4.04478210
O       12.26912986       5.98930559       4.23936420
O       16.00545744       1.32641080       1.86691842
O       18.32381218       1.90384808       4.16392369
Si      17.41007606       3.14554838       4.65721805
O       16.60234299       3.64836188       0.86815636
O       17.05422297       4.12747886       3.41110398
Si      15.60299399       2.40069061       0.72212710
O       14.07346442       2.86841772       0.94979102
Si      13.15484441       4.07273634       1.40786911
O       12.77398026       5.06507061       0.19875275
Si      13.20850219       5.46532790      18.66744707
O        0.93104287       9.13993608      14.81105070
Si      16.65711093       6.62885813      14.07263777
O       18.22432351       6.29648990      13.77263143
O       16.08951134       7.61155222      12.92031450
O        0.17863674       7.71356069      12.71213278
Si       0.15724948       9.15708969      13.36181078
Si      15.32735282       7.61326186      11.49728449
O       18.64992561       9.63184972      13.58086826
Si      17.61648499      10.85062107      13.35108115
O        2.68030282       5.59899508      11.67790857
Si       3.57490149       7.00040610      11.65803196
Si       1.90807319       4.63322180      12.68131791
O        0.38391501       5.07311973      12.87188972
Si      19.33231916       6.32584141      12.63196807
O       18.62709316       6.21767624      11.18058615
Si      18.70724201       5.43218151       9.77345024
O        0.26810222       5.06183872       9.46475540
O        0.96606744      10.17959046      12.37616997
Si       1.85227129      11.53736492      12.35116829
O        3.37772234      11.15564880      12.03611261
O        1.27197375      12.49489570      11.19675650
O       16.10846255       8.62987174      10.51426744
O       16.90753660      10.74867481      11.90401807
Si      16.96699847       9.97612714      10.47638535
O        0.50748626      11.03137128       9.13479340
Si       0.50718378      12.50709183       9.77467171
O        2.99745373       7.95759080      10.51581621
Si       4.54431243      11.18775151      10.91810123
O        3.83177699      11.07957214       9.43552235
O       18.15096372       6.40348352       8.62738222
Si       2.23298575       7.94255305       9.07045350
Si      17.36875972       6.39190877       7.19774164
O        0.69997952       8.43118350       9.27732283
O       15.83741614       6.87455555       7.41264608
Si      19.68719842       9.64208487       9.04229911
O       18.14521069       7.44023054       6.22218452
O       18.97912933       9.51611056       7.59926831
Si      19.05419954       8.74908002       6.17596950
O       19.68267077      19.24073028       1.27100422
Si      19.70381936      18.59007340      19.77776614
O        1.19472493       1.94068343       2.63811386
Si       2.15517822       1.86328396       1.32709773
O       19.66285404       2.85255630       4.54565955
Si      19.68670788       2.22611555       3.07482321
O       18.82417149       0.84409829       3.08243242
Si      18.82753278      19.32636049       2.61393591
O       19.52810800      18.38274993       3.77134451
Si       0.36112319      18.41096271       5.13052265
O        1.30720120      19.71766588       5.09255665
Si       2.84380973       0.21880717       5.34880659
O        1.23020627      18.28860756      19.32124582
O        1.34726992      18.18896367      16.68889138
Si       2.20073841      18.20333938      18.04339839
O        3.17932549      19.52485870      18.00672693
O        3.07611084      16.86931203      18.14992111
O        5.26502850      15.56998434      18.75485777
O       19.42552992      14.85389910       3.13445253
Si       0.40309598      14.75252331       1.82591062
O        1.36577291      16.06884943       1.79701206
Si       3.72994048      15.83612276      19.20735076
O        2.90211541      14.46380037      19.22250732
O        3.02330356       0.50569361       1.45549874
O        4.66492406       1.52917648      18.75020058
Si       4.68214252       0.00628276      18.24091363
O        5.21053540      19.21342320       2.05526724
O        5.34166703      19.07226406      19.39933312
Si       6.19484845      19.12539215       0.77945289
O        7.16538439       0.41230527       0.73849932
O        7.09276835      17.77629305       0.89766596
O        1.21404467      17.04582720       5.25237996
O        3.69520740       0.06449441       4.00008188
Si       3.71440868      19.48603502       2.50695958
O        2.83080686      18.12212925       2.55599981
Si       2.90260666      16.56778612       2.05786679
O        6.59104367      15.24610083      16.60609221
O        8.59746088      14.32018105      15.14726372
Si       6.98738056      14.46397476      15.25311948
O        6.33833120      12.99752231      15.25634732
O        6.45528209      15.31924194      14.00540072
O        4.72045968      18.02106028      16.57598885
O        4.85043755       0.37915160      15.32127650
O        4.09843466      16.40571064      14.59137168
Si       5.31151426      16.36958832      13.54534344
O        5.92180733      17.87378909      13.40554108
Si       6.40788844      18.96397199      12.33470170
O        3.66787470      13.50361043      17.57210384
O        1.94306799      14.00504153      15.69720655
O        3.91417307      13.08398035      14.20451637
Si       2.31917981      13.23127766      14.32946055
Si       2.48867839      14.51464537      17.11877036
O        3.10915038      15.99552101      16.97392439
Si       3.55782615      17.18253415      15.91787597
O        2.31888531      18.11519615      15.51791574
Si       0.72617075      18.29083677      15.63790333
O        4.73620800      15.86571484      12.12061262
O        6.74636919      14.89568935      10.63669351
Si       5.14554806      15.06908038      10.74975084
O        4.46904102      13.62011061      10.75508304
O        4.59381097      15.92616704       9.49011374
O        3.15445808       0.89884139      13.39167457
O        6.89906118      18.22450508      10.99377636
O        5.15192018      19.94687949      11.93332677
Si       3.53933761       0.08400118      12.05811911
O        2.89022424      18.61539479      12.03099102
O        2.25936001      16.96963194      10.07926121
Si       3.45156311      16.95123001       8.99316269
O        4.07567321      18.41100667       8.86548316
O        1.79948725      14.12071263      13.07526750
Si       3.29769503      12.69650129      10.09462513
O        0.05276404      14.63388384      11.19330525
O        2.06858741      13.65056318       9.69989920
Si       0.47187630      13.83277342       9.82887650
O       19.44285623      15.14934034      13.67444320
Si       0.65700357      15.10379029      12.58757537
O        1.25265665      16.63104859      12.44450315
Si       1.71648089      17.72302852      11.39060730
O       15.68723049      17.36445829      18.53898271
Si      16.25076541      16.00671311      19.24013473
O       17.22991255      19.83999073      16.75651172
O       18.73690480      17.67905686      17.23735642
Si      18.55092684      19.26148203      17.47524667
O       14.81853916      18.71448983      16.45036313
Si      14.35734445      18.01303519      17.86118728
O       13.75764265      19.12622910      18.81758593
O       14.86343704       1.46347843      18.45937325
O       17.39858020      16.40847118       0.28719873
Si      18.74693050      15.87464927       1.01063001
O       18.63922678      16.12641406       2.58656427
O       13.92153000      15.68782992       2.37372052
O       15.02719179      18.05141655       1.97671141
O       17.46073074      18.48983251       2.98065190
Si      18.00228757      17.13718158       3.68426701
O       16.78953631      16.43182874       4.44270368
O       18.44656521      19.58246160      19.07279210
Si      17.83624381       0.57616944       0.17581680
O       16.59993441      19.83253320       0.91359875
Si      16.15125330      19.16327087       2.28719257
Si       7.72378830      10.59094148       1.34599773
O        7.76181327       9.65550672       0.01612619
O        9.19793407      10.71426973       2.00165647
O        9.16660473       7.42883776      19.55079577
Si       9.10879547       6.47220893       0.81610675
O        9.21638530       7.38292306       2.14595660
Si       9.94677098       7.52452807       3.56701027
Si       9.18714825      15.69594374       2.48586884
O        9.24719630      14.73353732       1.17229071
O       10.67229858      15.80674275       3.13546455
O       10.64197977      12.52691015       0.71325681
Si      10.57432258      11.55508637       1.96830330
O       10.65650407      12.49734442       3.29064598
Si      11.41135178      12.64821106       4.71760661
O        8.02924240      12.07080348      17.44009949
Si       8.78529914       8.89991621      18.98931333
O       10.64056040      11.93017337      17.33533504
O       10.12148326       9.78508836      18.84998101
Si      11.13326859      10.43297278      17.76848046
O       11.17484806       9.46825454      16.47649497
O        9.43650380      13.88674086      16.11030997
Si       9.41256009      12.93349297      17.41591827
O        9.47450356      13.85783592      18.73430300
Si      10.23550934      14.00330801       0.12509101
O       11.56615151      14.90923487       0.00679997
Si      12.58356449      15.54887019      18.90802956
O       12.62286396      14.59150508      17.64106899
O       11.84493668      10.52777235       1.90366349
O       11.28779620       8.43867470       3.40846067
Si      12.30634946       9.05292014       2.34327250
O       12.31637499       8.10953124       1.02257850
O       13.77386238       9.16219954       2.99464937
O       16.38832670       9.01207167       2.89791124
O       12.72090415      13.53391199       4.57221466
Si      13.74846672      14.18715036       3.50199131
O       13.78169076      13.21532673       2.17623967
O       15.25186436      14.30030657       4.17262512
O       15.16604514      10.99155986       1.66760781
Si      15.12713895      10.05864151       2.97766498
O       15.22373394      10.95198118       4.29134008
O       12.58027230      10.55001667      18.42966150
O       13.47699880       9.62549182      15.28676014
O       12.57844356       7.21192746      18.57831046
Si      13.33046944       7.36397289       0.00291070
O       15.19076083      10.37373436      18.34836380
O       14.64169117       8.26337477      19.86394887
Si      15.68079955       8.88762100      18.78955767
O       15.72519797       7.92324975      17.48467270
O       17.14962963       8.98477598      19.44186785
Si      13.93982875      11.40073247      18.38723398
O       14.05076677      12.34920726      19.72292875
Si      14.77754714      12.45149345       1.14003436
609
Lattice="20.0 0.0 0.0 0.0 20.0 0.0 0.0 0.0 20.0" Properties=species:S:1:pos:R:3 relative_density=0.96 cell_dim_angstroms="_JSON [20.0, 20.0, 20.0]" n_grains=16 grain_size=10.0 crystalline_fraction=1.0 grain_radius=7.780929270162494 pbc="T T T"
O       11.08687142       9.72822792      12.76147365
O       15.92137863       5.96860434      11.03503081
O       12.73067382       7.58654208      15.14864881
O       11.57013917       6.55419791      17.58986557
Si      12.90789258       7.20396887      16.83166734
O       10.93788827       6.34057114       8.37583561
O       10.78010724       7.17125170      13.20584209
Si      12.09511674       6.52325546      13.90213394
O       13.00311439       6.06066581      12.48960307
Si      13.16320044       4.80932169      11.11269148
Si      10.15539688      10.23667315      14.26587638
O        8.67314373       9.59007313      13.67977916
Si      10.71276248       8.16852990      11.89357533
O       11.68972947       5.24459510      14.77596049
Si      10.48593427       4.39224768      15.29275828
O        9.63611795       4.96149989      16.72434998
O       11.83124124       4.12730714      10.29227634
Si      10.52052616       4.56145282       9.12984525
O        9.25959738       4.27535207      14.14058750
O        7.02467265       5.67000218      13.80150080
Si       8.35172184       3.93373645      17.46698224
O        7.55380043       3.68404741      16.02154442
Si       7.64718647       4.14995500      14.29669554
O        6.81284982       2.77892430      13.74172914
Si       5.91026782       1.69141449      14.76092704
O        2.09327879       4.13875289      14.17599410
O        1.49298990       8.57567906       6.36040507
Si       0.85891591       6.94849821       6.44402890
O        1.52410893       6.26003059       5.16491006
O        1.81310027       6.37549166       7.73445513
O        1.17050049       3.80433111       5.80465197
O        4.02331658       6.80482373       6.39114495
Si       3.43201369       6.50254795       7.99281463
O        2.86939096       8.09123807       4.01124004
Si       1.71595912       4.83198988       4.50618050
O        6.27177889       5.87216606       3.83705836
O        7.11689821       2.59560994       0.94396958
O        3.45227525       4.69087878       3.99493896
Si       5.20697612       4.69078440       4.45405617
O        6.01126304       3.30965152       4.05665772
Si       6.86532505       2.28283185       4.99863829
O        7.71359604       8.20539278       3.37403013
O        5.11306584       8.12417408       3.77263244
Si       4.08356846       8.06963263       5.38539357
O        4.96938060       9.32255905       6.20004118
Si       6.63212584       9.49276999       6.00343236
O        6.99340963       7.82107230       5.73948528
O        9.14464095       6.80336938       4.37291721
Si       7.37396604       6.96310286       4.44882799
O        4.09270557       5.20662264       8.76311026
Si       4.28249042       4.32340116      10.22457524
O        2.80089683       2.79423935       7.82937482
O        5.27364093       4.89740969      11.38198226
Si       7.01805948      10.04089288       9.10555310
O        6.02793546       8.80762078       9.41898736
O        5.51303623       4.74697294       6.14908786
O        8.23970269       2.84444855       5.84857958
O        5.79758345       1.82106531       6.21077104
O        7.39359420       4.25842461       8.04799559
O        5.35439260       2.98028030       9.38182703
Si       7.10567664       3.29926673       9.35256808
Si       6.74491820       5.37529998       7.09330072
O        6.21894349       6.61257856       8.01372555
Si       6.06762332       7.15929443       9.56073550
O       14.16713122      15.34674731      12.04921671
Si      15.46650682      14.51785678      12.59766466
O       16.58866998      15.63914452      12.72363088
O       15.13987960      13.78729865      14.20391692
O       13.50914156      15.64802125      16.22897146
Si      14.95055414      14.24999330      15.97768788
O       14.41758980      12.91729013      17.04605375
Si      17.71543241      16.25060680      13.58564173
O       16.83896913      19.28114031      16.37659234
O       17.04125517      17.07444674      14.82545093
Si      17.62186645      17.84593916      16.12078551
O       18.99775267      18.56084101      15.48914348
Si      15.54920988       0.08782769      15.85455399
O       15.01746126      18.93032043      14.63240316
Si      11.93841991      16.63656123      17.29993445
O       12.85497924      16.62685269      18.79515917
O       16.70582794      14.58263812      16.34159700
O       18.04001778      12.57025309      15.11003248
Si      18.16587732      13.43555939      16.46833351
O       17.47791087      12.51927425      17.76311198
O       19.58812601      12.11287020      19.15657041
O       15.77686170      11.05571358      15.34265985
O       14.38313346      14.78904902      19.79281226
O       17.08783574      14.32994012       0.08851867
Si      17.72895307      12.69799141      19.34842806
O       17.92978194      11.40348498       0.70387098
O       17.59389829      16.81317622      17.42175081
O        0.12621531      13.78539024      17.06839839
Si      15.47854432      14.53076428       0.97290289
O       15.46870419      12.92873991       1.22281169
O        4.71137305       3.02122799      15.20003347
O        3.55316578       5.29005303      16.49548643
O        5.11571965       4.54016464       0.38057893
Si       5.29560819       2.96939327       0.86279211
O        4.66222339       1.94697545      19.65639854
O        4.13893038       2.75769700       2.19221739
O        2.92497735       3.05695418      17.85301638
Si       2.48058409       4.70061985      17.60967968
O        2.62187633       5.59444336      19.08710539
Si       2.23881659       7.00729072       0.05293064
O        5.54590483       3.05166078      17.54099879
Si       2.18607889       2.45877932      13.75492542
O        1.33305936      19.74042536      17.05675212
O        2.20581434       1.72905841      15.32612784
Si       1.00928715       1.25227621      16.40199190
O       19.74131783       1.10187593      15.31844392
Si       4.34732456       2.11634671      17.99527581
O        0.97466985       4.75215579      16.90396311
O       19.95678557       7.16553903      16.14586050
Si      19.58347542       5.57293449      16.57811635
O       18.64545323       4.57299265      15.37378667
O       18.75244726       5.75490947      17.96084344
O       13.42884182       8.24974746      18.09208547
O        0.56829659       4.98698949       3.18817949
O        1.28094588       8.24106993      19.19321503
O        1.38275200       6.51819412       1.32168691
Si       0.05866338       6.35549669       2.20502211
O       18.74924538       6.05046282       1.07287195
O       19.83883460       7.81475188       3.26942424
O       16.63853332       5.07938857      19.15418951
O       17.58295500       8.68240813       1.23514010
O        0.36050963       2.33082693      17.59832780
O       16.49160542       3.03685646      13.58596842
Si      16.99799503       4.37878674      14.79828129
O       17.71960276       3.27991093      17.49062265
O       16.16224724       4.70853770      16.26622273
Si      16.29072451       4.11698788      17.79173246
Si      18.81001397       2.49298431      18.27501707
O       18.61741504       3.31561677      19.94932533
Si      17.72673246       4.82087108       0.51343107
O       10.49678503       3.56784148       7.51460999
O       13.14735926       3.85671405       8.05543961
O       12.80004527      19.78295554       5.08444483
O       14.96091540       2.53584200       6.74155060
O        7.19277112       0.90849351       4.21940117
Si       7.54154639      19.41761180       4.84298749
O        8.97285316      19.71424470       5.67066319
O        7.78276305      18.40741550       3.51337921
O       11.17933756      18.70804561       6.94391368
Si      12.63199920      18.62205442       6.14568320
O       13.24729956      17.16377662       5.27109593
Si      13.26466924      16.43584043       3.63517750
O       15.46399760       3.38840507       9.47251405
Si      14.38656696       2.75555137       8.28823137
O       11.11535834       1.50677242       8.93460132
O       13.79718226       1.30113917       8.79720013
Si      12.49711303       0.72649843       9.56598267
O       12.65818419       0.97744903      11.19983992
Si       9.49434837       1.16148042       9.40674925
O        9.23379657      19.77048514       8.57482903
Si       9.56681568      19.12235853       7.01880633
O        8.81337754      17.61480157       7.18741961
O        9.86832207       1.28250738      11.04901769
O       13.81541645      18.82621776       7.30124748
Si      15.40648496      18.60100831       7.16995091
O       15.93534955      19.59478175       6.04150588
O       15.58699517      17.09354552       6.34424705
O       16.26871846      14.87450142       7.39412982
O        8.89295898      15.34591920       5.41260578
O       11.73441184      15.59400126       3.92430457
Si      10.78883924      15.21244010       5.42381282
O       10.93581070      16.08882486       6.84645269
O       11.13350812      13.61386306       5.78530853
O       13.52819740      15.60152665       7.28565761
Si      14.98088812      15.56698765       6.42312181
O       14.39554905      14.66642308       4.96777809
O       12.25071717      19.09893182       9.42563571
O       12.53839581      16.53197441      10.08610281
O       11.32845060      17.78166348      11.77810703
Si      11.51634779      17.77433566      10.14411319
O       10.16491739      17.34076563       9.38034019
Si       9.62010131      16.54128943       7.99326798
O        7.34880746      14.37933142       3.49979487
Si       7.21970826      14.58596280       5.21260040
O        6.92168343      13.01684914       5.34690556
O        5.56726380      18.22219103       8.58051980
O        7.50459631      12.49511348       0.12153021
O        5.35877668      10.96864425       0.30277532
O        5.88214858      12.59117803       2.37109740
Si       6.10680839      11.98158461       4.14131522
O        6.74045431      10.45085109       4.54734476
O        8.66704830      16.10433412       2.79067787
O        5.51864214      16.32976832       2.95736170
O        5.88490139      15.50244248       5.45623649
Si       4.65406775      15.97332225       4.43987451
O        3.96930367      17.36561201       5.09137045
Si       6.97722273      16.43848115       2.00034763
O        6.97019876      15.12197323       0.99129088
Si       6.40533495      13.56647583       0.83767110
Si       3.59165814      12.19974491      19.96584359
O        3.38698869      14.12840082       1.42898574
O        4.54508492      12.04464813       4.71957009
O        5.55318422      12.01833961       7.17469128
Si       3.97791653      12.10955241       6.27130513
O        3.03500130      13.51978685       6.63682286
O        2.93445901      10.85262295       6.46873853
O        3.67887274       7.54947143       0.99114649
Si       3.92216993       8.42042802       2.48503222
O        3.43556569       9.89544182       2.30887149
O        1.38517987      10.21403737       4.20162771
Si       1.57304475      10.16841316       5.82650974
O        3.51240620      14.56540778       4.29176367
O        2.27190427      15.55996124       8.36706296
Si       1.84436953      14.05310218       7.74110848
O        0.80655792      13.26836320       4.73176653
O        0.27698409      14.05568918       7.13619680
Si      19.53516603      13.85068469       5.63505931
O       19.10727689      15.39046551       5.02309617
O       18.21798939      12.67591866       5.66623725
O        2.18514573      10.98495718      19.53677261
O        1.28566967      14.54871181       2.42400230
Si       2.02704114      13.70170772       3.66080612
O        2.47748428      12.25371873       2.93320929
Si       2.02596209      10.65672030       2.74199510
O        0.78941456      10.16749075       1.55074257
Si      19.72089278      11.23574194       0.72938259
O        0.36202054      12.54028896       1.33516539
Si      17.18318905      11.76104987       4.62502656
O       17.99266784      10.27992080       3.72553372
Si       6.97684754      11.28739393      17.03462954
O        5.37020581      12.03154713      16.69590791
O        6.37156872       9.82693213      17.50904797
Si       1.55771805       9.69845760      18.22644456
O        7.51288546       6.57872192       0.57041687
Si       6.76942953       6.13718293      19.09970281
O        7.91577706       6.57994009      18.01526409
O        7.24201452       4.48696166      18.71181561
O        7.02194848       7.93487733      15.92699309
Si       5.73708734       8.50297937      16.83636389
O        5.48001597       7.27933032      18.22739279
O        5.35700685      13.74023071      14.76944796
Si       5.48061873      12.17959289      14.87817377
O        6.62425843       9.85533295      11.79850373
O        4.89748424      11.10859509      13.82816977
Si       5.33998700       9.67174791      12.84451105
O        4.00273850       9.38517352      12.08020896
O        9.27705601       8.06631288      16.95742528
Si       8.06010367       6.72071899      16.31923869
O        4.53244772       8.87720995      15.65267178
O        2.67727541       9.15695116      17.23874184
Si       2.90053016       8.87695876      15.52602300
O        2.14039920      10.33102998      14.67003116
O        2.41574116       7.10646318      14.93810283
O        6.22158137       5.65022390      16.33666694
Si       4.76297760       4.88124168      15.44387301
O        4.40697426       5.61705042      13.90676682
O        3.96509715       7.01676493      11.53938747
O        5.94858474       8.20440770      13.58332054
Si       7.42158429       7.29100604      13.59479481
Si       5.09168934       6.16320604      12.43446659
O        4.51024939      13.03676114       8.87117861
Si       6.19755989      12.91621028       8.69702460
O        6.91685543      12.00396654       9.88680857
O        8.88993562      15.23216250       8.43324184
O        9.25412581      13.31069848      10.24280713
Si       8.21053272      12.36710360      11.02520660
O        7.76989027      12.95962484      12.62373847
Si       8.64909041      13.20774159      14.16649982
O       10.07081426      10.85821049       5.95954627
O        7.81183579       9.95624636       7.17799878
Si       9.53117691       9.74908801       7.06292776
O        9.80655132       8.16544416       6.55984512
Si      11.20248052       7.31815235       6.63460031
Si       9.90344854      12.49800644       5.82174830
O        9.19515991      12.88474494       7.36073345
Si       9.66066102      13.81368032       8.74153688
O       11.34841404      14.40363364       8.88281100
Si      12.94722128      14.41502674       8.29298494
O       13.16549681      13.08076770       7.48178822
Si      14.34678676      11.99843901       7.16576113
O        8.91824569      10.95796783      11.34205162
Si       8.24668957       9.62699991      11.97390689
O        9.12937091       8.35343249      11.40604250
O       11.65424034      15.11523232      12.32890831
O        9.61745315      11.79335020      14.68742356
O        9.91280999      14.00869453      13.71075104
Si      11.52782095      13.68623318      13.15187592
O       11.86064337      12.24097175      12.26325538
O       14.48112974      10.54310017      12.18227757
O       12.48482598      13.70712491      14.49736966
O       10.63542805      10.02443467       8.32165736
O       12.23031284       8.90839728       6.10992892
O       12.82610381       8.27675640       8.58937059
O       11.61135139       7.50331122      10.70458175
Si      13.08518719       7.42031072       9.87880689
O       13.63969858       5.83341700       9.86861977
O       14.19878921       8.12857884      10.82296601
O       14.14505146      14.76657014       9.50327582
O       13.61692297      10.60138323       7.68221969
O       15.52445516      12.52527229       8.30774671
Si      12.33994538       9.89101526       8.63535024
O       12.42414411      10.24703485      10.31949720
Si      13.08667191      11.31882066      11.37126583
O       16.04411800      13.69843317      11.10856544
O       13.86975087      12.35896425      10.41572684
Si      15.46400481      12.58043515       9.97902620
O       16.31195470      11.23122020      10.43527342
Si       1.15095071       3.37845698       7.53845989
O        0.06908692       2.05547092       7.42076897
O        4.63948532       0.65672352       8.26884684
Si       5.20507147       0.36835133       6.73830222
O        3.92075691      19.98910055       5.86083522
O       18.59900826       8.89003617       5.99883721
O       16.63760225       5.35120578       8.06641249
Si      16.38806141       4.76771193       9.70110422
O       17.98633856       4.57233964      10.19105084
O        0.49324776       0.93449467       9.62175046
Si      19.28199065       1.02882718       8.45856297
O       17.91893589       1.78174123       9.01760035
Si       3.91380975       1.96775108       8.90057203
O        1.14815831       1.52619189      12.25486933
O        3.15712768       1.72965359      10.34250343
Si       1.27549672       0.04513359      10.66264574
O       18.98482315       3.75611320      12.62205888
O       17.76225288       1.49268108      11.68995386
Si      16.70632416       1.39600045      12.95451468
O       17.41164649       0.51067797      14.14272123
Si      18.97260425      19.97191078      14.52659992
O        6.38912775      19.19018772       6.15172498
O       18.86594898      19.49167990       7.84593065
O        0.21113409      18.32096540       5.85256658
Si      19.63165376      18.02703326       7.36254311
O        0.91443936      17.86315090       8.42995850
O       18.64685021      16.56202274       7.38176377
O       18.45339743      14.21273956       9.16948091
O       16.22351268      18.74363410       8.57146922
O       17.15996456      16.46174054       9.59745660
Si      17.61275663      15.48011662       8.34047084
O        0.22945079      18.70891296      10.88657405
Si       1.50755355      16.67981167       9.42735983
O       18.74727109      17.12783540      12.53500927
O        0.25250079      15.84138844      10.01466243
O       15.29026166       0.50619961      12.38225307
O       19.46390625      19.60353397      13.08230944
Si      18.95094812      18.54035635      11.83872540
O       17.48087257      18.83135994      11.00206062
Si      16.46492378      17.92669610       9.97222232
O       14.99854034      17.46036189      10.58418767
Si      13.98745949      16.07017818      10.60188507
O        8.05702640       2.00778975       9.10298556
O       10.19222713      16.70836386      13.99966907
O        8.04894210      15.96413879      11.45079806
O       13.90655959       3.71318776      12.12465158
O       11.34883159       3.25939736      13.00907962
Si       9.89056885       2.68024251      12.10876054
O        9.34777057       3.95893375      10.66845671
Si      11.51256975      16.63818809      12.97852186
O       12.83666254      19.26930002      13.51450486
O       12.95269188      16.83754161      13.90869729
Si      13.51747976      18.18035022      14.64529095
O       16.55471077       5.64201218      14.06912499
Si      13.53824591       0.47359441      12.56983822
O       13.33671891       1.65301409      13.61825372
Si      13.04062325       3.10235660      13.59753074
O       13.85013911       5.79187839      16.80243096
O       13.61867520       3.56120224      15.27110589
Si      13.46183098       4.08548592      16.88489636
O       14.72984387       3.43043481      17.83869131
O        9.02696425       1.77650296      13.32377959
O        7.75935983      19.72463161      12.15282198
Si       8.82770769       0.03678359      13.36307051
O       10.24333844      19.46314305      13.20502118
O        8.15724012      19.30753803      14.78301966
O       10.96157192       2.84866850      15.71882152
O        9.69856588       0.64096525      16.27220828
Si       8.13311114      19.94365203      16.27389911
O        6.90242081       1.14043789      16.12246667
O       13.28444418      18.14818267      16.38778933
O       11.14019539      18.42884454      17.68073719
O        9.56968266       0.69850946      19.44534044
O        8.35915201      18.99198338      17.68362602
Si       9.65548668      19.02599515      18.79078456
O        9.19879427      18.16391198       0.36075038
O       12.05519157       4.08743030      17.73769605
O       15.60393571       1.67308893      15.53746379
O       11.75298745       1.34054709      17.90596051
Si      10.49305398       1.81508418      16.96846804
O        9.26940044       2.67299425      17.84995003
Si       8.97056875      18.71676310       2.20495630
O       13.05191713      17.81787725       2.82091886
O        8.68140228       0.35207032       1.95055979
O       12.12319553       0.42614493       2.62777189
Si      12.27349188       1.09837700       4.26907622
Si       8.21282509       1.15826554       0.60435378
O       10.79057082       1.72186186       5.11494903
Si       9.89643026       3.14405323       5.78435608
Si      16.70083468      19.37522818       4.66632060
O       15.58717762      18.73079225       3.42899443
O       11.73768812      18.09002528       0.63984192
Si      11.91132973      18.75239582       2.18230384
O       10.40831705      18.45889321       2.82959178
O       13.61961917       2.04419224       4.33990617
Si      14.52083506       3.10495650       5.20159205
O       15.98992625       3.37933931       4.46695894
O       13.60407686       4.44184116       5.37311365
O       17.92431879       3.20312835       6.31434690
O       14.22584443       6.84043671       4.62036898
Si      15.87016786       7.35804304       4.96123903
O       17.39834382       7.15825164       4.19967525
O        9.98796860       4.26168860       4.49686473
Si       9.75417818       4.05025319       2.77797758
O       11.21746182       3.28199398       2.38142790
O        9.89458873       5.52777262       1.84288614
O       12.66738872       5.43561757       2.90409999
Si      13.02136936       5.75351787       4.56986638
O       11.61366394       6.28669255       5.42430984
O       16.44893836       1.89605004       2.32774605
O       17.53021382       0.96861203       4.58670598
Si      17.51522403       2.75462397       4.77574773
O       16.59453311       4.54653197       1.74743826
O       18.71491447       3.23778070       3.70798489
Si      15.59484861       3.35446209       1.93714858
O       14.04000983       3.36550704       2.22849966
Si      12.62103615       4.04738385       1.88207006
O       12.38610566       4.18315361       0.22338553
Si      11.50529549       5.28211088      18.98933098
O        0.39896244      10.22500086      16.69974232
Si      16.35737588       7.27294786      14.39838346
O       17.80175948       7.76382507      13.73932061
O       15.19513066       7.61592476      13.26430311
O        0.28427519       8.48978872      13.88044065
Si      19.90485862       9.88644486      14.75298182
Si      15.49543567       7.58114167      11.58436352
O       18.28171379       9.96582171      15.02145821
Si      17.22551215      11.17882870      14.61296425
O        1.83301305       5.80653259      12.09189372
Si       2.50140326       6.60218558      10.93470567
Si       1.68306680       5.69765654      13.79603217
O        0.06218979       5.94750178      13.85766932
Si      19.29894122       7.22689625      13.17717978
O       19.48330933       6.84830582      11.40871890
Si      19.22311689       5.69317367       9.97267804
O        0.56886082       4.62718993       9.03686678
O       19.95644330      11.01881144      13.27885905
Si       0.86011456      11.30279177      11.77917082
O        1.57685100       9.98523421      11.26456720
O       19.88029031      11.86749246      10.45243539
O       16.60593924       8.82490787      11.49052070
O       17.07700240      11.13850714      12.97385804
Si      16.21909628      10.40704889      11.80289755
O       18.17845748      10.94287477       8.28888023
Si      18.31779667      11.63968883       9.83060430
O        1.66705842       7.69841880      10.09067590
Si       3.14263673       9.61320998      10.70359169
O        3.67055991      10.98178332      10.04460961
O       18.41757093       6.88949886       8.93420661
Si       0.26140974       8.66028069      10.03103107
Si      17.61256464       6.62529390       7.46639946
O       19.95151991       8.96728867       8.45118891
O       16.38322543       7.57242781       6.61979438
Si      19.12930398       9.94959140       7.34271317
O       19.09754686       6.39035154       6.47940889
O        0.26650302      10.84074183       6.58153151
Si      18.55820817       8.55492643       4.21564406
O       19.89942405      19.35118276       0.69558990
Si       1.26353942       0.04932295       0.20113454
O        1.03756760       2.68676499       1.57525255
Si       2.58296618       1.98094874       2.34621482
O        1.42545836       1.95673652       3.77696673
Si      19.81913870       2.25890339       2.88975084
O       18.98117910       0.86267810       2.55234431
Si      19.00739209      19.29563564       2.07407783
O       19.73885846      18.29628047       3.17133602
Si       0.85727658      18.00769038       4.30171707
O        2.07670047      19.09926030       4.22068215
Si       3.66567960      18.98178177       4.69463946
O        2.27603133      18.77172196       0.29168590
O        1.47229666      17.25479903      18.43416423
Si       2.81960553      17.66611660      19.26166400
O        3.49894774      18.69713654      18.24108305
O        3.97581498      16.39196983      19.59080938
O        5.16655907      13.75730412      19.75045598
O       19.52853576      14.83360634       0.50356434
Si       0.84740890      14.03727940       0.81481834
O        0.83515970      16.82453796       1.21905363
Si       4.15634955      14.90451069      18.97739143
O        2.10512670      14.45163164      19.37101408
O        2.69883554       0.46949317       1.92490999
O        4.45407791       0.63640987      16.99718468
Si       4.63111191      18.83859687      17.21359450
O        4.81912341      19.37434127       0.60294649
O        5.91516862      18.32407625      18.31787108
Si       6.21876810      18.83888811      19.93156052
O        7.10267831       0.19811700      19.81542344
O        6.90958544      17.79350034       1.06769442
O        1.71321761      16.55707533       3.80092115
O        4.56183875      19.33109122       3.32841051
Si       3.87279973      19.16271371       1.83969731
O        3.45656161      17.41455894       1.93386857
Si       2.37597868      16.21932880       2.07831646
O        5.22066660      15.29005616      17.37296385
O        7.75513395      14.21855656      15.47150414
Si       6.16627722      14.96412761      15.72770011
O        7.08597821      11.54066402      15.29107180
O        5.92808233      16.27081446      14.71976010
O        4.01956092      17.64389164      16.02463438
O        5.60809411       0.17502538      13.84311204
O        3.39039680      15.54129976      14.42725746
Si       4.77452772      16.17006245      13.51584061
O        3.97602713      17.40663962      12.96603802
Si       6.16659568      19.62201415      12.16421081
O        3.35325953      12.78135436      18.18533363
O        2.88372420      12.93621612      15.49281925
O        2.20242377      12.20563494      12.57203171
Si       2.14787094      12.15344308      14.30274290
Si       2.21433881      13.60897511      16.97145192
O        2.64586818      15.21064338      16.92773955
Si       2.74525992      16.38982371      15.79260475
O        1.17394141      17.20503855      15.88259106
Si       0.64398077      18.22295876      17.28932061
O        5.45602036      15.32456674      12.25195972
O        6.25962666      14.51600457       9.54058454
Si       5.02567007      15.00367561      10.72542329
O        3.78325337      13.75036937      10.99057892
O        4.38754695      16.30572269       9.97345426
O        3.55556132       2.12049098      12.99610232
O        5.61891182      18.29133959      11.29263481
O        5.32328664       0.77146714      11.44435798
Si       3.70711167       1.05567375      11.76655390
O        2.58566008      19.48694357      12.35702912
O        2.35824047      17.10159868      10.83480357
Si       4.59488521      18.01641053       9.93302277
O        3.01129603      19.25598027       9.82555057
O        0.71387758      13.29137604      14.33624472
Si       3.33546629      12.59914109       9.87369942
O       19.63533511      14.09109512      11.87438399
O        1.96067205      13.00037270       9.04215755
Si      19.82671012      14.28430554      10.20903140
O       18.78318622      15.11957191      14.13437084
Si       0.19622611      14.67084317      13.40833297
O        1.20769057      16.42488370      13.29064636
Si       2.42817975      17.63568736      12.34024688
O       15.16586541      17.03308848      17.93728529
Si      16.53942500      16.29959318      18.88577742
O       18.13748141       0.93806282      17.85171146
O       19.15607407      18.53526765      18.18828370
Si      17.85124050      19.66899691      18.64590057
O       14.54824248      19.98034335      17.18798673
Si      14.30106314      18.57121381      18.09143553
O       16.19538135      19.00322068      18.75990482
O       15.62523240       2.51594138       0.27526594
O       18.04319665      16.87186299      19.84119469
Si      19.07084161      16.30693178       1.04574573
O       18.16700653      16.08452936       2.52531769
O       14.87670184      15.54000911       2.61299059
O       15.60760846      17.09647389       0.54045326
O       17.54944737      18.54500603       1.72756763
Si      17.96769249      16.29511244       4.21868397
O       17.74740353      17.96415173       4.83119493
O       17.72605818       0.59431551       0.16219684
Si      16.35332112       1.07415231       0.79791083
O       15.36791923      19.83681726       1.04638678
Si      15.85861179      18.45392227       1.72003226
Si       7.50805400      10.82987294       0.29144949
O        8.31129960       9.72714542      19.07578102
O        8.72618286      10.71476305       1.66680492
O        9.90275851       7.29907924      19.51746329
Si       9.16205555       6.81454070       0.93458968
O        9.39818419       8.14589188       1.79815161
Si       9.66306419       8.36356499       3.45984365
Si       8.93580270      14.31983524       2.95684397
O        9.25568662      13.81483509       1.58855214
O        9.27527977      12.97166129       4.23408704
O       11.22862088      12.24373351       1.16485043
Si      10.59123220      10.91150256       1.96781553
O       10.96588637      10.94216629       3.66532865
Si      12.17582822      10.54242425       5.00580626
O        8.31979379      12.06078126      17.70920308
Si       9.65153363       8.64164582      18.51019903
O       11.10128475      11.89950397      17.24987555
O       11.02721030       9.49219957      18.33908846
Si      11.64067803      10.36778373      17.07666722
O       10.96199709       9.68278507      15.63111386
O       10.04462309      14.16942560      16.49761513
Si       9.86961148      12.88720811      17.60600710
O       10.06190188      13.57484106      19.09139121
Si      10.62456584      13.62053166       0.61916717
O       11.61317858      15.00995421       0.84796333
Si      11.69057761      16.42858135       0.00693084
O       10.75859647      15.98179714      18.44179205
O       11.56738511       9.69380237       1.50446223
O       11.36793130       7.71165557       3.13153182
Si      12.58242325       8.70178336       2.39778792
O       13.82286480       8.35469296       1.20209352
O       13.30115193       9.54129252       3.70343999
O       15.71183539       8.73126713       4.01199450
O       13.41978316      11.82226855       5.17286375
Si      14.28341184      13.08278916       4.19226193
O       13.51358601      12.74787593       2.65009730
O       16.04263156      12.81618524       3.83991107
O       15.18795855      10.61458896       2.27562211
Si      14.95018595       9.97637571       3.87578513
O       15.84813598      10.87897787       5.21558708
O       13.29888721      10.50373396      17.13572157
O       13.34426620      10.15495008      14.49596218
O       12.87726703       6.39508343      19.77310776
Si      14.00540023       7.68004480      19.63613199
O       15.91684771      10.20441002      17.87809345
O       15.67196568       7.59368619      19.07312806
Si      16.45641195       8.49165766      17.72357832
O       15.97405736       7.75919042      16.12617186
O       18.10471655       8.50431873      17.83437127
Si      14.47541869      11.29376353      17.95284358
O       13.86708100      11.45741146      19.67734651
Si      14.40736649      11.81365182       1.38610735
609
Lattice="20.000953888766958 0.0 0.0 0.0 20.000953888766958 0.0 0.0 0.0 20.000953888766958" Properties=species:S:1:pos:R:3:charge:R:1:forces:R:3 relative_density=0.96 cell_dim_angstroms="_JSON [20.0, 20.0, 20.0]" n_grains=16 grain_size=10.0 crystalline_fraction=1.0 grain_radius=7.780929270162494 energy=-43339.68996902928 dipole="30.290139516724587 -8.72266257773187 -32.07542398936521" stress="-0.19996526005053375 -0.001001973495671524 0.00019167954436444268 -0.001001973495671524 -0.20769472916952658 0.015067146087445919 0.00019167954436444268 0.015067146087445919 -0.18860104721735155" pbc="T T T"
O       11.11303812       9.74589602      12.74788920      -0.49273630       2.50283876       1.92581766      -1.18722377
O       15.92675906       5.95098180      11.04392379      -0.49527611       0.41700668      -1.85485281       0.90256696
O       12.74125556       7.62407278      15.13907029      -0.39623227       1.01766838       3.56433247      -0.95062559
O       11.52709152       6.55848996      17.58754011      -0.46133376      -5.16390278      -0.14662739       0.08580251
Si      12.91543437       7.17545002      16.83128724       0.91376628       0.21860678       0.56710309      -0.59490758
O       10.93606412       6.34001478       8.37095959      -0.46612951      -0.10244071       0.29347811      -0.52761896
O       10.74320560       7.16776265      13.21224748      -0.48573076      -4.89224903      -1.70043657       2.50760482
Si      12.13252734       6.54336203      13.89852029       0.93981874       2.62889040       0.91078831      -0.48581191
O       13.02241422       6.06620908      12.47465503      -0.55695151       1.78710366       0.93295943      -1.22659838
Si      13.13921792       4.76741654      11.12301249       0.89897964      -0.84854460       2.41194387       1.24259728
Si      10.17096778      10.24179404      14.26507119       0.91787794       0.76190930      -0.37929302      -2.42350308
O        8.64284474       9.58303458      13.70074012      -0.50811290      -2.56621536      -0.37037330       2.30962481
Si      10.74384298       8.15871662      11.87626215       0.92680360       1.55552833       4.19309431       1.79622808
O       11.72553228       5.21787543      14.80047144      -0.46232998       3.03498785      -1.36005376       1.43242422
Si      10.43967460       4.34152944      15.30377976       0.95126497      -1.45750515       0.77033684       2.05960453
O        9.64633172       5.00187907      16.74247851      -0.42083142       0.65575054       3.50113256       1.78901892
O       11.82754491       4.10806902      10.29612434      -0.39516045      -2.47834733      -3.00351074      -1.01740186
Si      10.51420691       4.58014437       9.12617728       0.78866453      -0.88053052       1.38726512      -0.44723330
O        9.27678519       4.28434118      14.11568647      -0.45740864       1.24582182       0.98707893      -5.74633178
O        7.00903403       5.70589023      13.78948871      -0.38329855      -3.24737517      -1.51032259      -0.75390598
Si       8.33072616       3.95505416      17.46729670       0.88371380      -0.72231125       1.61331496       1.36966419
O        7.57533815       3.60499397      16.00232480      -0.47388239      -2.59173972      -1.73583358      -1.66657085
Si       7.64006465       4.12919321      14.31302759       0.90120768      -1.50995633       0.78128879       2.59302829
O        6.81814098       2.79898779      13.70914283      -0.44785433      -0.86145964      -1.71379090      -4.60622971
Si       5.91044304       1.69117796      14.76554674       0.88150851      -0.04497880       0.10180630       0.14705091
O        2.10301100       4.14004955      14.19829437      -0.40637590       1.21443308      -0.97270703       2.42443165
O        1.51763221       8.59119706       6.35923523      -0.50791168       1.63017292      -2.66863712       1.88696280
Si       0.81370208       6.98524700       6.48168685       0.91323970      -2.66095722       1.56703630       1.07260198
O        1.52805751       6.28383578       5.15749024      -0.46447797       1.50491655       3.07297411      -1.87576671
O        1.79041781       6.35191973       7.76217250      -0.40122872      -3.10483918      -2.44910797       2.33999389
O        1.15862413       3.78234362       5.81013642      -0.41575266      -1.13451159      -1.97215978       0.33420199
O        4.03765800       6.76499628       6.38511403      -0.35828662       1.26330295      -3.04627169      -1.27432827
Si       3.44802798       6.54482614       8.02462153       0.55779519       1.29442752       6.26535219       1.83816171
O        2.68702375       8.10232058       4.00608770      -0.43839854       0.14262989      -0.23540126      -0.49170439
Si       1.73265719       4.77745901       4.48816270       0.92996110       0.95593242      -1.40896500       0.21506100
O        6.27276203       5.84218978       3.80104849      -0.40242252      -0.79234692      -0.36215655      -3.62299198
O        7.13827096       2.61139182       0.95832232      -0.43417794       1.89136102       1.74517282       1.40935014
O        3.46055115       4.68925608       3.97436774      -0.44543077       0.45323128      -0.15434018      -2.15086977
Si       5.18254598       4.69450128       4.46558028       0.91152212      -2.76412182       1.33083161       1.40088755
O        6.01249548       3.29928007       4.02078682      -0.43947373      -0.36795882      -0.78001431      -5.09630507
Si       6.85613335       2.28107251       5.02028692       0.94552390       2.27345824       0.97720765       0.48855874
O        7.64890262       8.35026606       3.39451873      -0.38295690       2.24615048       2.12089550      -1.82781446
O        5.17291169       8.13071110       3.78698961      -0.41692667       1.90329043      -0.35284862       0.51306231
Si       4.06282289       8.08706207       5.33139280       0.77553407      -0.93518248       0.83227913      -3.05220839
O        4.95162714       9.34670657       6.23141335      -0.43714837      -3.74911361       2.00393699       3.14958404
Si       6.61696326       9.49667380       5.98023937       0.92095898       0.32992740       0.48358441      -2.37133516
O        6.97895144       7.81259504       5.83069610      -0.48717009      -0.16029680      -0.76914297       3.99229423
O        9.26742475       6.70369755       4.44505614      -0.41442157       0.80084435       2.15499998      -1.68276787
Si       7.37982757       6.92944119       4.44028335       0.80747510       3.32452484      -0.40422584      -1.32949414
O        4.10918084       5.19288307       8.73930588      -0.35065518       2.37680799      -2.04827936      -3.76338520
Si       4.26176331       4.39153685      10.20222529       0.41820820      -4.74242810      -4.13411917       1.80205732
O        2.80986304       2.80417206       7.81351221      -0.41906628       0.60439551       1.11676738      -1.78718303
O        5.35539997       4.87652501      11.42476926      -0.38790825       4.39654338      -0.81456134       1.51385313
Si       7.07303439      10.03966376       9.11645895       0.37266626       5.85304481       0.21040347       1.18902509
O        5.99263553       8.81649573       9.40778493      -0.27366612      -3.85926468       2.13306682      -1.23278853
O        5.49078942       4.73363698       6.17407020      -0.39935771      -3.93698187      -2.33399709       1.31837292
O        8.24362187       2.85096369       5.87170854      -0.48285641      -1.24378102       0.45997858       2.64426386
O        5.79562600       1.84579453       6.22067767      -0.49964683      -1.87429736       4.21837433       3.03423508
O        7.41722153       4.24234189       8.04741140      -0.35045859       2.88276953      -1.30530879      -0.80877728
O        5.29962604       2.97648682       9.38183469      -0.31991270      -3.25092518      -0.08405730      -0.03812786
Si       7.13018717       3.31145223       9.40002066       0.56740938       0.07380897       2.68693137       6.43854651
Si       6.76658446       5.39514877       7.05496266       0.56935424       4.26354284       1.79022207      -4.09459243
O        6.21084198       6.63969808       8.00661069      -0.29048931      -1.33807711       3.42858973      -1.27373706
Si       6.07283968       7.13326011       9.59198737       0.29434911       0.64305718      -2.98856413       4.67578995
O       14.13294732      15.35122481      12.07714389      -0.42907688      -3.92321202       0.20113621       3.43129104
Si      15.44122709      14.45820366      12.61355830       0.91012560      -0.06348299      -2.94523557       1.35426693
O       16.57640348      15.66104538      12.66569100      -0.47313787      -0.36034571       1.59250685      -3.44324425
O       15.13662488      13.76218722      14.20690932      -0.41529967      -0.37484689      -2.64974476       0.47663666
O       13.52672181      15.60109785      16.22426386      -0.34801404       0.41735560       0.00073694      -0.28693349
Si      14.92246150      14.26784433      15.98558466       0.86357778      -1.67033879       0.81209326       0.54826462
O       14.40967284      12.92034023      17.05358537      -0.40628418      -0.88695012       0.30922085       0.65155171
Si      17.75263677      16.28474685      13.62283101       0.96010022       0.98389952       0.80641814      -0.35668138
O       16.83468466      19.26596614      16.42504110      -0.47149785       2.00802738       2.22756203       3.01612253
O       16.99728666      17.08182928      14.83032984      -0.45832225      -5.59772586       0.11149625      -0.65830754
Si      17.63162386      17.86683091      16.13838090       0.95516761      -0.38953670      -1.89793475       1.34084440
O       19.06069394      18.50874548      15.48925708      -0.48896991       4.73144794      -0.94364756       0.21081810
Si      15.52005914       0.09039226      15.83861384       0.90761456      -1.48924589       0.50408165      -2.48497044
O       15.03432888      18.91065829      14.61297614      -0.46755415       3.90342592      -0.44910854      -2.44479256
Si      11.97057091      16.67102273      17.14971770       0.72229270       0.31948409       2.18260407       3.05243215
O       12.89240738      16.66900660      18.86147657      -0.33702671       2.03127814       0.31698626      -3.15378600
O       16.71406506      14.60999568      16.34716657      -0.45653690       0.77608938       2.48240040       0.44261734
O       18.04438761      12.56199497      15.08068801      -0.42512470       2.98246108       2.86174770      -2.71152572
Si      18.20822737      13.45479061      16.47014278       0.82478043       4.03747296       2.50610357       1.79343554
O       17.44441309      12.48961093      17.71837405      -0.34180763      -2.81020331      -2.28015449      -1.10228290
O       19.59715344      12.11521360      19.01206365      -0.40987671      -2.45140740       0.23034718       2.18409494
O       15.75253891      11.05256777      15.35542419      -0.43490446      -4.98766264      -0.57162382       2.34202831
O       14.36527391      14.79865867      19.76349497      -0.44661407      -1.66767091       0.68050550      -2.77547678
O       17.13888814      14.39224519       0.04883445      -0.32550054      -0.36246229       2.08088731      -0.58147383
Si      17.72493913      12.71440041      19.37910265       0.73427169       5.44355865      -1.95535828       2.31790775
O       17.85496299      11.38415020       0.75779644      -0.32525030      -1.26064490      -0.29821255       0.37433280
O       17.68394770      16.74584341      17.37953602      -0.46826222       0.95019130      -3.69591291       3.62957290
O        0.12303452      13.78921555      17.07040367      -0.39787567      -0.31327283       0.32725138       0.09643365
Si      15.46383983      14.58037111       1.00824664       0.80887097      -0.77175452       4.04407939       2.60534551
O       15.54407678      12.91378947       1.22579438      -0.43989162       4.49090577      -1.10248193       0.37842971
O        4.67706399       3.01414250      15.17400589      -0.41323726      -2.18897028      -0.89450989       0.42889361
O        3.55224046       5.30651444      16.48820993      -0.42623670       0.01286269       3.59753011      -1.19462837
O        5.11728019       4.57571071       0.37336038      -0.44385836       0.05339749       4.25716641      -1.06438195
Si       5.30729126       2.97013914       0.85272425       0.88407121       1.21002720      -0.69094737      -0.60681356
O        4.64790459       1.90977310      19.66398884      -0.45831169      -1.00129459      -3.86952163       2.90996541
O        4.15977015       2.76923212       2.21734903      -0.40583442       1.76506256       1.05076644       2.51521396
O        2.88778086       3.04099675      17.85659177      -0.47874626      -3.20600417      -1.89190006       0.36087773
Si       2.47072016       4.71036026      17.59695555       0.97169787       1.00757999      -0.32044888       2.65649482
O        2.63405306       5.58758208      19.10372364      -0.44154490       1.21724792      -0.70968940       1.65715357
Si       2.25831998       7.02895529       0.01271762       0.92159797       0.94280561       1.59317309      -2.24181176
O        5.58331532       3.07439784      17.50870236      -0.40693860       3.15389736       2.72201253      -1.72373432
Si       2.10148264       2.46222727      13.76101729       0.83836661      -6.15983478      -2.61769406      -3.83232188
O        1.33903798      19.74967841      17.05707282      -0.45383864       4.01671787      -0.31072199       1.82924938
O        2.22498051       1.72245486      15.34946732      -0.40051044       4.25631969       0.28980170      -0.17752596
Si       1.00665934       1.22269781      16.39758818       0.94780385      -0.82507919       2.06637000       1.72913649
O       19.75017591       1.14005208      15.32971869      -0.46158862      -1.85882893       4.12788611      -1.33401359
Si       4.32066754       2.08366652      18.02562283       0.91323077      -0.06109590      -0.39896279      -1.10666070
O        0.98299563       4.73680550      16.90035094      -0.45424915      -0.24376463      -3.30670524      -1.64997716
O       19.95894698       7.17594236      16.14090451      -0.41764993       0.92321096       4.32570700      -1.35326113
Si      19.59695393       5.58894746      16.56870630       0.88523438      -2.60146503       0.07718229      -1.30240008
O       18.67065070       4.55498517      15.36186094      -0.45279700       2.26191899      -1.86779886      -1.26418702
O       18.72992274       5.75932915      17.99969468      -0.39633898      -2.40812449       0.50126206       4.10728588
O       13.45231407       8.29370048      18.05417074      -0.46203153       0.25963566       4.47742711      -1.12171052
O        0.55509013       4.95368119       3.18197629      -0.44779512      -1.18764682      -3.22816879      -0.58849014
O        1.25449487       8.23961059      19.19859997      -0.41566120      -2.70942889       0.07835920       0.19113213
O        1.40090365       6.50656629       1.33819488      -0.44784889       1.39448076      -0.84653640       1.26815799
Si       0.01609209       6.35393826       2.22919890       0.92519798      -2.35631408      -0.11775224       1.49620036
O       18.74094248       6.06197702       1.06234949      -0.38800193       0.43865302       3.10396722      -0.45430733
O       19.86184748       7.83366241       3.27035515      -0.38078601       2.01958148       1.96429139       0.23613164
O       16.62250038       5.11545983      19.16689682      -0.40751753      -1.72908124       3.34019084       0.93109746
O       17.58487811       8.68328270       1.23713180      -0.18863845       0.11471282       0.04201583       0.19021888
O        0.37946718       2.35266235      17.61281834      -0.43467899       3.66589065       2.14569597       0.80868622
O       16.47927936       3.06213102      13.58716836      -0.37128256      -1.30970984       2.10691597      -0.22533875
Si      17.01572728       4.31036502      14.83034719       0.89065578       0.62803485      -3.29722969       1.24644208
O       17.73987053       3.35103372      17.48041830      -0.42911428       1.09833593       0.29322033      -4.30941581
O       16.07390432       4.78112423      16.26280095      -0.44192947      -1.85534312       2.66991368      -2.06717741
Si      16.30310097       4.10385087      17.79802530       0.91567338      -1.29778334      -0.19101320       1.90918478
Si      18.84878157       2.46259845      18.31911773       0.89506044      -0.51043011      -1.13091468       3.37409817
O       18.63806889       3.29672872      19.97149055      -0.47630718       1.91100246      -1.83124398       2.16811350
Si      17.76191248       4.81967739       0.47630155       0.91941573       1.25362977      -2.04348374      -3.58400558
O       10.50450533       3.56086543       7.52066622      -0.40167158       0.74602378      -0.64797342       0.72273633
O       13.13631850       3.86948337       8.05687664      -0.48785954      -3.64856877       3.42011494      -0.46418738
O       12.81889899      19.78981671       5.06845262      -0.47724355       2.34054923       0.05327140      -1.44342780
O       14.95867048       2.54004019       6.71878056      -0.44925566       4.40335674      -3.57323306       0.64586622
O        7.19456887       0.90425219       4.17654326      -0.47224232      -0.12982537       0.31581308      -5.74081145
Si       7.52907326      19.40922122       4.83207879       0.93192555      -2.12141045      -1.27402043       1.36325291
O        8.96890673      19.76475938       5.58938789      -0.44124772       3.32390203       3.48322437      -2.35273193
O        7.76502152      18.38779221       3.51995555      -0.44852230      -1.40785862      -4.11423426      -1.93593234
O       11.17277140      18.71529193       6.94653334      -0.44349292       0.62593977      -1.18611068       2.71268831
Si      12.61048829      18.60099029       6.16543911       0.96908820       0.23695637      -2.97682887      -2.37435283
O       13.25923824      17.14903696       5.28902605      -0.53460019       1.23041030      -1.88571773       1.26823766
Si      13.30305702      16.39661209       3.63034905       0.85200813       3.44461214      -3.49584822      -0.77541759
O       15.48028639       3.38693731       9.50109172      -0.40168343      -0.29190278      -2.95068929       2.44646044
Si      14.37210403       2.75868323       8.25569414       0.93354329       0.28338606       2.57427567       1.75922618
O       11.13439722       1.53805550       8.87833727      -0.50852510       0.27386115       2.73465548      -2.86252763
O       13.82018915       1.28908849       8.78921389      -0.44720464       3.41377153      -3.74243412      -1.04989999
Si      12.49873050       0.69730781       9.57330220       0.96271982      -1.79167235       1.62794050       0.03455573
O       12.64590442       0.99331784      11.20786976      -0.47292770      -1.32626248       2.12802204       2.99228598
Si       9.47684749       1.18535442       9.43189497       0.91780572       2.42573586       1.23922112      -0.61532453
O        9.22043442      19.76123931       8.59743713      -0.42511777      -1.83193949      -3.24011183       1.29497818
Si       9.62378788      19.26723880       7.01371768       0.91077557      -1.93182213      -1.13094355       1.59381238
O        8.77979905      17.65168747       7.15725357      -0.48732413      -3.70399989       1.24949777      -2.43621637
O        9.85022480       1.25096983      11.05724216      -0.44130970       1.14568748      -2.48993821       3.82011519
O       13.77594437      18.83611153       7.33075459      -0.45518855      -2.25816329       1.32512924       4.96882728
Si      15.40164571      18.57115157       7.19060830       0.95424678      -0.19486800      -1.94977352      -0.66392271
O       15.92516404      19.65404788       6.05572140      -0.43510768      -0.48020496       4.42823290       0.43478485
O       15.61173500      17.09311205       6.31834592      -0.49096415       2.94493356       0.72538743      -2.82700549
O       16.27536722      14.84054165       7.39527005      -0.48299347       0.47061491      -3.30960958      -0.00240832
O        8.89524982      15.36022326       5.41485789      -0.50356319      -0.05046537       1.46526649       0.24048347
O       11.71242925      15.57855458       3.90374810      -0.44049783      -1.97121542      -1.38814049      -2.19550691
Si      10.80570613      15.24374690       5.42311889       0.89474688      -2.26888405       1.66327280      -2.02257765
O       10.97079116      16.09886340       6.85128292      -0.47164230       3.51287911       1.71277077       1.88844228
O       11.12921423      13.62554240       5.79545347      -0.46198314       6.07125308      -1.32836132       1.10666611
O       13.51670396      15.62669662       7.25548096      -0.44828247      -3.06551841       4.22128067      -0.57889128
Si      14.96497613      15.56542624       6.43922718       0.92669738       1.35481458      -1.78174269      -0.16499685
O       14.38634986      14.67710731       4.95646528      -0.39838561      -1.02454945       1.06599892      -1.10887560
O       12.24137669      19.07718754       9.43496954      -0.47612926       2.16933321      -0.91624424      -3.66069913
O       12.53886098      16.50477032       9.98033524      -0.48870129      -0.95225715      -3.19520407      -2.84528909
O       11.29564322      17.81048103      11.79599558      -0.42338505      -1.49478528       4.47461780       1.97433285
Si      11.52680268      17.80683169      10.17372914       0.98344658      -0.08059640       0.49445020       0.45395029
O       10.16299635      17.34600467       9.38902080      -0.44650949      -3.52158996       1.00331677       1.81059002
Si       9.67559384      16.54147598       8.03900548       0.94113149       0.85723406      -0.56977609      -1.87592163
O        7.27939849      14.36744870       3.37192249      -0.51711360      -3.72881432       0.34553905       0.54679309
Si       7.20729898      14.59689721       5.26457809       0.87012832       3.15876374       1.08218781      -2.45269232
O        7.03667127      12.92309289       5.43949449      -0.45910042       0.41203140      -3.38117733       2.75059321
O        5.57217515      18.23035851       8.56739743      -0.39876640       1.62109750       0.84037926      -2.85514243
O        7.50458067      12.51651417       0.12133141      -0.39716660       3.96359429       1.55981151      -3.11363345
O        5.36445018      10.96196210       0.30061071      -0.38937037       0.65250404      -0.76584637      -0.20266139
O        5.86218933      12.57447532       2.36166635      -0.43014447      -1.71831318      -1.43228654       0.04051228
Si       6.10687580      12.00733407       4.12404387       0.88497385       2.39717117       1.96108841      -2.19030911
O        6.76369574      10.43795050       4.52455415      -0.41649062       2.10044956      -0.98451912      -2.50637933
O        8.80075686      16.29143211       2.70423168      -0.44012580       0.34001849       0.12995800      -0.40455965
O        5.51681336      16.33456811       2.94791060      -0.48981986      -1.08561167       0.81462474      -1.35781187
O        5.85288056      15.53255313       5.49493555      -0.38732209      -0.17298768       1.16928456       4.83163445
Si       4.63665257      15.99211578       4.43255379       0.95908589      -0.86111930      -1.87995776      -3.63490819
O        3.97520789      17.34882641       5.10356457      -0.42497539      -0.77682676      -1.86594985       4.28128678
Si       7.00831284      16.41351773       2.00129183       0.92389232       1.39101088      -1.23166416       4.99358364
O        6.96033005      15.13321320       0.93600018      -0.41901347       1.76095116       1.36421720      -3.63373565
Si       6.43987435      13.57256624       0.85875706       0.94228517      -1.01544734      -1.41211711       4.77916254
Si       3.60243735      12.18676627      19.98268264       0.62426385       0.93460977      -1.36876479       1.19961528
O        3.43093456      14.13473743       1.47301677      -0.50463948      -0.68576881       1.65167492       0.04946836
O        4.52866594      12.04750524       4.70101324      -0.43287991      -3.07833016       0.15866754      -3.35920176
O        5.59428431      11.69657832       7.12014652      -0.43001992       2.61457066       0.11231540       2.80260872
Si       3.97899867      12.10562578       6.28224798       0.90405020       1.67648961       2.08051306       2.93169886
O        3.04052831      13.54173757       6.61666882      -0.46067168       0.59884990       2.11291189      -2.08634280
O        2.92677014      10.83886745       6.47607859      -0.47103970       1.59654132      -1.71813479       3.45393205
O        3.70927455       7.54448449       0.97832115      -0.39891018       2.93596115      -0.54353304      -1.32981569
Si       3.89644288       8.36189647       2.51774733       0.82648222      -2.06851218      -3.22674785       1.50767198
O        3.43771393       9.95968497       2.29071060      -0.41511996       3.83289056       2.46965962      -2.37444172
O        1.36698817      10.23440292       4.20221395      -0.45968203      -3.93136266      -1.20814950      -1.18902839
Si       1.58697235      10.16690997       5.81216364       0.99122826      -0.19742116      -0.50984041      -0.15623517
O        3.51263384      14.55091970       4.29787228      -0.48634002       0.44239675      -1.27756833       0.80009026
O        2.29066946      15.54658260       8.34788816      -0.48021454       3.38212729       2.77224338      -0.27499140
Si       1.82061330      14.05239231       7.76046351       0.95192521       2.53854675      -0.32712882      -2.29300796
O        0.81552190      13.26688378       4.72357914      -0.47378166       0.36780182      -3.96104955       0.39914592
O        0.28230777      14.05414167       7.13772023      -0.45586152      -3.60432162       0.62063385       3.05628206
Si      19.57385174      13.84463262       5.64453531       0.94924251      -3.15406424       0.37718079      -1.64621877
O       19.12774496      15.40421943       5.03030030      -0.38622026       2.66848936       1.17869724       0.97375689
O       18.21618597      12.67509450       5.69206849      -0.42164413      -0.62474857      -0.42015391       2.38200417
O        2.17252093      10.97327526      19.54141518      -0.44673193      -1.02686984      -0.86592345       0.46305311
O        1.21428653      14.62438883       2.50474235      -0.31655470      -2.68683657       3.15487698      -0.91051342
Si       2.01972790      13.67610529       3.65936634       0.96438506       3.77365401       2.46112920       1.68922084
O        2.47295430      12.26194576       2.93924925      -0.43427452       3.36337673       0.84290706      -1.79357962
Si       2.02364883      10.68353697       2.76576797       0.92939786      -2.19911136      -0.43315734      -2.58206486
O        0.79375796      10.05874341       1.55508029      -0.37867988      -0.22494961      -3.42850148       0.25667662
Si      19.75220164      11.15316139       0.70607718       0.77563303      -2.56970511       0.03698199      -5.21508367
O        0.34758645      12.55495292       1.41367147      -0.45792478       0.26375339      -0.38710690       4.36004622
Si      17.20340006      11.74969036       4.60906563       0.82816843       1.60290355      -0.98841183      -1.14025679
O       17.99817153      10.29297309       3.70410373      -0.41564735       0.56875699       1.00842306      -2.16554268
Si       7.03263918      11.27554825      17.08060201       0.84543702      -1.35044796       2.25735051      -4.13102834
O        5.31670625      12.04159669      16.75191863      -0.47181358      -0.78182355       0.44323360       0.84847448
O        6.37159701       9.82269066      17.56004044      -0.37965275       0.27659802      -0.07169833       4.21926939
Si       1.50065573       9.74202625      18.23357618       0.82896040      -2.16239538       2.24503945      -1.25862809
O        7.48205591       6.58297896       0.60022350      -0.42388845      -3.16384297       0.34568186       2.60239128
Si       6.71583791       6.12236631      19.10205954       0.86075187      -3.86452851      -1.25354392      -0.29192023
O        7.90735122       6.63194405      18.04501584      -0.44583731       3.13172074       1.09635415       1.95480927
O        7.22155367       4.33377219      18.81749208      -0.34474650      -0.70814717      -1.48638982       1.75300964
O        7.05337865       7.96882304      15.93282877      -0.37271308       0.66330705       2.48052988      -5.26623085
Si       5.72177671       8.47138279      16.82388509       0.90120946      -2.31335728      -3.14649535       2.09867974
O        5.44346034       7.27945452      18.24773580      -0.39337539      -2.77489351      -0.28894748       1.85363412
O        5.32053723      13.82658637      14.73912570      -0.41457249      -2.18525000       1.98220028      -2.90297911
Si       5.46245837      12.16441789      14.86228264       0.80948281       2.28171727      -1.53948877       3.73565247
O        6.60517213       9.87069396      11.76339140      -0.45719132      -1.20779768       1.73049901      -4.54880574
O        4.83908900      11.05648056      13.76760955      -0.40101683      -3.19382711       0.71078582      -0.96566492
Si       5.38302101       9.68114143      12.87716076       0.92662619       0.75974999       0.07413741       2.82661040
O        3.96193643       9.41304334      12.11009870      -0.43338649      -2.33876006      -1.15380180       2.98654716
O        9.38436601       8.18350545      16.86046573      -0.44955791      -1.89723763      -2.79858445      -5.13113495
Si       8.11330488       6.73146556      16.40058190       0.63899693       4.41580258       0.06152984      -1.60822807
O        4.56826525       8.88350273      15.60375746      -0.42227017       2.00455739       1.02441388      -2.94717791
O        2.71876751       9.13202270      17.23159714      -0.41623275       3.35700015      -1.40100189       0.06026958
Si       2.87930956       8.85868735      15.52106267       0.89232283      -2.68618149      -1.56078334      -0.59660733
O        2.12559575      10.32330138      14.65974657      -0.42795684      -1.64985238      -0.82114791      -1.08566983
O        2.41951520       7.09829457      14.94236471      -0.45728119       0.77606352      -0.14936246       1.06515412
O        6.17308227       5.66232746      16.36188254      -0.50511478       1.76929530       0.59361335       0.44603322
Si       4.78382552       4.86646850      15.46435617       0.86384805       3.84965717      -2.17466916       0.14849868
O        4.36792595       5.61117538      13.92216363      -0.38169152      -3.74657583      -0.32532655       0.98347658
O        3.96542285       7.04690312      11.52416922      -0.39834760       1.49568010       4.46845802      -0.63828778
O        5.93045551       8.17371197      13.59805073      -0.38054321      -1.38596510      -3.25426528       1.02744832
Si       7.56645869       7.30124985      13.60232792       0.41949617       3.59139387       1.82511529       0.91663607
Si       5.03079213       6.21065106      12.51242395       0.69807510       4.32532575       0.47423833       0.97874376
O        4.44463422      13.15738696       8.85430291      -0.50623547       0.72423363       1.65998366      -2.97662632
Si       6.18124914      12.93011650       8.64610542       0.66230843      -1.56100301       1.42749442      -5.59086244
O        6.88738397      11.99163851       9.90097001      -0.31503495      -2.77223833      -2.33521807       1.31765526
O        8.82517839      15.17006779       8.45480956      -0.45106329      -4.18862857      -1.29627390       0.54642294
O        9.30203442      13.34570007      10.28581654      -0.37629788       2.62817787       1.56267454       2.37476213
Si       8.17307024      12.41601209      11.04750738       0.91629961      -1.72900518       1.36279323       1.78675346
O        7.73261360      12.96913752      12.62613697      -0.47022572      -3.69791158       0.91386718       0.51464998
Si       8.59692849      13.16420720      14.19443806       0.91416656      -1.65207233      -1.73005547       1.14086025
O       10.07554697      10.84210502       5.94929047      -0.38910271       2.11974398      -1.16420599      -3.85469709
O        7.80115840       9.97223910       7.19577908      -0.31360567      -1.48426166       1.78060977       1.98714055
Si       9.55711932       9.72597848       7.07091614       0.92343267      -1.55799190      -0.42829817       1.27457530
O        9.77705546       8.17361195       6.55474167      -0.40386622      -3.91244199      -3.22454895      -2.23874900
Si      11.23009851       7.31521644       6.67312109       0.84174197       3.85752860      -0.27123408       4.64766961
Si       9.91149165      12.49089565       5.81612406       0.92833717      -3.05128097       2.77821947      -1.48166012
O        9.16352144      12.85908066       7.36162378      -0.48892667      -3.61944192      -3.14173871      -0.87071859
Si       9.70182257      13.68902577       8.71725052       0.89078845       2.99840228       1.91373455      -1.04568367
O       11.33612160      14.41145248       8.90126556      -0.45802814      -1.12211979       0.79721654       1.83447414
Si      12.94262854      14.45734381       8.31017984       0.94627455      -0.96661725       0.03387544       2.56629295
O       13.12909872      13.05375478       7.45567590      -0.47538954      -3.52596433      -1.49902737      -1.70144707
Si      14.38233758      11.99010763       7.14514510       0.68095547       3.22879801       0.17494065      -2.25957788
O        8.94431353      10.96641428      11.32705832      -0.47910472       5.00132546      -0.02856006      -1.69612179
Si       8.22517004       9.61666857      11.97404833       0.89991292       1.10186639       0.26514717       3.24699887
O        9.14500093       8.35227445      11.40421135      -0.47347160      -2.48538714      -4.33433458      -4.71341063
O       11.68936401      15.13324556      12.29439449      -0.45293538       1.15429870      -0.73353706      -6.04447532
O        9.66227401      11.77832685      14.71256855      -0.46599605       0.69260597       2.52284054       2.27674538
O        9.92133115      14.07902307      13.70349228      -0.41374385      -0.14334163       3.24410821      -0.54491182
Si      11.54217026      13.69559723      13.14670679       0.89442006      -0.19067270      -1.83721713       0.73804759
O       11.84296005      12.22068687      12.25226407      -0.45187369      -1.94112198      -1.93244652      -1.00018259
O       14.47109256      10.52919650      12.21096066      -0.47542982      -1.23708973      -1.31880310       2.74736047
O       12.50395138      13.70518912      14.52371585      -0.37957957       2.76469255      -0.20973783       3.82076262
O       10.60441357      10.03418753       8.33481719      -0.47424553      -0.64651489       1.63141018       4.22293958
O       12.23483963       8.90997755       6.11118339      -0.51255244       0.37583421      -0.35900941       0.46017565
O       12.82271005       8.29038723       8.52523865      -0.43743286       0.12521346      -0.90547182      -5.31682975
O       11.62021723       7.48945688      10.67842521      -0.45267636      -3.28440328      -2.10450762      -1.36116913
Si      13.06978621       7.38716977       9.90894756       0.97338766       0.21728603      -0.48725080      -0.48947505
O       13.64935133       5.83021417       9.85666270      -0.43447919       3.34324830      -3.11096701      -3.40576442
O       14.18985671       8.18390032      10.82520388      -0.47881298      -0.14766299       5.24678526       0.61714319
O       14.21735816      14.69657250       9.51513462      -0.49916062       2.88043705      -2.04348434      -0.13413267
O       13.62579260      10.57690024       7.67877841      -0.42873489       0.87154392      -2.87085492      -0.37370577
O       15.56146458      12.53881894       8.33491837      -0.46359212       3.82210883       1.05806719      -3.02004638
Si      12.33064894       9.95245332       8.60793714       0.91136262       0.37269297       1.17303482       0.29754401
O       12.39943675      10.22276034      10.31932473      -0.46882172      -2.41681227      -2.45868332       0.30858494
Si      13.09457006      11.32796194      11.39959236       0.95008671       0.09672531      -0.13060614       3.51786598
O       16.06300443      13.68781708      11.08989331      -0.49060115       3.89345790       2.43236162       1.83179183
O       13.87380260      12.38523400      10.39053731      -0.51377196      -4.05854242       2.57849421      -1.97517482
Si      15.44195600      12.60895566       9.98350237       0.97220086      -1.11207070       2.47119910      -0.23532829
O       16.31491414      11.21827302      10.39763281      -0.37781758       2.25182717      -3.68336366      -3.44757279
Si       1.12809442       3.41068696       7.56725057       0.86812769      -1.86886036       3.25874165       2.91907550
O        0.06450180       2.06445835       7.36927813      -0.37974556       0.96262464       0.82743413      -4.00838307
O        4.69229540       0.57301436       8.26025229      -0.36467195       1.36455251      -3.46460558       2.80177910
Si       5.31034107       0.33537636       6.68869063       0.94721768       0.80556854      -0.71246078       1.13204612
O        3.88437701      20.03197577       5.89258351      -0.45713102      -4.07293793       2.51911974       1.36437560
O       18.58958895       8.87693172       6.01140573      -0.52056510      -1.06258688      -1.46586221       0.83050264
O       16.61436293       5.33363084       8.04090446      -0.46223691      -2.08002513      -1.56606100      -2.52157814
Si      16.39848334       4.76473497       9.70196480       0.92123689      -1.49576345       2.96207682      -0.91814534
O       17.98907971       4.56275572      10.20022993      -0.35715156       1.51716561      -4.30511971       2.70638828
O        0.48917591       0.96894094       9.61779066      -0.41016887       2.95941500       2.59811494       1.34724611
Si      19.28084792       1.03846074       8.46556455       0.92258007      -1.55730656      -1.53997247      -0.44165627
O       17.89737170       1.79148827       9.02734558      -0.34886700      -3.98661943       1.98199292       1.66750393
Si       3.81476255       1.84649888       8.84224155       0.89868420       1.21990453       2.12637260      -1.71678826
O        1.14996817       1.53912865      12.26626167      -0.47856833       0.34585841       1.47209602       1.37151636
O        3.11405790       1.75101966      10.34992624      -0.39376259      -4.28845590       1.91482387       0.48488421
Si       1.30092450      -0.00487145      10.68654579       0.84109274       6.13362611       0.03861480       2.97370140
O       18.98397333       3.75429328      12.62274409      -0.17791093      -0.18365431      -0.24141405      -0.00659529
O       17.78535693       1.49771539      11.66445011      -0.34445682       2.84504547       0.51651398      -3.18353524
Si      16.70383273       1.40039589      12.95869677       0.91145967      -1.98583154       1.94532228      -0.72757457
O       17.40086076       0.49985372      14.17979574      -0.46388099      -3.57149203      -1.52077299       3.17168406
Si      18.92124607      19.97848614      14.54115619       0.95866952      -0.13669782      -1.67679661       1.23328945
O        6.38674574      19.16533747       6.16706771      -0.43254879       1.75190977      -4.91985022       0.55763070
O       18.83942461      19.48390646       7.83991892      -0.47406203      -2.81565015      -0.82257701      -0.64720779
O        0.21105492      18.33031926       5.84824915      -0.47210774       0.31259166       1.26942647      -1.22905871
Si      19.64756160      18.01999079       7.38087554       0.95737091      -2.50361653      -0.65617256       0.18789022
O        0.92515459      17.87070901       8.43306589      -0.44897568       2.65265845       4.17464694      -0.16607351
O       18.64784448      16.55217533       7.36054556      -0.51910460       0.02298962      -1.00125069      -2.18099074
O       18.43725158      14.18127492       9.16454105      -0.39749285      -1.60962932      -2.84653186      -0.51532955
O       16.24172965      18.77090366       8.58044465      -0.43005868       2.27267204       3.92673753       0.27674704
O       17.16475134      16.45250745       9.61306259      -0.48081985       1.09427802      -2.53830197       3.29639138
Si      17.61110186      15.50705567       8.34134310       0.92273719       0.83422732       0.27575901      -2.33853489
O        0.25262534      18.67858638      10.83604685      -0.45327531       1.19595440      -3.39836731      -2.77191163
Si       1.51606069      16.70518209       9.42458582       0.98422284       1.34093106      -1.78390380      -1.77062328
O       18.76728574      17.08242811      12.53452606      -0.50110601       2.41708179      -2.97135596      -0.98323352
O        0.22368052      15.86388644      10.02571679      -0.43471843      -3.89114077       2.57701515       1.50958504
O       15.30176154       0.48585152      12.36383573      -0.46781980       1.17148238      -2.03688311      -1.90683925
O       19.50093158      19.59675211      13.04231537      -0.45611318       4.27269691       2.25262407      -1.39804203
Si      18.93460509      18.58146391      11.86196783       0.95504403      -2.71998230       0.51903321      -0.81285487
O       17.46479128      18.86208114      11.00252281      -0.44443797      -1.60853574       3.13912651       0.20138126
Si      16.47624799      17.90898808       9.97194934       0.96537099       1.13292641       0.97609496       1.75546932
O       14.98601403      17.48483123      10.60070335      -0.48057043      -2.75234928       2.19652758       2.26315298
Si      14.00353978      16.07698155      10.58991911       0.92796500       2.31677830       0.02846535      -1.10219103
O        8.07179333       1.98005253       9.08985497      -0.37625412      -2.32934029      -1.97116157      -3.05053352
O       10.18409473      16.71241420      14.00974732      -0.33693635      -3.75906928       0.45284444       3.17623151
O        8.04895844      15.96421947      11.45096196      -0.16466483      -0.03481891      -0.07278632      -0.04266073
O       13.94844697       3.68784006      12.13232351      -0.38180985       3.67684798      -2.10823487       0.26978261
O       11.33056311       3.27253295      13.00646716      -0.50006042      -1.51194327       1.31246368      -0.27337081
Si       9.89708433       2.70511759      12.07526790       0.86077382       0.67772570       1.82270450      -2.44976098
O        9.35327939       3.95792319      10.67010371      -0.45148889       0.19159775       0.46272065      -0.52059437
Si      11.48912383      16.65029497      12.96118068       0.90997392       0.57781636       0.27312120       2.07764593
O       12.77761388      19.23060195      13.47436443      -0.42623817      -3.89671574      -1.26324740      -0.16823987
O       12.98354706      16.77050792      13.92932537      -0.43572924       1.71002359      -4.27851229      -0.17540146
Si      13.53078532      18.17757596      14.64057610       0.89133136      -1.06104576       0.75590446       1.18266352
O       16.53372465       5.65359773      13.95398127      -0.45410956      -0.73656207      -1.28267226      -3.85464213
Si      13.54895052       0.41065898      12.55717286       0.92356452       1.71382668       0.02742976      -1.97681907
O       13.38444449       1.65203522      13.65288151      -0.45630770       0.49682057      -1.03842633       4.09163254
Si      13.01024804       3.25511601      13.63028332       0.91529189      -0.48166562       1.70010595       0.45601030
O       13.88066857       5.80488415      16.79869192      -0.48976344       4.31389125      -0.90203620      -0.30596100
O       13.63446403       3.55322361      15.25361892      -0.40057895       1.63288264      -0.67695858      -1.30776904
Si      13.46784770       4.09829153      16.88168502       0.92358235       0.74344891       0.86780744      -0.63792190
O       14.70211247       3.37883738      17.88690604      -0.38340228      -0.79088328      -3.03945544       2.09919386
O        9.02449503       1.81384010      13.35067312      -0.45781349      -0.93871179       3.59908049       2.49766351
O        7.80697174      19.71889878      12.10196396      -0.39909627       1.98631229      -0.82751760      -4.66563512
Si       8.79577283       0.07747329      13.40340577       0.89354711       1.16475556       0.60513337       1.14373191
O       10.33766238      19.46309053      13.23428216      -0.34804704       4.15721641      -1.72276886      -0.41777041
O        8.13432768      19.26187245      14.76202834      -0.43298617      -2.34056695      -4.13312142      -1.25537129
O       10.97158223       2.84474255      15.70773011      -0.45462634       3.64466270      -2.04368064      -3.41647603
O        9.70274880       0.60669028      16.23727683      -0.48325523       1.32350194      -2.24667786      -2.95347071
Si       8.13510189      19.95635842      16.29651635       0.90699832      -0.15150503       0.73949825       1.32248118
O        6.88702775       1.16104098      16.14734735      -0.43073285      -1.32548131       1.78356900       2.39547618
O       13.19829143      18.08481910      16.40536984      -0.33123108      -2.14624381      -1.88878271       4.58295891
O       11.14367037      18.42290942      17.68183761      -0.38342450       0.66305910      -0.96046283      -0.27389458
O        9.59661010       0.72647483      19.44085237      -0.42083871       2.58126150       2.37830161      -0.53807409
O        8.32601333      18.96328151      17.69213627      -0.40963972      -2.81778784      -2.79966186       1.01892690
Si       9.68622518      19.01907563      18.79027857       0.81828499       2.17197236      -0.54114835       0.10342496
O        9.23759940      18.14819467       0.36200466      -0.50960966      -0.62983057      -2.58922800       0.20608532
O       12.02130172       4.06716057      17.74488597      -0.44856288      -3.57749276      -2.02578472       0.50519146
O       15.60836528       1.72351619      15.52619563      -0.40893996       0.29015920       4.40270443      -0.91612852
O       11.78116225       1.32895860      17.92679441      -0.35199103       3.68375742      -1.56319587       2.66886364
Si      10.51886387       1.85798828      16.96931104       0.92707416      -0.43188513       0.55060111       2.28340626
O        9.27152840       2.64666750      17.89328504      -0.46819727      -0.54745040      -1.63288336       3.76653625
Si       8.94496708      18.72496252       2.16062076       0.89897865      -1.42663684      -1.81917876      -2.77516039
O       13.09066735      17.82965872       2.81509904      -0.42747482       3.85152510       0.69952688      -0.46037017
O        8.68790030       0.36294321       1.98098320      -0.44219602       0.67855484       3.34139751       4.02154211
O       12.12758259       0.45508615       2.60251049      -0.42984390       0.36900471       2.89870398      -2.52248400
Si      12.27242749       1.12392463       4.26658787       0.93747981      -3.74486945       1.04796786      -0.95710563
Si       8.19807748       1.15832415       0.58788823       0.86795258       0.44836685       2.77430823      -1.39741186
O       10.78073977       1.70443250       5.12055730      -0.48773321      -1.18089352      -1.63451110       0.65806733
Si       9.90132890       3.14218523       5.79598607       0.88652197       2.50605828       0.40226209       0.66348656
Si      16.72222862      19.38454399       4.61584723       0.88958788       0.74051960       0.76847231      -2.44485766
O       15.55470026      18.72528080       3.44758769      -0.43804606      -3.12671290      -0.73495055       1.52786701
O       11.74138508      18.11625478       0.62560499      -0.38719336       0.04073226       1.48320344      -3.80238199
Si      11.89916704      18.76906266       2.17174105       0.93471335       0.32028617       2.68644461       0.49149081
O       10.42219880      18.44433905       2.87317896      -0.45687868      -0.65340503      -2.04942298       5.19437109
O       13.63412239       2.05320501       4.33833159      -0.46092854       0.93835262      -1.12605067      -3.55999081
Si      14.54225573       3.08748860       5.23423343       0.98933961      -0.33411361      -0.35806520       0.77976273
O       15.97852005       3.38070179       4.46355280      -0.43871645      -0.28954862       3.93328325      -5.03315138
O       13.60974098       4.42551599       5.39024079      -0.47904788      -1.75369618       0.79216902       3.87432790
O       17.92910870       3.20741049       6.32851446      -0.43730107       1.09827001       1.24539402       4.25099095
O       14.22529462       6.84173852       4.64296420      -0.47628123       1.22063328       3.03912370      -0.11494414
Si      15.87331803       7.36090085       4.94403227       0.85481304       0.78174803      -3.24263538       0.95558311
O       17.55334831       6.99762853       4.21079550      -0.40346542       0.12966017      -1.80951104      -0.67065312
O        9.99930939       4.29997328       4.50600663      -0.38139142       1.04938329       3.51556661       0.83015508
Si       9.71999998       4.01042594       2.76104595       0.53378511      -5.41847328      -1.30774163      -1.07124351
O       11.20185143       3.27642027       2.39716643      -0.43391896      -0.28239172      -5.15711982       1.47148213
O        9.91656937       5.53108626       1.84285886      -0.39634614       2.27832599       0.23096147       0.03249576
O       12.66382285       5.47232544       2.89411170      -0.47727597      -0.39595933       3.52909197      -1.30240989
Si      12.98803510       5.70185022       4.56869653       0.96446468      -1.28610960       0.06799012      -1.30325212
O       11.59109217       6.27528812       5.41791929      -0.33526147      -2.16967139      -1.70529699      -1.30692688
O       16.50443478       1.86023508       2.47566373      -0.47733097       0.07569833      -0.18137640      -0.17243458
O       17.55013517       0.95262990       4.58230039      -0.47143517       2.03011499      -1.39687337      -0.42095322
Si      17.49845362       2.76781207       4.77839673       0.93509776       0.32492495      -3.60626936       1.39462706
O       16.67403262       4.66509376       1.76528926      -0.38434516      -0.03822444       3.74558106       3.63925402
O       18.69888046       3.25593817       3.71317796      -0.38848229       1.12188101       4.10827937      -2.11344856
Si      15.57891701       3.45281540       2.03176033       0.79831927       1.80222629      -5.10362980      -4.10848826
O       13.96704822       3.30064345       2.27932513      -0.37501754      -0.30954692      -2.92767144       2.42845445
Si      12.56405406       4.07845333       1.86911412       0.92977171      -0.50693070       2.71637135      -0.26523255
O       12.34648734       4.02936202       0.20351968      -0.34220019      -0.12594041      -0.66692221      -4.00672435
Si      11.53711639       5.29581685      19.01708759       0.69587107       1.22836135       1.08198539       0.89731364
O        0.39323865      10.22687937      16.70122834      -0.45019631      -1.15226914       0.31582209      -1.00482551
Si      16.38936207       7.26239962      14.39629947       0.91323703      -1.09401867       0.69005418       4.81233133
O       17.82715160       7.82108522      13.73542692      -0.42241937      -0.30024975       4.02128796      -0.58491518
O       15.16535296       7.65616341      13.28843646      -0.44144008      -4.08449059       1.49244779       0.32778451
O        0.30748490       8.49755433      13.87668784      -0.46588940       3.18285299      -1.54976719      -1.97311774
Si      19.92468860       9.87904922      14.78885490       0.89278524       4.32820659       1.75885967       4.54659660
Si      15.52438890       7.54210186      11.57068659       0.92981863       0.37873779      -3.00119566       1.00830612
O       18.27701371       9.95294389      15.02978845      -0.41580821      -0.81047962      -4.45169484       2.42678066
Si      17.23366735      11.18633829      14.62539275       0.94473191      -1.86679851      -0.18972861       1.52964910
O        1.80172094       5.75186570      12.11458459      -0.41300138      -2.33899786      -2.69689268      -0.02086186
Si       2.48067117       6.63255830      10.90169594       0.65061062       0.23585342      -4.26821914      -2.77691036
Si       1.69912925       5.72445996      13.82932449       0.92556878       2.64912470       3.13769761       1.37385974
O        0.03846719       5.93627284      13.87600894      -0.37981631      -2.81147243      -4.12506096       2.46959719
Si      19.25408524       7.23387944      13.19639500       0.91692061       0.81310288       0.64489511      -1.49773810
O       19.48674034       6.85016587      11.39417239      -0.44305929       0.32236076       0.03596001      -1.52542735
Si      19.22391501       5.65445769       9.96040669       0.85054404       2.58510992      -0.61741496      -1.49279997
O        0.57970892       4.62188993       9.03693952      -0.47614940       1.53338109      -1.03289304      -0.35677540
O       19.93680262      11.03352864      13.28037549      -0.52995637      -2.15659221       1.06586183       0.65652516
Si       0.84466785      11.32568694      11.81212788       0.86146972      -1.00864304       1.63277017       2.82468915
O        1.58691950       9.94811413      11.25370314      -0.37550108      -2.27026759      -2.73986759      -0.05358303
O       19.88440610      11.85838259      10.43111824      -0.34603869       4.09810336      -0.38395032      -0.72411685
O       16.61409165       8.82998555      11.48569884      -0.47656792       5.73639516      -1.42051616      -2.01505523
O       17.10178447      11.15961785      12.97196106      -0.45894722       3.33300322       3.15604750      -2.70358254
Si      16.21216444      10.40116602      11.83631157       0.93238132      -4.46265202      -1.05323260       2.61635451
O       18.17923081      10.94995714       8.30890598      -0.33114641      -3.47506151       0.84093110      -1.10599556
Si      18.31751058      11.66214177       9.80212408       0.49258996      -3.81866833       4.01262562       1.29874051
O        1.63156561       7.73635829      10.03811327      -0.31422056       0.09478055       0.45641526      -3.61519410
Si       3.13371537       9.57607232      10.66168963       0.51262929       2.03461824      -4.61662088      -4.94347140
O        3.68444484      11.01388573      10.03744323      -0.41109157       3.36182661       0.22303942      -1.33677225
O       18.42218888       6.92431601       8.94758411      -0.48060801       1.25857162       3.49626709       3.14933179
Si       0.22029741       8.67449580      10.05102961       0.44198673      -5.47719354       2.40108499       5.50870506
Si      17.62815188       6.62498438       7.47139721       0.89063590       0.28598563      -0.42906827      -1.60086294
O       19.95932012       8.97014669       8.42348515      -0.40526105       3.36775176      -2.97562233      -1.97416885
O       16.36736079       7.59724767       6.63830156      -0.41831480      -1.52412812       2.32518351       1.84787393
Si      19.12583493       9.94815107       7.37962074       0.91809547      -1.31478072      -1.85206924      -2.66535585
O       19.10312260       6.37358873       6.45723940      -0.42712074       0.02523046      -1.78871033      -2.04657338
O        0.27011164      10.84900424       6.57897703      -0.50573969      -0.78915800       6.53425837      -0.02519281
Si      18.54833776       8.56192871       4.21534492       0.84862599      -1.05544048       0.49945906      -0.15142346
O       19.85366160      19.33187395       0.71014236      -0.39348412       0.32931848      -2.48243135      -3.42598675
Si       1.25263827       0.08495210       0.19042911       0.42231840       1.18633548       6.17666613      -2.09944954
O        1.01750728       2.71565269       1.48007880      -0.40669255      -0.04619081       0.19870107      -0.47258215
Si       2.60827363       2.09335530       2.36642502       0.78703672      -3.08499171       2.44455728       1.07234109
O        1.43479886       1.93003688       3.87287695      -0.42149563      -0.21819296       0.66642194       0.29151397
Si      19.79614899       2.25419418       2.89370018       0.82000892       5.35838393       0.60277713      -0.31713758
O       18.97145040       0.85836340       2.55801149      -0.42441799      -2.61315886       2.64163718       1.41875941
Si      18.95811298      19.28628633       2.09938165       1.00885748       0.40031684       1.32295990       0.24001551
O       19.72296564      18.29997577       3.15983464      -0.49724347      -1.43221464      -2.91907629       0.27868386
Si       0.86459532      17.99928413       4.28848786       0.97586476      -0.09721307      -1.25637555       2.14516721
O        2.07395090      19.14851574       4.22326007      -0.48146743      -1.56071076       4.81723132      -1.79033542
Si       3.63458658      18.91301544       4.71179540       0.94121980       1.03965230       0.27679447      -1.77013316
O        2.24042759      18.70619237       0.38460814      -0.38074809       1.55935809      -0.77528702       4.65257109
O        1.43248049      17.21045116      18.43408810      -0.47272166      -3.04869006      -3.79935228      -0.29781476
Si       2.83311327      17.63940122      19.24907554       0.92964551       0.78359920      -2.68898444      -0.21408805
O        3.45330647      18.72470033      18.17599741      -0.51199730      -1.96085029       3.59233119       0.13906168
O        3.99797497      16.41817178      19.62099261      -0.37540431       2.58374126       1.07566376       2.48613359
O        5.23689089      13.72744636      19.67269361      -0.35433294      -1.54443269      -1.63046580      -2.18757717
O       19.49086087      14.82002195       0.48157723      -0.44032181      -2.75522023      -2.82681513      -2.70379558
Si       0.90619355      13.99538249       0.78842597       0.85997328       3.98779633       0.09302922      -2.67724504
O        0.84673177      16.85272892       1.21198441      -0.46631894       0.82800389       2.16810630      -0.92340386
Si       4.13869287      14.87141217      18.93859174       0.84565405      -2.43762128      -2.34702284      -3.06604402
O        2.04342926      14.53851694      19.38826920      -0.46644622       1.32467103       0.69674416      -1.69300932
O        2.69107490       0.44989395       1.96960459      -0.39140179      -3.70414313      -1.21079382      -1.77905404
O        4.46498651       0.65947666      16.94856954      -0.42580950      -0.26819066      -0.25057156      -3.19811051
Si       4.72995834      18.85542943      17.13419705       0.87841351       1.23401483       0.36283328      -0.64470331
O        4.82669856      19.41025130       0.54434176      -0.46777990      -2.01261906       2.89449370      -2.12665137
O        5.98221919      18.29024181      18.29982668      -0.44160005       1.80346385      -2.80241884      -2.28683482
Si       6.25357991      18.81181527      19.94413686       0.97960345      -0.64838841      -1.60317839      -2.42045985
O        7.10163586       0.20753386      19.80331010      -0.47661502      -0.84273128       1.50940244      -3.35772873
O        6.86113540      17.79066464       1.07925479      -0.44216152       2.01294851       0.23095413       1.56832022
O        1.73900879      16.61033315       3.86343103      -0.57118004       1.90712248      -4.33672384       0.18076385
O        4.59138566      19.34099570       3.32392113      -0.51374224       4.84965398       1.49132386       1.48144514
Si       3.83732993      19.15135104       1.82392407       0.95931930      -2.66872252      -1.53172894      -0.14887187
O        3.52875557      17.38308204       1.98868418      -0.46026870       2.56290647      -0.50694315       0.22288157
Si       2.33562683      16.17791711       2.09648217       0.78418151      -1.90722600      -2.26910046       0.31181916
O        5.21838667      15.30013621      17.38652687      -0.46793112       0.11808888       1.09597712       0.81737819
O        7.78298025      14.22035591      15.48735786      -0.39676021       2.48154545       0.15906883       1.53285696
Si       6.20011059      14.97134632      15.79096454       0.87155296      -1.01774886      -2.25375431       2.55676452
O        7.20224917      11.49264167      15.18342157      -0.49488989       1.07216395      -0.15677164      -1.09479472
O        5.92027376      16.26633415      14.72340664      -0.40346476       3.80110020       4.59322447       1.56022485
O        4.05557482      17.62673457      15.95302852      -0.46669077       2.26562826       0.72516410      -1.99400733
O        5.59464518       0.15366710      13.86710065      -0.49700357      -1.62777765      -1.77591191       1.53749626
O        3.36908516      15.48675859      14.43365902      -0.48981759      -1.52664245      -2.65754739      -1.19523394
Si       4.78739780      16.17752787      13.50223585       0.93236182      -1.85624370      -2.04412861       1.86283917
O        3.97439713      17.49877208      12.92734956      -0.41209104       1.80681242       4.38355405      -0.32587970
Si       6.17668608      19.56779694      12.18230782       0.90513715      -1.06463131      -0.04546426       3.40468227
O        3.33132153      12.75246765      18.18965359      -0.34026017       1.68852574       1.31416592      -0.89749915
O        2.93385089      12.95015863      15.51269646      -0.37057761       3.97624236       0.56804586       0.77746345
O        2.23249395      12.22317546      12.54159400      -0.41579901       2.77633133       1.57358410      -2.62165533
Si       2.12596705      12.14036467      14.28886341       0.88770871      -1.25668228      -0.31078720      -0.48800455
Si       2.15563804      13.59710740      16.98702114       0.81081164      -6.42610500      -2.97116855       1.19000059
O        2.65184276      15.20508326      16.96171775      -0.37599282       1.06878072       0.38666493       4.11676544
Si       2.74642056      16.41067316      15.79262237       0.88845593       0.16917108       2.59227946      -0.88399335
O        1.15217677      17.20553687      15.85764695      -0.44852705      -1.95471017      -0.20550537      -2.62706473
Si       0.64923637      18.25372660      17.27537392       0.92814079      -1.44587155      -1.73117086      -0.74574013
O        5.48955401      15.32084613      12.28283439      -0.40120159       4.43056016      -1.78569419       0.85334902
O        6.35857843      14.57913476       9.56180314      -0.37549132       3.17767075       0.62625361      -0.37674408
Si       5.02875922      14.95990043      10.72341364       0.86834295      -0.45717644      -2.00546947      -1.45622549
O        3.68946457      13.81537620      11.23276378      -0.47154927      -1.45593289      -0.14555054       1.60301690
O        4.46231141      16.29316707       9.88937654      -0.45015319      -2.93244206       0.94362072      -2.34443702
O        3.58345501       2.13772918      13.01045311      -0.39596285       4.07729912       2.42280593       1.75861608
O        5.63040712      18.25531964      11.30589189      -0.42625539       0.66445701      -3.89325590       0.50819115
O        5.31738983       0.79691737      11.42023629      -0.44025354       2.12560369       3.64415854      -4.04196174
Si       3.71409423       1.05448171      11.75431673       0.89144008      -2.46798378      -6.05135921       2.30720354
O        2.58210783      19.52129766      12.35036617      -0.38734694      -0.31492714       3.08921285      -0.95577360
O        2.24990350      17.11829360      10.83251594      -0.41801479       3.32433191      -0.57435300      -0.06070463
Si       4.56604450      18.05115819       9.91605485       0.83297674      -3.80099645       3.03988384       0.25117497
O        3.01043522      19.26445492       9.82375988      -0.56959429      -0.52425953       0.23163609       0.17774750
O        0.69418509      13.28803240      14.35649363      -0.43562448      -1.70253149      -0.37900624       1.84641663
Si       3.27222674      12.58752083       9.90725667       0.87891158       0.88347404       2.08888529       3.25370753
O       19.61776834      14.07626107      11.86982228      -0.37890206      -2.14101856      -1.77775170       2.10306778
O        1.89130248      12.99259905       9.05123307      -0.46267169      -5.07548790      -2.97116520       1.88751458
Si      19.85196078      14.26651361      10.21694976       0.64839214       2.36017257      -2.66376105      -1.87116239
O       18.79694676      15.09665423      14.15812137      -0.41491398       0.43502276      -3.09846115       4.27622886
Si       0.25019141      14.70478085      13.40088619       0.86219934       4.77338717       3.01884975      -1.71592995
O        1.19977526      16.41742513      13.29782190      -0.47701249      -1.01022383      -0.72357690       1.13414261
Si       2.40239976      17.62251767      12.38986409       0.87213113      -3.58432895      -0.48034701       2.85808726
O       15.14898963      16.96244841      17.83399451      -0.30344024      -0.15603734      -1.37130682      -1.94513959
Si      16.55096714      16.32001224      18.88730012       0.79329685      -0.14515974       1.30650771       1.45337118
O       18.18831854       0.92699027      17.69422707      -0.47968651       0.14140189       1.47696380      -3.25755013
O       19.20962027      18.55580746      18.22014722      -0.44244141       0.87153503      -2.64162566       0.98544591
Si      17.89724153      19.54216894      18.60497913       0.91096945      -1.93229490       0.10327023       2.20195262
O       14.57038389      20.08281065      17.24204077      -0.34780597      -3.17748316       2.30027380       2.60901282
Si      14.29781115      18.58070243      18.09707455       0.65975121      -0.37190911      -0.55541382       1.30876677
O       16.22239384      19.06673205      18.81193620      -0.46627070      -2.83689710      -1.82962749       0.55390479
O       15.56143644       2.58232567       0.13874537      -0.46739143      -0.63288050       3.19741447       1.96989102
O       18.04556460      16.89701206      19.83997119      -0.40641600      -0.36850867       2.71469812      -1.94457478
Si      19.07177854      16.33566857       1.05112252       0.91452854       1.94974805       1.66055283       1.75349215
O       18.15469477      16.07489489       2.52698469      -0.42674276      -1.21509459      -1.09350966      -0.12612708
O       14.87293318      15.54189642       2.62136190      -0.48396658      -0.70349399       0.39126603       1.33434588
O       15.60102889      17.06779235       0.51664015      -0.44553942      -0.68588537      -2.91096215      -2.20754543
O       17.54975174      18.55740792       1.74001376      -0.49466577       0.37482383      -2.27042768      -1.11782275
Si      17.93047419      16.29267446       4.21944958       0.62490374      -4.69341929      -0.09235538      -0.30445323
O       17.77646139      17.95962469       4.84757827      -0.37724400       2.61605559      -0.03571532       1.60887710
O       17.82660852       0.57517352       0.18463185      -0.47189802       4.06940505      -0.08581257      -0.22193135
Si      16.30908557       1.08664575       0.73662109       0.84221593      -0.16672069       1.82807921       1.20634265
O       15.28618388      19.78968865       1.05100559      -0.41953022      -4.76487506      -0.70452470      -0.70705999
Si      15.91610921      18.32084124       1.76228582       0.89084017      -1.67425551      -1.11997506      -0.50321240
Si       7.48037475      10.83435702       0.29401959       0.78683743      -2.71727806      -3.23888310       0.79721695
O        8.29808107       9.73822563      19.07159234      -0.47616179      -1.17516512       0.92989397      -0.53885856
O        8.73037637      10.71336463       1.69128969      -0.45513060      -0.51402884      -0.19521454       2.18514047
O        9.93316201       7.24376969      19.40474928      -0.40647016       2.39145863      -3.72379077       0.64659228
Si       9.16445365       6.79596752       0.91095041       0.88757927      -0.70897807      -1.59958269      -0.07006707
O        9.54379271       8.24292896       1.67612012      -0.43578096       0.12737335       3.19968656      -0.14754186
Si       9.66946703       8.36376163       3.45238724       0.54792038      -3.61835015      -2.90767917       3.43818284
Si       8.94241200      14.38452020       3.00797225       0.81512432       2.68300707       2.55116832       3.01478934
O        9.24182697      13.77495256       1.49700681      -0.42048293      -3.89752696      -0.99775351      -0.42493462
O        9.25621575      12.94611986       4.20378454      -0.47789345      -0.43960351      -1.69070705      -1.86077928
O       11.26773956      12.21295666       1.17379233      -0.43535457       5.02889164      -0.93549882      -0.39247705
Si      10.56156158      10.92268475       1.95003822       0.91189657      -4.17356061      -0.37913234       0.38322739
O       10.96419235      10.95466941       3.68184483      -0.51945400      -0.70215061       1.11968401       2.14562867
Si      12.16151626      10.49916075       5.00053694       0.77444360      -2.43054749      -2.83257024       0.09160287
O        8.33187032      12.06981205      17.74082654      -0.42435291      -0.19065185      -0.20569568       2.63153290
Si       9.64316204       8.61656028      18.48798560       0.93211381      -2.98876758       0.75744522       0.57925837
O       11.12327435      11.90818745      17.24688835      -0.46737691       2.59412581       2.25043175      -0.43078795
O       11.04802297       9.49844046      18.36254665      -0.45015248       2.61109322      -0.14872702       4.69842029
Si      11.64582332      10.36295325      17.08092219       0.96565386      -1.07331623      -0.92542171      -2.45327804
O       10.96590262       9.65871836      15.62283959      -0.41715848       1.17273658      -3.35245647       0.55734282
O       10.04576563      14.19680681      16.47541135      -0.35619053       0.10774120       2.54886495      -2.18368773
Si       9.86215359      12.89343091      17.59864541       0.93958577      -2.10433331       0.65298700      -2.59369922
O       10.04969991      13.58619655      19.08525457      -0.44610618      -1.70707687       2.02908461      -0.60709234
Si      10.63521182      13.62799581       0.59240541       0.96202108       1.31204457       1.10970914      -0.33017659
O       11.64178307      14.96654748       0.90426757      -0.38050775       3.11717422      -0.18188964       3.86516174
Si      11.64928971      16.45508361       0.12029110       0.78299262      -3.69777296      -0.10468981      -5.57961192
O       10.59199009      15.93939028      18.41951980      -0.32586031       2.26963377       1.55687971       1.08709022
O       11.58279392       9.68781900       1.47544367      -0.43966796       0.53094814       0.01510366      -4.71472930
O       11.44632711       7.66878502       3.20370486      -0.39475538      -0.09584407      -2.12323301       2.12949509
Si      12.57036032       8.68409537       2.35906604       0.88127640       0.17887051      -3.23056375      -1.71478975
O       13.84986720       8.37275394       1.22662476      -0.41482974       2.88817052       1.32059554       1.61776796
O       13.27266600       9.57356181       3.74114761      -0.29459327      -2.26941289       0.48441879       2.23750124
O       15.71664670       8.69548592       3.94695587      -0.42532455       2.48597978      -0.59035149      -2.42418065
O       13.41965720      11.82267871       5.18519840      -0.39651668      -0.19180317      -0.07690547       1.22374800
Si      14.29838457      13.09151382       4.18413551       0.84302535       1.21555827       0.50990210      -0.95968346
O       13.43952721      12.75300327       2.67338569      -0.43757794      -3.27967275       0.76038924      -0.49139348
O       16.06440524      12.90271033       3.77163141      -0.43772353       1.38537105       1.05657223      -1.43530395
O       15.20892170      10.60196597       2.26163702      -0.37105983       2.59562526      -2.24941723      -0.76905993
Si      14.88754195      10.11149697       3.87562228       0.83732968       2.38119027       2.40808032       1.14627955
O       15.82742987      10.86572360       5.33887381      -0.41356590      -1.25992106      -0.66903997       2.73297134
O       13.28660583      10.54618430      17.09303814      -0.38136446       2.18350672      -1.96319117      -2.59539741
O       13.34628822      10.15607871      14.49589284      -0.10460640       0.16087904       0.09259814      -0.03327928
O       12.85775557       6.44745289      19.80050264      -0.49251385      -1.60640203      -3.13662171       1.63128265
Si      14.01046535       7.67903877      19.62239457       0.89850545      -0.15700077      -0.38434844      -1.13975343
O       15.92892846      10.22480317      17.88281078      -0.42816112       1.36154573       1.66039781       0.40227741
O       15.69398788       7.57747377      19.09216119      -0.38995950       1.95154310      -1.55986329       1.71577155
Si      16.44928213       8.49099118      17.71824123       0.87084242      -1.44324636      -0.04146139      -0.73858093
O       15.95552657       7.75030048      16.11262521      -0.43681644      -2.04577783      -0.65314956      -0.62039715
O       18.13400066       8.50422618      17.83856918      -0.31515273       3.35503288      -0.07259066       0.35292107
Si      14.49553015      11.30095346      17.95037944       0.90917911       2.55656523       1.37176286       0.41506727
O       13.84326662      11.45213737      19.68203580      -0.44470596      -2.41731538      -0.61327815       0.14431826
Si      14.35340754      11.76757187       1.38056089       0.86780953      -2.65573116       0.36765864      -1.70898530
