609
Lattice="20.0 0.0 0.0 0.0 20.0 0.0 0.0 0.0 20.0" Properties=species:S:1:pos:R:3 relative_density=0.96 cell_dim_angstroms="_JSON [20.0, 20.0, 20.0]" n_grains=7 grain_size=13.0 crystalline_fraction=1.0 grain_radius=10.215841967756422 pbc="T T T"
O        6.78902365       6.73434310      12.38248302
Si       7.40950556       8.18559220      12.71836867
O        7.28368700       9.10990797      11.39629860
Si       8.09869828      10.12835860      10.44592205
O        6.51910066       3.86669324      14.18315187
O        6.61317400       0.47009488      15.23345977
Si       7.69167210       4.51576672      15.08920565
Si       8.26757522       0.58339686      19.31694589
O        7.93961766       3.58119354      16.39433225
O        8.15408292       1.50947994      17.99156614
Si       8.97477167       2.52823232      17.04364323
O        4.36022105       2.59023056      13.41598955
Si       4.97641235       4.04304902      13.76033963
O        4.86192114       4.96197326      12.43050923
Si       5.67855157       5.98017227      11.48975949
O        6.41285457       5.17260397      10.28562784
Si       7.40638603      19.77821451      14.01448699
O        7.08156517       2.77183425      11.09577954
Si       8.10515253       1.70748998      11.73778874
O        8.94489694       8.01231796      13.15224521
O        9.70548610      10.14042659      14.54921149
Si      10.11375378       8.66277544      14.06270827
O       10.37229668       7.73091089      15.35872442
O       11.38079381      12.15588118      12.11161642
O       11.46344314       8.76287875      13.15983881
O       12.50243071       7.43084584      16.90257876
Si      13.12559796       8.87923919      17.24085041
O       13.79786862       7.89619956      12.37324572
Si      14.97186712       8.53512232      13.28178475
O       15.22177359       7.61078058      14.58208298
O        9.21457710      10.88954988      11.34828989
O        8.83937238       9.31435604       9.25223543
Si       9.83633209      12.33111420      11.68769662
Si       9.24976414       7.84206521       8.75576227
O        9.50271886       6.91422869      10.05537528
O       10.59399578       7.94390832       7.86811390
O       11.64746420       6.61971501      11.61097303
Si      12.25433237       8.06462534      11.93555702
O       11.93303502      11.05678060       9.02252503
O       12.13310826       8.99238755      10.62433650
Si      12.94861677      10.00102400       9.67518540
O       12.93750350       7.08012403       7.07436382
O       14.06286878      10.77112232      10.57383687
O       13.69401729       9.19817881       8.47441136
Si      14.10878261       7.72593363       7.98571728
O       14.35397051       6.79364690       9.27289120
O       15.44771513       7.82851811       7.08667324
O       16.48790720       6.49687964      10.84110724
O        9.03752829       4.61939999      14.19895012
O        8.94867207      19.60466475      14.44098490
O       10.08014904       3.28211661      17.94806393
O        9.70761774       1.71900662      15.85318671
Si      10.69428835       4.73314962      18.27626825
Si      10.11872097       0.25102496      15.36216427
O       10.57664541       5.66144198      16.96071608
Si      11.39535655       6.67648725      16.00168527
O       12.23940983       4.55890428      18.70260585
O       11.37984355       3.74617703      13.41743818
O       11.46629926       0.34828879      14.45952381
O       12.12814766       5.85991682      14.81371704
Si      12.54625689       4.39150231      14.31347917
O       12.79765143       3.46543142      15.61749128
O       13.88194959       4.50321633      13.42693203
O        8.16704555       3.79395311       8.89650843
O        9.21503683       2.46791677      12.64595877
Si       9.83426040       3.91741576      12.97970891
Si      10.52300536       5.85309507      10.70235088
O       11.26336425       5.05026623       9.52374779
Si      14.68152302       3.80106574      12.20561988
O       14.56802464       4.72641246      10.88681413
Si      15.38960638       5.73113905       9.93300895
O       11.94900950       7.69563308       3.33212650
O        9.82962434       6.85401378       7.80347382
O       10.48427677       5.59103852       5.56090829
Si       9.33198770       5.80484426       6.68381016
O        9.03058308       4.38010458       7.37243145
O        9.35312053       7.84660037       3.01002234
O        8.01385132       6.39740909       5.96607114
O        7.45541976       2.36808813       6.62488717
Si       8.86288538       6.79301956       1.88718030
Si       7.65852614       2.09462230       5.04945562
O        8.55443969       5.36661224       2.57824330
O        7.84125585       3.51842243       4.30335819
Si       7.36800258       4.38873451       3.02673085
Si      10.83587740       9.91694223       6.36261114
O        8.88324901      12.07819150       8.97965238
O       10.45106860       8.89587256       5.15901624
O        9.53970719      10.81854975       6.74256046
Si      10.64465928       8.62243956       3.58652883
Si       8.39460432      11.02675057       7.85862672
O        8.08816440       9.59575641       8.54093838
O        6.51061182       7.59706616       7.80404506
Si       6.71760287       7.31900973       6.22716077
O        6.91180739       8.74201496       5.47191072
Si       7.82851159       3.38802722       7.81728048
O        6.54688620       4.28669073       8.20590602
Si       5.39681557       4.50691530       9.32037168
O        5.09095330       3.07783872      10.00489029
Si       3.88707970       2.08877174      10.46391792
Si       6.88723274       8.61517292       8.99797143
O        5.60401801       9.51180832       9.37407488
Si       4.45887188       9.71707137      10.49332720
O        6.36114247       1.32750710       4.47844344
O        5.41214964       6.54948297       5.64694883
O        6.97884522       3.36679600       1.83785483
O        6.07648790       5.28198457       3.40614601
Si       4.92884609       5.49310057       4.52870340
O        4.62114021       4.07095469       5.22214151
O        3.60090745       6.08179602       3.82113953
O        3.04091664       2.07086723       4.47260974
O        1.00572995       6.22556178       3.49781500
O        3.67669528       9.28413176       6.38136408
O        2.10137340       7.28867229       5.64369491
Si       2.30715488       7.00356834       4.06819009
O        5.02312309      19.87479614       7.44275752
O        4.08547532       5.09116251       8.61060491
O        3.51367518       1.08023266       9.26991925
O        2.60456365       2.98601763      10.84265928
Si       3.71853562       0.79831530       7.69351743
O        3.90882155       2.21769751       6.94466575
Si       3.42347798       3.07659804       5.67210544
O        2.42109325       0.01736721       7.12269438
O        1.48276432       5.24791113       8.29079477
O        0.13926467       3.78299745      11.25429425
O        2.14062544       3.98342144       6.04903223
Si       0.99268417       4.19254993       7.16166611
O        0.68003635       2.77216709       7.85828147
O       19.96955866       0.90707430       9.57528695
Si      19.49109571       1.77532440       8.30472254
O       19.66810041       4.78069698       6.46261292
O        3.13120266      10.30755543       9.78353301
O        2.56946940       6.29698680      10.43561800
Si       2.76946821       6.01272482       8.85644344
Si       1.83100770      11.23670035      10.03427588
O        2.96738788       7.42924272       8.11037846
Si       2.48377154       8.30174225       6.85259837
O        0.53659432      10.46521960       9.45771181
Si       0.04703716       9.40246820       8.33289223
O       19.74558272       7.98320323       9.03311340
O       19.02858335       6.13615722      10.74910318
Si      18.55159488       7.00482368       9.47947923
O       18.72181383      10.00574285       7.62533601
O       18.16188050       5.98044294       8.28791119
O       17.26190492       7.89912430       9.85817945
Si      18.36675530       5.70692369       6.71610331
O       18.55562019       7.12745599       5.96408644
Si      18.08075260       7.98608046       4.68972285
O        9.81536156      16.75926022       0.22455271
O       15.03127483      16.21328462       1.61027034
O       12.92627333      14.58645750       1.79105908
Si      13.94411703      15.34093360       0.78996882
O       13.09877810      16.32546552      19.83770645
O        9.51658203      14.79847867      18.50758315
O       14.72809018      14.24405978      19.90930715
O       12.32424623       9.72339862       2.10994452
O       11.76192371      15.86807823      17.58549827
Si      13.34544236      10.47537647       1.11973937
Si      10.90127000      14.51051814      17.74086578
O       12.48260816      11.45922891       0.16145000
O       11.78548594      13.45007273      18.58048698
Si      12.28008737      11.90680326      18.63433404
Si      16.74503400      14.20132491       3.96717024
O       15.62166819      13.28313328       3.24466250
Si      14.76812057      11.92735941       3.40696151
Si      19.15373163      14.78911517       2.17632507
O       15.65435083      10.87075245       4.25952866
O       18.31304739      15.77644689       1.22504982
O       16.98299867      15.31410905      18.97976303
Si      16.12774887      13.95779872      19.13896352
O       17.70194793      10.91042150       1.56182451
O       16.99570503      12.89876632      19.98971364
Si      17.49897510      11.36402273       0.01881271
Si      14.55365890       0.21498399       0.46501841
O       10.12268036      19.66147829      18.18619845
O       15.33751664      19.11075556      19.58624447
O       12.35969289       0.73416864      17.25742304
Si      11.50619283      19.37945525      17.41313956
O       12.38608959      18.30507230      18.26973150
Si      12.88078774      16.78073493      18.30549339
O       11.16314590      18.79188254      15.95696992
O       16.38223183      18.23473260      17.34760063
O        9.06527554      17.17009150      16.12758471
O       14.29354351      16.61605218      17.51726468
Si      10.08879367      17.93523421      15.11651035
Si      15.29890761      17.36635553      16.51485618
O       14.45361796      18.35085669      15.57423530
Si      14.24085443      18.81268382      14.03505694
Si      16.72519938      18.81452023      18.81578718
O       17.61025458      17.76255469      19.66169542
Si      18.10169578      16.22824264      19.69052304
O        1.60986294      17.67901565      18.73827230
O       19.49710484      16.06483737      18.90909860
Si       0.51448086      16.80893130      17.91640813
O       19.66804824      17.80063979      16.96854204
Si      19.46044585      18.26017529      15.42967889
O       14.13347685       9.38370166       0.24408156
O       10.56528570      13.91677712      16.28000727
O       15.79112106      13.37355892      17.67670122
O       13.68564585      11.76051782      17.84884342
Si      14.70286709      12.50794874      16.84530926
O       13.84063605      13.49860290      15.88973256
O       15.17636150       8.49930988      18.00385654
O       15.48729688      11.40235959      15.97077269
O       12.51996940      13.02391162      13.64271988
O       16.54360010      10.52270743      13.73108942
Si      15.44948711       9.66349879      12.90982885
O       14.58966419      10.64543068      11.94739457
O        0.99821675      12.80694469      19.07567999
O       16.37555939      10.44470894      19.30866739
O       18.90523994      11.20098542      19.25245535
Si      15.52273691       9.07555939      19.46833220
Si      19.92342890      11.95145805      18.24012248
O       19.05918304      12.93383874      17.29139193
O        0.70903968      10.84129400      17.36650388
Si      16.88232807      11.11664033      15.20944947
O       17.74989046      10.04889713      16.05224492
O       10.87777451      16.82084834      14.24544975
O       16.09180654      16.27210838      15.64691348
O       15.65566349      18.64468526      13.25261889
Si      12.25612537      16.53803110      13.47066235
O       13.13873579      15.47725375      14.33065521
Si      13.63400311      13.93982613      14.35683747
O       17.14662564      15.39209113      13.40924088
O       15.04429478      13.78581843      13.58575400
Si      16.05124645      14.52607529      12.58055263
O       15.20358513      15.51601405      11.63042109
O       16.84951720      13.42990042      11.70228846
O       17.89936737      12.55699919       9.46471795
O       15.78805873      10.93295366       9.64076498
O        1.30766687      15.71279394      17.03166566
O       18.33665161      17.33091396      14.70702403
O        3.55470780      16.78435810      16.10839801
O        0.86796178      18.09201729      14.64851401
Si      17.48029885      15.97630186      14.87181246
Si       2.70579938      15.42829777      16.27104378
O       18.35899078      14.92146042      15.72184103
Si      18.84907149      13.38247958      15.75195769
O        2.36557351      14.83615361      14.80788951
O        2.66243942      17.74093381      12.76685456
Si       1.27913018      13.98378323      13.97036168
O        0.42161719      14.95672064      13.02420347
O       19.72129156      16.94492162      11.45836540
Si       0.21006217      15.41065502      11.48714122
O       19.09391768      14.49878262      10.77147373
Si      18.23333357      13.13742021      10.93431219
O       19.11862408      12.07981186      11.77719498
O       13.52033781       7.28174539       3.77584972
O       16.63822893       5.83063003       4.66079018
O       15.51851986       8.94144850       3.28265298
Si      17.03041848       8.88815936       2.75614085
O       13.88844833       8.15788880       1.33468282
O       17.67002720       5.02647643       2.38916607
O       17.20430432       7.57709068       1.80651988
Si      18.13898521       6.30552244       1.50948047
O       19.65728545       6.69095792       1.89974334
O       14.90871675       7.36615299      19.05544553
O       18.03318395       5.92631171      19.95561097
O        1.54704442       7.96875704       0.52819213
Si       0.90313148       9.25531645      19.82007221
O       19.41376214       8.87630843      19.30940636
Si      18.42582643       8.97746380      18.04406506
O       17.37606232       3.30187118       4.33189002
Si      16.74056770       4.58532227       3.62899684
O       15.25221663       4.20802982       3.11174160
Si      14.24993790       4.30380018       1.85004061
O       14.88522189       0.46002641       1.48191671
O       14.61658639       5.63898221       1.01033166
O       14.41995266       3.00918860       0.89942598
Si      13.97243615       6.92766047       0.29709208
Si      15.36539757       1.73180939       0.60158917
O       16.88168056       2.11239444       0.99572386
O       15.25901273       1.35113574      19.04539091
O       18.76501923       3.39076776      19.62347447
Si      18.12509547       4.69133953      18.90296314
O       14.12468635       4.45435605      17.66209898
O       16.64226321       4.29890637      18.40371122
Si      15.64682009       4.39455565      17.13437571
O        0.78938352       3.58541531       3.28305137
Si       1.17822262       6.63462092       1.37135311
O        1.81464760       2.78981586       0.99749963
O        4.94101098       1.34554574       1.89453998
Si       2.28899627       4.06097608       0.12930012
O        3.80804721       4.45409048       0.51428081
Si       5.33394145       4.38889146      19.98767114
O       19.64032596      19.77427346       4.31770231
Si       1.16567485      19.72004346       3.78918393
O       18.00602828      19.00844074       2.36969557
O        1.52629958       1.04382084       2.95194493
Si       0.87863564       2.35259352       2.24630079
O       19.40058129       1.95800672       1.73336228
Si      18.40864661       2.05579303       0.46541670
O       18.56926072       0.76004821      19.51512704
Si      19.50565776      19.48731176      19.21908831
Si       5.03080576       0.11285029       0.85515179
O        1.03416767      19.87310496      19.60767667
O        3.53758544      19.72564465       0.34198960
Si       2.54819326      19.81367661      19.07965229
O       19.05284838       5.13299108      17.67702263
O       18.59821521       7.67203541      17.09022977
Si      19.53777647       6.39496010      16.79952984
O       16.29676182       7.46254919      14.33866432
O       19.41966469       6.02130599      15.23779998
O        0.45213720       5.21686695      12.96151948
O       16.27970528       0.55296488      16.76495367
O       16.00966250       5.73206169      16.29632923
O       15.80229338       3.09579553      16.18030493
Si      15.35829120       7.02560746      15.58703372
Si      16.74760486       1.82195425      15.89764441
O       18.27061010       2.20889413      16.27895538
O       16.64830373       1.43862525      14.33271248
O        0.15361592       3.48691388      14.91132722
Si      19.50994409       4.78036920      14.20953228
O       15.51372003       4.54970281      12.94656764
O       18.02322053       4.39678507      13.68258074
Si      17.03445851       4.49544245      12.41374240
O       17.66825756       0.64460379      12.05353504
O       17.39675147       5.82054838      11.57777048
O       17.20527968       3.19099035      11.47652785
Si      18.13923170       1.91881057      11.17902194
O       19.65637207       2.30769409      11.57505852
O        2.18520486       3.67193098      18.56403879
O        5.95414730       0.54365736      19.62840160
O        5.49944879       3.09083570      19.03525999
Si       6.43401845       1.82401276      18.74728256
O        3.21061026       2.88062693      16.29168574
O        6.32616283       1.43227449      17.18276129
O       19.40040012      19.10274240      17.65671915
O        2.91539588       1.14367059      18.24667540
O        2.72285396      18.52560910      18.13480431
Si       2.27151524       2.43821376      17.52536037
O        0.78760034       2.05340396      17.01984755
Si      19.79485169       2.14599583      15.75026998
O       19.96096779       0.85873453      14.80233265
Si       0.90144830      19.58043009      14.50468309
O        2.42008191      19.96567756      14.89216864
O        4.93704946      19.81412425      15.63500790
Si       3.94204975      19.90716839      14.36061983
O        0.80072587      19.19543930      12.94695715
O        4.11274478      18.61392499      13.42004575
O        2.18028275       2.15717009      12.30443521
Si       7.79907841      17.41001873      13.88769144
O       11.47585435      17.85255627      12.59911940
O        6.32325819      17.53913350      13.25444723
O        8.87731617      17.27496711      12.68452588
Si      10.04028942      18.07073875      11.89163258
O        9.67389136      19.63715618      11.89044173
O        8.65828133      14.28497308      10.73063291
O       10.11596345      17.51345607      10.38306832
O        8.08864577       1.07648702      10.32694555
Si       7.22483938      14.50151912      10.02131628
Si       6.70591710       0.27042108      10.08661653
O        6.85573077      16.07812461      10.02663959
O        7.04419221      18.70504129       9.95860353
Si       6.75472551      17.38321083       9.08205779
O       10.74351199      14.54459908      12.30231624
O       13.31362719      14.27600829      11.73486602
Si       9.36598428      13.74494343      12.07407228
Si      14.47152503      15.06906294      10.94492751
O       14.11065410      16.64638469      10.94667211
O       14.54496636      14.51964722       9.43343016
O       12.51462603      18.07682978       9.36342067
O       16.93927853      15.07761236       8.42096052
Si      11.12661581      17.26163120       9.14134419
Si      15.55622525      14.27864702       8.18571247
O       11.28174145      13.07758642       9.06934554
O       11.47118356      15.69784752       9.01006008
O       15.89380920      12.69973430       8.06569879
Si      11.17425696      14.37963613       8.12998405
Si      15.60601698      11.38429271       7.17874655
O       12.94261725       1.07806664      12.25408231
Si       9.55952238       0.94672309      10.94923317
O       13.24016712       1.38670563       9.66761090
O       14.70387124       4.60792443       9.32213060
O       10.65255012       0.80539851       9.75684275
Si      11.79741962       1.60574971       8.95893952
O       11.43090697       3.17964291       8.96581556
Si      11.32523784       4.47515401       8.02260835
Si      16.80584568       1.51682507      11.86969027
O       17.36737804      18.07775261      11.30310813
O       15.31992396       1.63835131      11.24238706
O       19.75410885      18.64788618      10.29378162
Si      13.95356419       0.84455839      11.01180689
Si      18.37972254      17.84024233      10.05972476
O       14.28537480      19.26401978      10.87889647
O       18.71569821      16.26177410       9.92164225
Si      13.99663643      17.95079213      10.00262523
Si      18.41979542      14.95303465       9.04491605
O       17.66278461      18.37911097       8.72373525
O       15.07076775      17.81545126       8.80228845
Si      16.22490784      18.60836838       8.01173325
Si      15.70986407       4.36833730       8.08511163
O       15.85811756       0.17855329       8.00907455
O       16.05335252       2.79883534       7.95701377
Si      15.75286262       1.47771850       7.06377436
O       10.42078920      17.81939009       7.80142412
O        7.82668603      17.23853058       7.88799365
Si       8.98331633      18.03739494       7.09266577
O        8.61930320      19.61021676       7.09058587
O        9.06637206      17.46862879       5.58383509
O        7.02717894       1.03504110       5.51704526
O        9.36401025      17.77867503       3.00401545
O        7.55725923      19.57945640       2.29732719
O       14.84140231      14.81397139       6.84694823
O        9.69175881      14.50520749       7.49272607
O       14.11861031      11.50982754       6.54975164
O       12.25788160      14.23802880       6.94038542
Si      12.73774984      10.71261466       6.31749162
Si      13.40886233      15.03658893       6.14269754
O       13.04512011      16.60528395       6.14600831
O       12.02728447      11.24400071       4.97027730
O       13.49878841      14.48064842       4.62881037
O       11.45189481      18.03990053       4.56479801
Si      10.07385018      17.24040157       4.34000664
O       10.41325506      15.66178406       4.21615536
O       11.19683474      14.20491145       2.14306727
O       11.88416757       1.04910536       7.45618564
O       15.00269309       4.91552660       6.73593129
O       12.41151614       4.33463645       6.82287596
Si      13.56325828       5.13689726       6.03670840
O        8.80379105       2.22807101       7.03381290
O       13.19685981       6.71074662       6.03437621
Si       8.51094725       0.91627509       6.15668590
O       12.18526555       1.34937667       4.87608625
O       13.64075675       4.57760319       4.52340846
O        9.58416395       0.77219334       4.96092127
Si      10.73897975       1.56612596       4.15323076
O       10.38409002       3.13879919       4.16446263
O       10.83064745       1.00402829       2.64828320
O       11.34343516       4.30572531       2.03269718
Si       7.45005421       0.86812003       1.35326969
O       11.12391440       1.31298329       0.06606790
O       16.30267583      18.03928558       6.50383899
O       14.27464935       1.60561641       6.43733282
O       18.69087040      18.61374847       5.48528868
O       16.83251304       1.33699655       5.87533934
Si      12.89241290       0.80356723       6.21685941
Si      17.32094915      17.80854677       5.26416158
O       13.22491586      19.23088401       6.08503119
O       17.66061728      16.23061279       5.12459460
Si      12.92858457      17.91560203       5.19906008
O       16.60750929      18.34872131       3.91647875
O       14.01590943      17.77667177       4.00177676
Si      15.16737521      18.56278078       3.20812392
O       14.80739072       0.13876872       3.21258589
O       14.99432259       2.76878719       3.15516117
Si      14.69486001       1.43907980       2.25931738
O       13.21157254       1.57197171       1.63797118
Si      11.84195386       0.76449580       1.40916775
O       12.16404116      19.19945387       1.27957852
O       17.68472525      13.55014293       8.20875211
O       16.11580336      11.29734999       5.15615731
Si      16.42327849       9.95604699       5.98755666
O       17.19440913      10.36899616       7.34428986
O       17.34254514       8.98001500       5.09648007
O       19.97883960      13.35821348       6.94600053
O       19.74761351      10.87267335       7.83943377
Si       0.33700378      11.80966033       6.67190097
O       19.67898430      11.33904776       5.26956083
O        1.95128124      11.65615026       6.63433804
O        0.36555673       9.40502304       3.58835108
O       18.73745886      15.67296523       6.99702350
Si      19.06323135      14.32923244       7.83495526
Si       1.70024444      18.70258597       9.68676371
O       19.82214715      14.74599377       9.20619269
Si       1.08887957      14.38405147      10.13838687
O        2.61394915      17.73011245       8.79680356
O        1.40600319      12.81144723       9.97875564
O        4.03866649      17.18108211      11.83450403
O        2.38188305      15.24450071       9.69512174
Si       2.97420171      16.18267508       8.51806259
O        2.32552643      15.71935536       7.10929318
O        4.57755005      16.02867765       8.48160237
O        2.99719464      13.78037803       5.43335953
O        5.63122496      18.15244612       7.28634298
Si       3.31538773      12.44041578       6.27336102
Si       5.94408915      16.81051407       8.12226168
O        4.98739823      12.84240825      10.10296622
O        4.07738313      12.85051556       7.63308095
Si       5.33675181      12.49076409       8.56395515
O       17.08334145      13.73281038       4.86546093
O       19.28734324      14.51684529       3.65325974
O       18.78155632      11.34100654       2.80719499
Si       0.04271571      10.97845083       3.73573510
O        1.58077017      14.32641361       2.40101531
O        1.33635815      11.83651562       3.29970140
Si       1.92725873      12.77060121       2.11501502
O        1.29370096      12.30683676       0.71635479
Si       1.63840146      11.94158425      19.19048143
O       19.71901131      18.11198523       6.71080751
Si       0.31343616      19.03931983       5.54262198
O       19.66182325      18.57325565       4.14486349
Si       0.01459579      18.21547039       2.61088603
O        1.91340880      18.88656241       5.50073161
O        0.33749693      16.63452999       2.46446590
Si       0.65124865      15.29857086       3.29201868
Si       3.28186780      19.67194433       5.13709744
O        1.41314404      15.71101563       4.65854827
Si       2.67865823      15.35335134       5.58578901
O        4.20352124      18.69394183       4.24481936
O        3.97940976      16.21211846       5.14116581
Si       4.56333073      17.14487856       3.97622932
O        3.91985486      16.67941272       2.56540201
O        3.00654187      16.67386194       0.10275855
Si       4.27529588      16.31565891       1.03776052
O        4.23468794      11.46386467       5.37640846
Si       4.58912822       9.90456990       5.10412322
O        3.94392129       9.44169504       3.69224718
O        6.20011283       9.75440944       5.06604349
O        8.48952020       9.55930739       3.80053390
O        6.86654998      15.83663253       7.22752081
O        6.62911153      13.35312250       8.12373674
Si       7.22742967      14.27588120       6.94712848
O        6.58273672      13.81879572       5.54729306
O        8.83171192      14.12918384       6.91128319
O        7.25260169      11.88209359       3.86585927
Si       7.56518983      10.53889286       4.70550835
O        8.33280180      10.95759044       6.05661035
O       10.88252859      11.45364288       6.55233638
O       10.81741228      11.92432630       3.98155953
O        3.53800814      12.61914501       2.07803906
O        2.93582457      12.81019953      18.75550243
O        3.03313654       9.44020947       1.23672809
Si       4.29270056       9.07874234       2.16996873
O        5.82706222      12.42315128       0.82604638
O        5.58908538       9.93627163       1.72887670
Si       6.18339160      10.87085575       0.55119120
O        6.16601131      16.99628952       3.92736410
O        4.58305226      14.74214888       0.87621721
O        5.57168054      17.18047894       0.59473940
Si       4.90885824      13.40097640       1.72283338
Si       7.54258821      17.78371353       3.57072116
Si       6.16725731      18.11573574      19.42976142
O        5.66742627      13.81639856       3.09226454
O        5.50476344      17.64136779      18.02827688
Si       6.92335843      13.45996261       4.01394472
O        8.45933961      16.79308432       2.67505140
O        7.75646642      17.95833871      19.38624439
O        8.22211911      14.31674443       3.57741454
Si       8.81133327      15.24668411       2.39906967
O        8.18373861      14.78364589       0.99223210
O        7.25883506      14.77423463      18.53077404
Si       8.52780071      14.42081452      19.46788897
O        8.84480537      12.85188427      19.31575172
Si       9.15288656      11.50215008       0.15163752
O        9.91995175      11.91998788       1.51009371
Si      11.19244937      11.56063232       2.44004006
O       11.52750530       6.58152874       1.16661048
Si      11.49654858       7.43258320      19.79435841
O       11.82732391       8.98852537       0.09408963
Si       9.22163183       7.02870840      17.77982426
O        7.80482345       7.81889028      17.81686534
Si      10.57088013      11.03978039      16.66731566
O        8.50653733      10.35308566       0.25171277
O        9.58452805      10.62967691      17.87316697
Si       8.46502508      11.20545773      18.89150829
O        8.32000765       3.58261491      19.39038331
Si       7.20158171       4.15709773       0.40586823
O        7.54209197       5.71847015       0.70355826
O        5.83375729       4.26497935      17.16314916
O        6.13693946       6.68500575      16.09890145
Si       6.28465866       7.77320173      17.28152125
O        5.29062497       7.35164621      18.48245095
Si       4.19361587       7.92229613      19.49818776
Si       5.80274219       5.12286479      15.79905825
O        4.33008104       5.00724199      15.16457186
Si       3.53155576       4.72298498      13.78666505
O       10.19680094      12.50168968      16.09107806
O        5.90099313       9.22699942      16.69483413
O        6.99017903      11.08693280      18.24402507
Si       6.20289603      10.80113431      16.86451186
O        7.10935781      11.32448386      15.64410027
O        9.08112381      14.85656447      16.29383186
O        4.79540116      11.58677054      16.90941424
O        7.41067839      13.72959941      14.57719608
Si       7.56354162      14.82330622      15.75579450
O        6.56201457      14.40515514      16.96157651
O        7.17040838      16.27596027      15.17703803
O        2.89346483      12.99323420      15.79069695
O        4.09569039      15.09421637      14.73100206
O        4.51778885       9.48312035      19.80219596
O        2.71103633       7.81105567      18.85224731
O        2.83373017       8.04499247      16.25221888
O        3.12565696      10.45886007      15.18320023
Si       3.26716317      11.54355622      16.36234519
O        2.28309174      11.12325175      17.56443231
O        6.40891254       8.78777410      13.20201110
O        8.19130246      11.59410944      13.25724538
Si       7.07605549      12.17911192      14.28161467
O        4.50702535      10.20165712      12.08830858
O        5.59883006      12.05388088      13.64232032
Si       4.80220794      11.77308051      12.26300446
O        5.71004919      12.28833898      11.02516771
O        3.39319173      12.55730460      12.29781839
O        5.16659109      15.36907108      12.34937983
Si       4.05615826      15.94662142      13.37408596
O        2.12402229       5.51729649      13.81522162
O        4.73638205       7.64867733      11.48051701
Si       4.89245950       8.73599413      12.66384212
O        3.90212397       8.32197767      13.87185242
Si       2.78683057       8.90221214      14.89539807
O        0.21977574       6.91134000      12.70100051
O        1.31765567       8.77591295      14.25381621
Si       0.51381147       8.49377514      12.87749012
O        1.42911814       9.00824486      11.64892944
O       19.10857334       9.27827394      12.90453117
Si       1.86976408      12.51088590      11.75771290
O        0.88209079      12.09942723      12.95640772
Si      15.20552803      11.65658455       0.35705886
Si      15.30171898      12.27510563      18.66490780
609
Lattice="20.0 0.0 0.0 0.0 20.0 0.0 0.0 0.0 20.0" Properties=species:S:1:pos:R:3 relative_density=0.96 cell_dim_angstroms="_JSON [20.0, 20.0, 20.0]" n_grains=7 grain_size=13.0 crystalline_fraction=1.0 grain_radius=10.215841967756422 pbc="T T T"
O        6.78902365       6.73434310      12.38248302
Si       7.40950556       8.18559220      12.71836867
O        7.28368700       9.10990797      11.39629860
Si       8.09869828      10.12835860      10.44592205
O        6.51910066       3.86669324      14.18315187
O        6.61317400       0.47009488      15.23345977
Si       7.69167210       4.51576672      15.08920565
Si       8.26757522       0.58339686      19.31694589
O        7.93961766       3.58119354      16.39433225
O        8.15408292       1.50947994      17.99156614
Si       8.97477167       2.52823232      17.04364323
O        4.36022105       2.59023056      13.41598955
Si       4.97641235       4.04304902      13.76033963
O        4.86192114       4.96197326      12.43050923
Si       5.67855157       5.98017227      11.48975949
O        6.41285457       5.17260397      10.28562784
Si       7.40638603      19.77821451      14.01448699
O        7.08156517       2.77183425      11.09577954
Si       8.10515253       1.70748998      11.73778874
O        8.94489694       8.01231796      13.15224521
O        9.70548610      10.14042659      14.54921149
Si      10.11375378       8.66277544      14.06270827
O       10.37229668       7.73091089      15.35872442
O       11.38079381      12.15588118      12.11161642
O       11.46344314       8.76287875      13.15983881
O       12.50243071       7.43084584      16.90257876
Si      13.12559796       8.87923919      17.24085041
O       13.79786862       7.89619956      12.37324572
Si      14.97186712       8.53512232      13.28178475
O       15.22177359       7.61078058      14.58208298
O        9.21457710      10.88954988      11.34828989
O        8.83937238       9.31435604       9.25223543
Si       9.83633209      12.33111420      11.68769662
Si       9.24976414       7.84206521       8.75576227
O        9.50271886       6.91422869      10.05537528
O       10.59399578       7.94390832       7.86811390
O       11.64746420       6.61971501      11.61097303
Si      12.25433237       8.06462534      11.93555702
O       11.93303502      11.05678060       9.02252503
O       12.13310826       8.99238755      10.62433650
Si      12.94861677      10.00102400       9.67518540
O       12.93750350       7.08012403       7.07436382
O       14.06286878      10.77112232      10.57383687
O       13.69401729       9.19817881       8.47441136
Si      14.10878261       7.72593363       7.98571728
O       14.35397051       6.79364690       9.27289120
O       15.44771513       7.82851811       7.08667324
O       16.48790720       6.49687964      10.84110724
O        9.03752829       4.61939999      14.19895012
O        8.94867207      19.60466475      14.44098490
O       10.08014904       3.28211661      17.94806393
O        9.70761774       1.71900662      15.85318671
Si      10.69428835       4.73314962      18.27626825
Si      10.11872097       0.25102496      15.36216427
O       10.57664541       5.66144198      16.96071608
Si      11.39535655       6.67648725      16.00168527
O       12.23940983       4.55890428      18.70260585
O       11.37984355       3.74617703      13.41743818
O       11.46629926       0.34828879      14.45952381
O       12.12814766       5.85991682      14.81371704
Si      12.54625689       4.39150231      14.31347917
O       12.79765143       3.46543142      15.61749128
O       13.88194959       4.50321633      13.42693203
O        8.16704555       3.79395311       8.89650843
O        9.21503683       2.46791677      12.64595877
Si       9.83426040       3.91741576      12.97970891
Si      10.52300536       5.85309507      10.70235088
O       11.26336425       5.05026623       9.52374779
Si      14.68152302       3.80106574      12.20561988
O       14.56802464       4.72641246      10.88681413
Si      15.38960638       5.73113905       9.93300895
O       11.94900950       7.69563308       3.33212650
O        9.82962434       6.85401378       7.80347382
O       10.48427677       5.59103852       5.56090829
Si       9.33198770       5.80484426       6.68381016
O        9.03058308       4.38010458       7.37243145
O        9.35312053       7.84660037       3.01002234
O        8.01385132       6.39740909       5.96607114
O        7.45541976       2.36808813       6.62488717
Si       8.86288538       6.79301956       1.88718030
Si       7.65852614       2.09462230       5.04945562
O        8.55443969       5.36661224       2.57824330
O        7.84125585       3.51842243       4.30335819
Si       7.36800258       4.38873451       3.02673085
Si      10.83587740       9.91694223       6.36261114
O        8.88324901      12.07819150       8.97965238
O       10.45106860       8.89587256       5.15901624
O        9.53970719      10.81854975       6.74256046
Si      10.64465928       8.62243956       3.58652883
Si       8.39460432      11.02675057       7.85862672
O        8.08816440       9.59575641       8.54093838
O        6.51061182       7.59706616       7.80404506
Si       6.71760287       7.31900973       6.22716077
O        6.91180739       8.74201496       5.47191072
Si       7.82851159       3.38802722       7.81728048
O        6.54688620       4.28669073       8.20590602
Si       5.39681557       4.50691530       9.32037168
O        5.09095330       3.07783872      10.00489029
Si       3.88707970       2.08877174      10.46391792
Si       6.88723274       8.61517292       8.99797143
O        5.60401801       9.51180832       9.37407488
Si       4.45887188       9.71707137      10.49332720
O        6.36114247       1.32750710       4.47844344
O        5.41214964       6.54948297       5.64694883
O        6.97884522       3.36679600       1.83785483
O        6.07648790       5.28198457       3.40614601
Si       4.92884609       5.49310057       4.52870340
O        4.62114021       4.07095469       5.22214151
O        3.60090745       6.08179602       3.82113953
O        3.04091664       2.07086723       4.47260974
O        1.00572995       6.22556178       3.49781500
O        3.67669528       9.28413176       6.38136408
O        2.10137340       7.28867229       5.64369491
Si       2.30715488       7.00356834       4.06819009
O        5.02312309      19.87479614       7.44275752
O        4.08547532       5.09116251       8.61060491
O        3.51367518       1.08023266       9.26991925
O        2.60456365       2.98601763      10.84265928
Si       3.71853562       0.79831530       7.69351743
O        3.90882155       2.21769751       6.94466575
Si       3.42347798       3.07659804       5.67210544
O        2.42109325       0.01736721       7.12269438
O        1.48276432       5.24791113       8.29079477
O        0.13926467       3.78299745      11.25429425
O        2.14062544       3.98342144       6.04903223
Si       0.99268417       4.19254993       7.16166611
O        0.68003635       2.77216709       7.85828147
O       19.96955866       0.90707430       9.57528695
Si      19.49109571       1.77532440       8.30472254
O       19.66810041       4.78069698       6.46261292
O        3.13120266      10.30755543       9.78353301
O        2.56946940       6.29698680      10.43561800
Si       2.76946821       6.01272482       8.85644344
Si       1.83100770      11.23670035      10.03427588
O        2.96738788       7.42924272       8.11037846
Si       2.48377154       8.30174225       6.85259837
O        0.53659432      10.46521960       9.45771181
Si       0.04703716       9.40246820       8.33289223
O       19.74558272       7.98320323       9.03311340
O       19.02858335       6.13615722      10.74910318
Si      18.55159488       7.00482368       9.47947923
O       18.72181383      10.00574285       7.62533601
O       18.16188050       5.98044294       8.28791119
O       17.26190492       7.89912430       9.85817945
Si      18.36675530       5.70692369       6.71610331
O       18.55562019       7.12745599       5.96408644
Si      18.08075260       7.98608046       4.68972285
O        9.81536156      16.75926022       0.22455271
O       15.03127483      16.21328462       1.61027034
O       12.92627333      14.58645750       1.79105908
Si      13.94411703      15.34093360       0.78996882
O       13.09877810      16.32546552      19.83770645
O        9.51658203      14.79847867      18.50758315
O       14.72809018      14.24405978      19.90930715
O       12.32424623       9.72339862       2.10994452
O       11.76192371      15.86807823      17.58549827
Si      13.34544236      10.47537647       1.11973937
Si      10.90127000      14.51051814      17.74086578
O       12.48260816      11.45922891       0.16145000
O       11.78548594      13.45007273      18.58048698
Si      12.28008737      11.90680326      18.63433404
Si      16.74503400      14.20132491       3.96717024
O       15.62166819      13.28313328       3.24466250
Si      14.76812057      11.92735941       3.40696151
Si      19.15373163      14.78911517       2.17632507
O       15.65435083      10.87075245       4.25952866
O       18.31304739      15.77644689       1.22504982
O       16.98299867      15.31410905      18.97976303
Si      16.12774887      13.95779872      19.13896352
O       17.70194793      10.91042150       1.56182451
O       16.99570503      12.89876632      19.98971364
Si      17.49897510      11.36402273       0.01881271
Si      14.55365890       0.21498399       0.46501841
O       10.12268036      19.66147829      18.18619845
O       15.33751664      19.11075556      19.58624447
O       12.35969289       0.73416864      17.25742304
Si      11.50619283      19.37945525      17.41313956
O       12.38608959      18.30507230      18.26973150
Si      12.88078774      16.78073493      18.30549339
O       11.16314590      18.79188254      15.95696992
O       16.38223183      18.23473260      17.34760063
O        9.06527554      17.17009150      16.12758471
O       14.29354351      16.61605218      17.51726468
Si      10.08879367      17.93523421      15.11651035
Si      15.29890761      17.36635553      16.51485618
O       14.45361796      18.35085669      15.57423530
Si      14.24085443      18.81268382      14.03505694
Si      16.72519938      18.81452023      18.81578718
O       17.61025458      17.76255469      19.66169542
Si      18.10169578      16.22824264      19.69052304
O        1.60986294      17.67901565      18.73827230
O       19.49710484      16.06483737      18.90909860
Si       0.51448086      16.80893130      17.91640813
O       19.66804824      17.80063979      16.96854204
Si      19.46044585      18.26017529      15.42967889
O       14.13347685       9.38370166       0.24408156
O       10.56528570      13.91677712      16.28000727
O       15.79112106      13.37355892      17.67670122
O       13.68564585      11.76051782      17.84884342
Si      14.70286709      12.50794874      16.84530926
O       13.84063605      13.49860290      15.88973256
O       15.17636150       8.49930988      18.00385654
O       15.48729688      11.40235959      15.97077269
O       12.51996940      13.02391162      13.64271988
O       16.54360010      10.52270743      13.73108942
Si      15.44948711       9.66349879      12.90982885
O       14.58966419      10.64543068      11.94739457
O        0.99821675      12.80694469      19.07567999
O       16.37555939      10.44470894      19.30866739
O       18.90523994      11.20098542      19.25245535
Si      15.52273691       9.07555939      19.46833220
Si      19.92342890      11.95145805      18.24012248
O       19.05918304      12.93383874      17.29139193
O        0.70903968      10.84129400      17.36650388
Si      16.88232807      11.11664033      15.20944947
O       17.74989046      10.04889713      16.05224492
O       10.87777451      16.82084834      14.24544975
O       16.09180654      16.27210838      15.64691348
O       15.65566349      18.64468526      13.25261889
Si      12.25612537      16.53803110      13.47066235
O       13.13873579      15.47725375      14.33065521
Si      13.63400311      13.93982613      14.35683747
O       17.14662564      15.39209113      13.40924088
O       15.04429478      13.78581843      13.58575400
Si      16.05124645      14.52607529      12.58055263
O       15.20358513      15.51601405      11.63042109
O       16.84951720      13.42990042      11.70228846
O       17.89936737      12.55699919       9.46471795
O       15.78805873      10.93295366       9.64076498
O        1.30766687      15.71279394      17.03166566
O       18.33665161      17.33091396      14.70702403
O        3.55470780      16.78435810      16.10839801
O        0.86796178      18.09201729      14.64851401
Si      17.48029885      15.97630186      14.87181246
Si       2.70579938      15.42829777      16.27104378
O       18.35899078      14.92146042      15.72184103
Si      18.84907149      13.38247958      15.75195769
O        2.36557351      14.83615361      14.80788951
O        2.66243942      17.74093381      12.76685456
Si       1.27913018      13.98378323      13.97036168
O        0.42161719      14.95672064      13.02420347
O       19.72129156      16.94492162      11.45836540
Si       0.21006217      15.41065502      11.48714122
O       19.09391768      14.49878262      10.77147373
Si      18.23333357      13.13742021      10.93431219
O       19.11862408      12.07981186      11.77719498
O       13.52033781       7.28174539       3.77584972
O       16.63822893       5.83063003       4.66079018
O       15.51851986       8.94144850       3.28265298
Si      17.03041848       8.88815936       2.75614085
O       13.88844833       8.15788880       1.33468282
O       17.67002720       5.02647643       2.38916607
O       17.20430432       7.57709068       1.80651988
Si      18.13898521       6.30552244       1.50948047
O       19.65728545       6.69095792       1.89974334
O       14.90871675       7.36615299      19.05544553
O       18.03318395       5.92631171      19.95561097
O        1.54704442       7.96875704       0.52819213
Si       0.90313148       9.25531645      19.82007221
O       19.41376214       8.87630843      19.30940636
Si      18.42582643       8.97746380      18.04406506
O       17.37606232       3.30187118       4.33189002
Si      16.74056770       4.58532227       3.62899684
O       15.25221663       4.20802982       3.11174160
Si      14.24993790       4.30380018       1.85004061
O       14.88522189       0.46002641       1.48191671
O       14.61658639       5.63898221       1.01033166
O       14.41995266       3.00918860       0.89942598
Si      13.97243615       6.92766047       0.29709208
Si      15.36539757       1.73180939       0.60158917
O       16.88168056       2.11239444       0.99572386
O       15.25901273       1.35113574      19.04539091
O       18.76501923       3.39076776      19.62347447
Si      18.12509547       4.69133953      18.90296314
O       14.12468635       4.45435605      17.66209898
O       16.64226321       4.29890637      18.40371122
Si      15.64682009       4.39455565      17.13437571
O        0.78938352       3.58541531       3.28305137
Si       1.17822262       6.63462092       1.37135311
O        1.81464760       2.78981586       0.99749963
O        4.94101098       1.34554574       1.89453998
Si       2.28899627       4.06097608       0.12930012
O        3.80804721       4.45409048       0.51428081
Si       5.33394145       4.38889146      19.98767114
O       19.64032596      19.77427346       4.31770231
Si       1.16567485      19.72004346       3.78918393
O       18.00602828      19.00844074       2.36969557
O        1.52629958       1.04382084       2.95194493
Si       0.87863564       2.35259352       2.24630079
O       19.40058129       1.95800672       1.73336228
Si      18.40864661       2.05579303       0.46541670
O       18.56926072       0.76004821      19.51512704
Si      19.50565776      19.48731176      19.21908831
Si       5.03080576       0.11285029       0.85515179
O        1.03416767      19.87310496      19.60767667
O        3.53758544      19.72564465       0.34198960
Si       2.54819326      19.81367661      19.07965229
O       19.05284838       5.13299108      17.67702263
O       18.59821521       7.67203541      17.09022977
Si      19.53777647       6.39496010      16.79952984
O       16.29676182       7.46254919      14.33866432
O       19.41966469       6.02130599      15.23779998
O        0.45213720       5.21686695      12.96151948
O       16.27970528       0.55296488      16.76495367
O       16.00966250       5.73206169      16.29632923
O       15.80229338       3.09579553      16.18030493
Si      15.35829120       7.02560746      15.58703372
Si      16.74760486       1.82195425      15.89764441
O       18.27061010       2.20889413      16.27895538
O       16.64830373       1.43862525      14.33271248
O        0.15361592       3.48691388      14.91132722
Si      19.50994409       4.78036920      14.20953228
O       15.51372003       4.54970281      12.94656764
O       18.02322053       4.39678507      13.68258074
Si      17.03445851       4.49544245      12.41374240
O       17.66825756       0.64460379      12.05353504
O       17.39675147       5.82054838      11.57777048
O       17.20527968       3.19099035      11.47652785
Si      18.13923170       1.91881057      11.17902194
O       19.65637207       2.30769409      11.57505852
O        2.18520486       3.67193098      18.56403879
O        5.95414730       0.54365736      19.62840160
O        5.49944879       3.09083570      19.03525999
Si       6.43401845       1.82401276      18.74728256
O        3.21061026       2.88062693      16.29168574
O        6.32616283       1.43227449      17.18276129
O       19.40040012      19.10274240      17.65671915
O        2.91539588       1.14367059      18.24667540
O        2.72285396      18.52560910      18.13480431
Si       2.27151524       2.43821376      17.52536037
O        0.78760034       2.05340396      17.01984755
Si      19.79485169       2.14599583      15.75026998
O       19.96096779       0.85873453      14.80233265
Si       0.90144830      19.58043009      14.50468309
O        2.42008191      19.96567756      14.89216864
O        4.93704946      19.81412425      15.63500790
Si       3.94204975      19.90716839      14.36061983
O        0.80072587      19.19543930      12.94695715
O        4.11274478      18.61392499      13.42004575
O        2.18028275       2.15717009      12.30443521
Si       7.79907841      17.41001873      13.88769144
O       11.47585435      17.85255627      12.59911940
O        6.32325819      17.53913350      13.25444723
O        8.87731617      17.27496711      12.68452588
Si      10.04028942      18.07073875      11.89163258
O        9.67389136      19.63715618      11.89044173
O        8.65828133      14.28497308      10.73063291
O       10.11596345      17.51345607      10.38306832
O        8.08864577       1.07648702      10.32694555
Si       7.22483938      14.50151912      10.02131628
Si       6.70591710       0.27042108      10.08661653
O        6.85573077      16.07812461      10.02663959
O        7.04419221      18.70504129       9.95860353
Si       6.75472551      17.38321083       9.08205779
O       10.74351199      14.54459908      12.30231624
O       13.31362719      14.27600829      11.73486602
Si       9.36598428      13.74494343      12.07407228
Si      14.47152503      15.06906294      10.94492751
O       14.11065410      16.64638469      10.94667211
O       14.54496636      14.51964722       9.43343016
O       12.51462603      18.07682978       9.36342067
O       16.93927853      15.07761236       8.42096052
Si      11.12661581      17.26163120       9.14134419
Si      15.55622525      14.27864702       8.18571247
O       11.28174145      13.07758642       9.06934554
O       11.47118356      15.69784752       9.01006008
O       15.89380920      12.69973430       8.06569879
Si      11.17425696      14.37963613       8.12998405
Si      15.60601698      11.38429271       7.17874655
O       12.94261725       1.07806664      12.25408231
Si       9.55952238       0.94672309      10.94923317
O       13.24016712       1.38670563       9.66761090
O       14.70387124       4.60792443       9.32213060
O       10.65255012       0.80539851       9.75684275
Si      11.79741962       1.60574971       8.95893952
O       11.43090697       3.17964291       8.96581556
Si      11.32523784       4.47515401       8.02260835
Si      16.80584568       1.51682507      11.86969027
O       17.36737804      18.07775261      11.30310813
O       15.31992396       1.63835131      11.24238706
O       19.75410885      18.64788618      10.29378162
Si      13.95356419       0.84455839      11.01180689
Si      18.37972254      17.84024233      10.05972476
O       14.28537480      19.26401978      10.87889647
O       18.71569821      16.26177410       9.92164225
Si      13.99663643      17.95079213      10.00262523
Si      18.41979542      14.95303465       9.04491605
O       17.66278461      18.37911097       8.72373525
O       15.07076775      17.81545126       8.80228845
Si      16.22490784      18.60836838       8.01173325
Si      15.70986407       4.36833730       8.08511163
O       15.85811756       0.17855329       8.00907455
O       16.05335252       2.79883534       7.95701377
Si      15.75286262       1.47771850       7.06377436
O       10.42078920      17.81939009       7.80142412
O        7.82668603      17.23853058       7.88799365
Si       8.98331633      18.03739494       7.09266577
O        8.61930320      19.61021676       7.09058587
O        9.06637206      17.46862879       5.58383509
O        7.02717894       1.03504110       5.51704526
O        9.36401025      17.77867503       3.00401545
O        7.55725923      19.57945640       2.29732719
O       14.84140231      14.81397139       6.84694823
O        9.69175881      14.50520749       7.49272607
O       14.11861031      11.50982754       6.54975164
O       12.25788160      14.23802880       6.94038542
Si      12.73774984      10.71261466       6.31749162
Si      13.40886233      15.03658893       6.14269754
O       13.04512011      16.60528395       6.14600831
O       12.02728447      11.24400071       4.97027730
O       13.49878841      14.48064842       4.62881037
O       11.45189481      18.03990053       4.56479801
Si      10.07385018      17.24040157       4.34000664
O       10.41325506      15.66178406       4.21615536
O       11.19683474      14.20491145       2.14306727
O       11.88416757       1.04910536       7.45618564
O       15.00269309       4.91552660       6.73593129
O       12.41151614       4.33463645       6.82287596
Si      13.56325828       5.13689726       6.03670840
O        8.80379105       2.22807101       7.03381290
O       13.19685981       6.71074662       6.03437621
Si       8.51094725       0.91627509       6.15668590
O       12.18526555       1.34937667       4.87608625
O       13.64075675       4.57760319       4.52340846
O        9.58416395       0.77219334       4.96092127
Si      10.73897975       1.56612596       4.15323076
O       10.38409002       3.13879919       4.16446263
O       10.83064745       1.00402829       2.64828320
O       11.34343516       4.30572531       2.03269718
Si       7.45005421       0.86812003       1.35326969
O       11.12391440       1.31298329       0.06606790
O       16.30267583      18.03928558       6.50383899
O       14.27464935       1.60561641       6.43733282
O       18.69087040      18.61374847       5.48528868
O       16.83251304       1.33699655       5.87533934
Si      12.89241290       0.80356723       6.21685941
Si      17.32094915      17.80854677       5.26416158
O       13.22491586      19.23088401       6.08503119
O       17.66061728      16.23061279       5.12459460
Si      12.92858457      17.91560203       5.19906008
O       16.60750929      18.34872131       3.91647875
O       14.01590943      17.77667177       4.00177676
Si      15.16737521      18.56278078       3.20812392
O       14.80739072       0.13876872       3.21258589
O       14.99432259       2.76878719       3.15516117
Si      14.69486001       1.43907980       2.25931738
O       13.21157254       1.57197171       1.63797118
Si      11.84195386       0.76449580       1.40916775
O       12.16404116      19.19945387       1.27957852
O       17.68472525      13.55014293       8.20875211
O       16.11580336      11.29734999       5.15615731
Si      16.42327849       9.95604699       5.98755666
O       17.19440913      10.36899616       7.34428986
O       17.34254514       8.98001500       5.09648007
O       19.97883960      13.35821348       6.94600053
O       19.74761351      10.87267335       7.83943377
Si       0.33700378      11.80966033       6.67190097
O       19.67898430      11.33904776       5.26956083
O        1.95128124      11.65615026       6.63433804
O        0.36555673       9.40502304       3.58835108
O       18.73745886      15.67296523       6.99702350
Si      19.06323135      14.32923244       7.83495526
Si       1.70024444      18.70258597       9.68676371
O       19.82214715      14.74599377       9.20619269
Si       1.08887957      14.38405147      10.13838687
O        2.61394915      17.73011245       8.79680356
O        1.40600319      12.81144723       9.97875564
O        4.03866649      17.18108211      11.83450403
O        2.38188305      15.24450071       9.69512174
Si       2.97420171      16.18267508       8.51806259
O        2.32552643      15.71935536       7.10929318
O        4.57755005      16.02867765       8.48160237
O        2.99719464      13.78037803       5.43335953
O        5.63122496      18.15244612       7.28634298
Si       3.31538773      12.44041578       6.27336102
Si       5.94408915      16.81051407       8.12226168
O        4.98739823      12.84240825      10.10296622
O        4.07738313      12.85051556       7.63308095
Si       5.33675181      12.49076409       8.56395515
O       17.08334145      13.73281038       4.86546093
O       19.28734324      14.51684529       3.65325974
O       18.78155632      11.34100654       2.80719499
Si       0.04271571      10.97845083       3.73573510
O        1.58077017      14.32641361       2.40101531
O        1.33635815      11.83651562       3.29970140
Si       1.92725873      12.77060121       2.11501502
O        1.29370096      12.30683676       0.71635479
Si       1.63840146      11.94158425      19.19048143
O       19.71901131      18.11198523       6.71080751
Si       0.31343616      19.03931983       5.54262198
O       19.66182325      18.57325565       4.14486349
Si       0.01459579      18.21547039       2.61088603
O        1.91340880      18.88656241       5.50073161
O        0.33749693      16.63452999       2.46446590
Si       0.65124865      15.29857086       3.29201868
Si       3.28186780      19.67194433       5.13709744
O        1.41314404      15.71101563       4.65854827
Si       2.67865823      15.35335134       5.58578901
O        4.20352124      18.69394183       4.24481936
O        3.97940976      16.21211846       5.14116581
Si       4.56333073      17.14487856       3.97622932
O        3.91985486      16.67941272       2.56540201
O        3.00654187      16.67386194       0.10275855
Si       4.27529588      16.31565891       1.03776052
O        4.23468794      11.46386467       5.37640846
Si       4.58912822       9.90456990       5.10412322
O        3.94392129       9.44169504       3.69224718
O        6.20011283       9.75440944       5.06604349
O        8.48952020       9.55930739       3.80053390
O        6.86654998      15.83663253       7.22752081
O        6.62911153      13.35312250       8.12373674
Si       7.22742967      14.27588120       6.94712848
O        6.58273672      13.81879572       5.54729306
O        8.83171192      14.12918384       6.91128319
O        7.25260169      11.88209359       3.86585927
Si       7.56518983      10.53889286       4.70550835
O        8.33280180      10.95759044       6.05661035
O       10.88252859      11.45364288       6.55233638
O       10.81741228      11.92432630       3.98155953
O        3.53800814      12.61914501       2.07803906
O        2.93582457      12.81019953      18.75550243
O        3.03313654       9.44020947       1.23672809
Si       4.29270056       9.07874234       2.16996873
O        5.82706222      12.42315128       0.82604638
O        5.58908538       9.93627163       1.72887670
Si       6.18339160      10.87085575       0.55119120
O        6.16601131      16.99628952       3.92736410
O        4.58305226      14.74214888       0.87621721
O        5.57168054      17.18047894       0.59473940
Si       4.90885824      13.40097640       1.72283338
Si       7.54258821      17.78371353       3.57072116
Si       6.16725731      18.11573574      19.42976142
O        5.66742627      13.81639856       3.09226454
O        5.50476344      17.64136779      18.02827688
Si       6.92335843      13.45996261       4.01394472
O        8.45933961      16.79308432       2.67505140
O        7.75646642      17.95833871      19.38624439
O        8.22211911      14.31674443       3.57741454
Si       8.81133327      15.24668411       2.39906967
O        8.18373861      14.78364589       0.99223210
O        7.25883506      14.77423463      18.53077404
Si       8.52780071      14.42081452      19.46788897
O        8.84480537      12.85188427      19.31575172
Si       9.15288656      11.50215008       0.15163752
O        9.91995175      11.91998788       1.51009371
Si      11.19244937      11.56063232       2.44004006
O       11.52750530       6.58152874       1.16661048
Si      11.49654858       7.43258320      19.79435841
O       11.82732391       8.98852537       0.09408963
Si       9.22163183       7.02870840      17.77982426
O        7.80482345       7.81889028      17.81686534
Si      10.57088013      11.03978039      16.66731566
O        8.50653733      10.35308566       0.25171277
O        9.58452805      10.62967691      17.87316697
Si       8.46502508      11.20545773      18.89150829
O        8.32000765       3.58261491      19.39038331
Si       7.20158171       4.15709773       0.40586823
O        7.54209197       5.71847015       0.70355826
O        5.83375729       4.26497935      17.16314916
O        6.13693946       6.68500575      16.09890145
Si       6.28465866       7.77320173      17.28152125
O        5.29062497       7.35164621      18.48245095
Si       4.19361587       7.92229613      19.49818776
Si       5.80274219       5.12286479      15.79905825
O        4.33008104       5.00724199      15.16457186
Si       3.53155576       4.72298498      13.78666505
O       10.19680094      12.50168968      16.09107806
O        5.90099313       9.22699942      16.69483413
O        6.99017903      11.08693280      18.24402507
Si       6.20289603      10.80113431      16.86451186
O        7.10935781      11.32448386      15.64410027
O        9.08112381      14.85656447      16.29383186
O        4.79540116      11.58677054      16.90941424
O        7.41067839      13.72959941      14.57719608
Si       7.56354162      14.82330622      15.75579450
O        6.56201457      14.40515514      16.96157651
O        7.17040838      16.27596027      15.17703803
O        2.89346483      12.99323420      15.79069695
O        4.09569039      15.09421637      14.73100206
O        4.51778885       9.48312035      19.80219596
O        2.71103633       7.81105567      18.85224731
O        2.83373017       8.04499247      16.25221888
O        3.12565696      10.45886007      15.18320023
Si       3.26716317      11.54355622      16.36234519
O        2.28309174      11.12325175      17.56443231
O        6.40891254       8.78777410      13.20201110
O        8.19130246      11.59410944      13.25724538
Si       7.07605549      12.17911192      14.28161467
O        4.50702535      10.20165712      12.08830858
O        5.59883006      12.05388088      13.64232032
Si       4.80220794      11.77308051      12.26300446
O        5.71004919      12.28833898      11.02516771
O        3.39319173      12.55730460      12.29781839
O        5.16659109      15.36907108      12.34937983
Si       4.05615826      15.94662142      13.37408596
O        2.12402229       5.51729649      13.81522162
O        4.73638205       7.64867733      11.48051701
Si       4.89245950       8.73599413      12.66384212
O        3.90212397       8.32197767      13.87185242
Si       2.78683057       8.90221214      14.89539807
O        0.21977574       6.91134000      12.70100051
O        1.31765567       8.77591295      14.25381621
Si       0.51381147       8.49377514      12.87749012
O        1.42911814       9.00824486      11.64892944
O       19.10857334       9.27827394      12.90453117
Si       1.86976408      12.51088590      11.75771290
O        0.88209079      12.09942723      12.95640772
Si      15.20552803      11.65658455       0.35705886
Si      15.30171898      12.27510563      18.66490780
609
Lattice="20.0 0.0 0.0 0.0 20.0 0.0 0.0 0.0 20.0" Properties=species:S:1:pos:R:3 relative_density=0.96 cell_dim_angstroms="_JSON [20.0, 20.0, 20.0]" n_grains=7 grain_size=13.0 crystalline_fraction=1.0 grain_radius=10.215841967756422 pbc="T T T"
O        6.99588841       6.56132958      12.61397622
Si       7.43072803       8.21329434      12.92482154
O        7.73153345       9.13374071      11.47923501
Si       8.92121293       9.66650931      10.40099587
O        6.89898400       2.89501194      15.17751308
O        7.19720818       0.79743107      13.00739238
Si       7.65143774       4.59050794      15.47440733
Si       8.37676167      19.56756087      17.98448670
O        8.37394816       4.20896155      16.81150135
O        8.60942307       1.36513782      18.23037993
Si       9.26260318       2.69414440      17.27668219
O        4.90001387       1.63115999      13.78084598
Si       5.28033705       2.58278908      15.06968342
O        4.56862093       4.95729976      12.63591130
Si       5.51496834       6.02807080      11.92575011
O        5.76734037       5.53948280      10.45663033
Si       7.25918333       0.19209801      14.58303013
O        6.83544232       2.17166125      10.58401585
Si       7.77748512       2.05339127      12.03034409
O        8.56570587       8.36858365      13.88560815
O        9.94487270      10.81211790      14.43788550
Si      10.01378553       9.02970128      14.19081843
O       10.39129696       7.89576593      15.40131552
O       10.89396696      12.54576685      12.42504528
O       11.07287054       8.81294501      12.97848597
O       12.35277059       7.80378228      16.96812271
Si      13.61199793       8.90981799      16.56318826
O       13.31038670       7.40210109      12.86000501
Si      14.86505981       7.52805906      12.56188373
O       14.76289257       7.86362089      16.06262874
O       10.27854069      10.33057263      11.07042848
O        9.42139055       8.64679273       9.22082243
Si      10.30384480      11.87215505      11.38276962
Si       9.16736575       7.93456300       7.63231789
O        7.99810632       6.81889465      10.00674179
O       10.11520989       8.55512845       6.77996572
O       10.35313433       6.34330715      11.66641544
Si      11.76192513       7.76932432      11.96769511
O       12.00850535      10.63237226       8.13884101
O       12.15225000       8.66183531      10.48936973
Si      12.86760107      10.07708158       9.56592433
O       12.33058040       7.53110104       6.92589209
O       13.62137288      11.37471593      10.40905287
O       13.92164909       9.25235640       8.62049426
Si      13.69656522       7.86843009       7.62960841
O       13.45677151       6.74997052       9.02186176
O       15.04299046       8.11532908       6.44692299
O       15.22546058       6.98977420      11.01397946
O        8.88961146       5.15022638      14.32419819
O        8.88707304       0.30089351      15.15890969
O       10.47863206       3.22236110      18.17682627
O        9.91264242       2.32406957      15.65245827
Si      11.35887535       4.44173064      17.95854666
Si      10.82766784       1.01543959      14.96339260
O       10.64703759       5.51261972      16.64805963
Si      11.37401439       6.84437908      15.94613554
O       10.35935124       5.91269847      18.87430797
O       11.20589136       3.72941818      13.67432865
O       11.03837417      19.31881512      14.37753492
O       12.31345453       5.97727226      14.83135661
Si      12.49672216       4.26134345      14.71968460
O       12.38751116       3.77884376      16.39276806
O       13.92141270       3.97567300      13.99228982
O        8.53982700       3.94424969       9.67795386
O        8.53716016       3.17419956      12.87473395
Si       9.70652677       4.37119795      13.03254318
Si       9.38527964       5.66192862      10.16409091
O       10.89922977       5.67800794       9.13827547
Si      14.48148906       3.75662430      12.45693898
O       13.48296360       5.03288433      11.42702994
Si      14.22609043       5.91870015      10.13837113
O       12.23819950       7.93514431       2.64082130
O        9.13184848       6.33548600       7.65598590
O       10.80475901       5.08801246       6.29322651
Si       9.17308713       5.13705928       6.35778349
O        8.71737967       3.78231777       6.95026272
O        9.81826206       7.94565956       3.56458588
O        7.85260351       5.82357787       5.56214638
O        6.55603520       2.38609568       6.83245347
Si       8.45020066       7.31150218       2.55364832
Si       6.65035441       2.03006269       5.14541833
O        8.24907166       5.85866950       3.26147896
O        7.34829670       3.38383378       4.34885090
Si       7.24101279       4.50031353       3.06312591
Si      10.18275530       9.93703285       6.08237328
O        8.38693331      11.25306987       9.60873351
O       11.71083548       9.22029364       5.21821030
O        9.75304197      10.91120424       7.45082013
Si      11.30274402       8.73292531       3.67560749
Si       8.30940918      11.29317509       8.02605456
O        7.09590056       9.69965600       8.11391567
O        6.14368021       6.91671791       7.71049271
Si       6.68338014       6.98047407       6.07678377
O        7.74761013       8.20600194       6.39428615
Si       7.63046049       3.42820494       7.94747037
O        6.35912975       4.45236190       8.17199019
Si       5.11460086       4.61121047       9.28034460
O        4.56201442       3.07319875       9.99425774
Si       3.22570782       1.91840493      10.50446324
Si       6.68033793       7.85805439       9.03491096
O        5.52748394       8.45307096       9.73235668
Si       4.69669871       9.91172092       9.42872096
O        5.32136182       1.47642857       4.26027898
O        5.45431696       6.93894070       5.04818052
O        7.62752864       3.82883379       1.64765805
O        5.72022600       5.19100270       2.97805881
Si       4.70471298       5.50890862       4.19995732
O        4.75715882       4.00173769       5.10499059
O        3.23772317       5.87036048       3.64931765
O        2.82094801       1.34440039       5.09863495
O        0.97349315       7.11667933       3.31026617
O        3.97725071       9.20428712       6.91886417
O        2.38559295       7.47333264       5.54941213
Si       2.33680781       7.30553334       3.78261685
O        5.75075966       0.56603847       8.50221289
O        3.91151568       5.48493780       8.70193180
O        3.07888652       0.89798866       9.18028903
O        1.98435864       2.88229048      10.71019407
Si       4.22678363       0.76486408       7.99224459
O        4.12780326       2.26424539       7.25185039
Si       3.62706324       2.85736359       5.82806311
O        3.90960303      19.60869062       6.87556578
O        1.33085586       4.86121288       8.50621220
O       18.57186123       3.90283272       7.81602232
O        2.50969920       3.89987548       6.24987346
Si       1.25144532       3.95197215       7.01894191
O        0.58440846       2.35767457       7.36365550
O       19.21159506       1.37765102       9.53702792
Si      19.09234337       2.10144765       7.98470807
O        0.14238466       4.53530000       5.91750646
O        3.10263483       9.60486414      10.01074519
O        2.42934152       5.99392797      11.14072108
Si       2.39814638       5.96162265       9.23396621
Si       1.71697834      10.15060582       9.09623650
O        2.24632436       7.35741716       8.46481162
Si       2.44453619       8.34109868       7.05282136
O        0.34037448       9.80078623      10.13211366
Si      18.98083305      10.10766244       9.01040569
O       18.51048139       8.60225257       8.61075737
O       19.38709946       6.36410907      10.16867974
Si      18.13834056       7.33936971       9.75796131
O        1.52107077       9.57735253       7.93359717
O       17.09963773       6.27519045       8.66978991
O       17.73480460       8.64381078      11.27964231
Si      18.68452103       4.89901424       6.26354723
O       18.90721754       6.68309021       6.14526998
Si      18.29359083       7.86423574       4.97315917
O       10.31985811      17.64595923       0.78699872
O       14.87949385      16.87514658       1.76574498
O       13.63386664      13.93782258       1.60204331
Si      13.94201022      15.53525091       0.91941300
O       12.80633376      16.33543505      19.99666548
O        9.97213358      15.45434997      19.10904789
O       14.85337207      14.83441080      19.56395675
O       12.51186468      10.81032842       1.54418625
O       11.82087015      15.99930407      17.47757779
Si      12.10954600       9.65314813       0.24277253
Si      10.69769005      14.94977193      18.05104192
O       11.47196408      10.69719068      18.97141302
O       11.95394751      13.68170656      18.62042777
Si      12.18354342      12.07344484      17.99257458
Si      16.72119399      14.55690007       4.41578599
O       15.46413110      13.29578151       3.88309376
Si      14.11700949      11.79382010       4.01419095
Si      18.77191212      13.83908258       2.17981575
O       15.74269401      10.58187119       3.54275467
O       17.75376143      15.11677891       1.36027949
O       17.30183477      14.95392150      18.74441200
Si      16.07974120      13.87875010      19.07176612
O       17.73650192      10.18320593       1.36678340
O       16.75012282      12.84895682       0.39322321
Si      17.71597263      11.41298435       0.17312779
Si      14.08673692      19.80097076      19.84998404
O       10.20373886      19.66508916      18.45274990
O       15.04482139      18.69816995      18.99699314
O       11.79574596       0.72830087      16.46286765
Si      11.55811376      19.51640065      17.64117305
O       12.81350053      18.58736183      18.11506356
Si      12.99365751      16.91504920      18.27469436
O       10.96572000      18.25429756      16.72644396
O       16.06685632      18.02181897      16.62305314
O        9.10297905      17.65573243      15.29359041
O       14.32720809      16.37227107      17.49596276
Si      10.66909893      17.88927244      15.27339916
Si      15.19230507      16.69679563      16.09553406
O       14.37977035      17.41860746      14.63131252
Si      14.79734806      18.37020822      13.14232743
Si      16.40541149      18.71400361      18.05578860
O       17.52348339      17.66130689      19.15470134
Si      18.04219353      15.96784209      19.75238216
O        1.17447809      17.92707405      19.90836798
O       19.64793203      15.76708415      19.52337465
Si       0.85944801      16.64124514      18.76882907
O        0.23067170      17.00479455      17.27425975
Si      19.56602203      18.15728035      16.36492083
O       14.42951287      11.74370809      19.80879272
O       11.33389098      12.28090482      16.37833782
O       15.97352444      12.96848419      17.82770305
O       13.29598670      11.66154893      17.29849687
Si      13.89059779      11.86145156      15.90176437
O       14.10335443      13.78560658      15.93337374
O       14.15515747       9.56608850      17.94323167
O       15.28339801      11.30355444      16.07010335
O       13.32652409      12.45355810      14.17712785
O       16.72054585      10.69724311      13.63879255
Si      16.60872941       9.37747451      12.61208164
O       15.08688805       9.23312920      12.06778691
O        1.14447452      12.99768305      18.46648330
O       16.74856838      10.63213568      18.95081119
O       19.07303346      11.90750169      19.64620034
Si      15.10984024      10.33528910      19.23813012
Si      19.99394063      11.79511391      18.29895929
O       19.24410844      12.30430018      16.79975630
O        0.68427261      10.09230237      18.54531673
Si      18.18049919      10.83666213      14.55609294
O       17.82704304      10.12304743      16.51386073
O       11.49538936      16.54614088      14.85358934
O       16.42911064      15.50781542      15.87300239
O       15.80386057      19.42813715      13.70221132
Si      12.01593369      16.06010062      13.42495276
O       13.43876189      15.32839571      13.54789909
Si      14.14676659      14.07561074      14.24929661
O       17.37012485      15.61386813      13.52746080
O       15.61562673      13.73310208      13.79072088
Si      16.65576189      14.23695084      12.82108327
O       15.84201944      14.69644230      11.40889988
O       17.91695375      13.00333112      12.64014456
O       18.05595355      13.83805752      10.14681240
O       17.99670651      11.02598163       9.91994284
O        2.19599270      15.89080394      18.52692484
O       18.36272363      17.39623701      15.44033765
O        4.58814094      16.33288245      17.17920612
O        0.78186938      18.64481447      15.29037962
Si      17.94417347      15.80179937      15.07527117
Si       3.31175031      15.33771135      17.35546879
O       19.33452058      14.73675807      15.46981026
Si      19.96587054      13.03931105      15.48786048
O        2.35393077      15.18096472      15.87105544
O        0.84715512      16.96220438      10.84426370
Si       2.14830132      15.14010915      14.15204059
O        1.03351716      16.29793435      13.70057005
O       18.87088355      17.67273622      12.78417955
Si       0.06085268      16.50459810      12.31084906
O       19.29971761      15.11153053      12.13556859
Si      19.01638306      13.48161359      11.57850835
O        0.39709076      12.99691486      11.16009524
O       14.63028655       8.13806735       3.57709655
O       16.95232054       6.84774599       4.36859778
O       15.29262119       9.49852842       0.93414094
Si      16.41898059       9.44156471       2.11044635
O       13.32573787       8.88241755      19.84148084
O       17.37502681       4.97281044       2.41100312
O       16.74984243       7.73473118       2.10101860
Si      17.59627225       6.32639331       1.35463346
O       18.98038392       6.68711569       1.85518603
O       15.44209346       7.22269919      18.60619886
O       17.72589782       5.98918505      19.65661720
O        0.96153659       7.49422432       0.48269543
Si       0.10748448       8.85819776      19.69065909
O       18.63288292       8.49643803      19.09022486
Si      17.79627926       8.57132501      17.54511686
O       17.59425693       4.22427901       4.97727183
Si      16.67697762       5.09582177       3.88779022
O       15.05094461       4.88997525       3.49079941
Si      14.13403385       5.17852956       2.09983589
O       14.51935280      19.69713285       1.30993538
O       14.69858450       6.58249574       1.18813140
O       14.15779178       3.91038824       1.01943654
Si      14.16598126       7.29651857      19.74453490
Si      15.23713695       2.67030981       0.75086596
O       16.75978314       3.18725154       0.59138098
O       14.70701928       1.50192146      19.57435183
O       19.09502091       3.68419836      19.34351549
Si      18.44057315       4.83750862      18.54538809
O       14.50631298       5.15487822      17.45210117
O       16.99951711       3.97751844      18.01923930
Si      15.78879000       4.09240206      17.01212240
O        0.95086460       4.82406617       2.22067494
Si       0.48654230       6.44808755       1.85505698
O        1.62577476       3.45366549       0.26277023
O        6.41884737       1.22418496       1.75103823
Si       2.08816503       4.91027563      19.11802106
O        3.72862253       4.72515514      19.82924438
Si       5.01358428       4.59012874      18.86416238
O        0.10360812       0.49598692       5.23061058
Si       0.70042922       0.73384007       3.53528182
O       19.12058519      18.92580591       0.81150182
O        1.48866558       2.15084622       2.92449349
Si       0.92479886       3.28398545       1.75602184
O       19.28949984       2.68087272       1.62451873
Si      18.30357444       2.58660689       0.34111461
O       18.23577945       1.14615086      19.55440364
Si      19.18938209      19.91579057      19.25958472
Si       5.29332993       0.09978177       0.50408117
O        0.78649169       0.49390265      19.41824160
O        3.60884041       0.22374571       0.53193285
Si       2.43920544       0.15438261      19.19844970
O       19.67235127       5.36142492      17.39918536
O       18.55738480       7.55102179      16.59618506
Si       0.00854246       6.66044785      16.47805834
O       16.19083397       7.88318271      13.57851230
O        0.08477306       6.32265562      14.83239726
O        0.71808957       4.96102819      12.58653633
O       16.64478253       0.43658329      17.55568614
O       16.46904129       5.70421141      16.28172171
O       15.73707302       2.78122221      16.14283896
Si      15.44639477       6.76256238      16.96743992
Si      16.94984661       1.54434530      16.20680182
O       18.50923183       2.26614954      16.58010390
O       17.28395546       1.17592979      14.63276524
O        0.28357766       3.74190825      14.99260092
Si      19.83771284       5.02081443      13.94050100
O       16.25553769       3.17401516      13.25289179
O       18.23966998       4.98461442      13.45057391
Si      17.38582314       4.10630932      12.42036796
O       17.88713999       0.60620497      11.99076045
O       16.02825771       4.76752062      11.80277495
O       18.28711069       3.27332835      11.27511185
Si      18.95070596       1.71300239      11.18340299
O        0.30874813       1.75524431      12.07642313
O        2.08383803       4.02098401      17.65057466
O        6.14697093       0.89852554      19.39927828
O        5.11447321       2.96757848      18.57628969
Si       6.38985112       2.05458118      18.36992960
O        4.36616277       2.14817294      16.35601937
O        6.85971115       0.61965193      17.01750581
O       19.06388705      19.33615096      17.54909176
O        2.89481636       1.59191291      18.51281996
O        2.76608617      18.88046578      18.01890948
Si       2.68443811       2.41756128      17.19090295
O        1.27476123       1.72189438      16.53043857
Si      19.94966393       2.27177656      15.67796149
O       19.96972097       1.05720299      14.50057116
Si       1.06643445      19.79677995      14.12712841
O        2.61218297       0.37060461      14.29536212
O        4.43334595      18.53286726      13.65558920
Si       3.95513742       0.28320615      13.34467558
O        1.06871070      19.16565312      12.56999997
O        3.55819265       0.65297502      11.73329285
O        2.57085372       3.27620132      13.33553045
Si       7.85727159      17.19731201      14.44222453
O       11.60854504      17.31489021      12.40796388
O        6.85298858      18.52270458      14.49741923
O        8.66677772      16.91554884      12.84759154
Si       9.91136251      17.73902482      11.96004560
O        9.87605667      19.26982194      12.08316131
O        8.43026562      14.35643295      11.94981923
O        9.86679751      17.44482425      10.37549579
O        9.02797766       1.38597657      11.13161633
Si       6.82669043      15.19924871      11.59616009
Si       7.01073342       0.89039524       9.45103937
O        7.01606949      16.57504765      10.55940134
O        6.91927304      19.41836437      10.47499000
Si       6.02312828      18.00337115      10.17298752
O       10.90662507      15.03482295      12.81617143
O       13.12540179      13.97914292      11.40568713
Si       9.89503984      13.99638342      13.03943157
Si      14.29410324      15.09980608      10.88970847
O       14.00876664      16.77123530      11.08204578
O       14.37721783      15.00294835       9.24348949
O       12.40701434      18.23976649       9.51901093
O       16.93612591      15.49027307       8.31087799
Si      11.14433990      17.20231726       9.31598919
Si      15.58451002      14.64941433       8.11659055
O       10.65600477      12.76210626       9.74462445
O       11.60814388      15.55787305       9.66661670
O       15.98664385      13.00229285       8.51230926
Si      11.11879811      14.16965094       8.83694147
Si      15.46723361      11.74177965       7.80715772
O       13.48052448      19.55294390      12.44102615
Si      10.32882400       0.64533459      11.27233021
O       13.04230469       1.88307219      10.17034660
O       15.03397088       4.85500773       9.36669536
O       10.87073877       0.55205960       9.62220074
Si      11.92837084       1.65380502       8.82809898
O       11.16977366       3.05986223       8.33882488
Si      11.56813353       4.67096624       7.90996174
Si      16.66300319       0.74787487      13.10355629
O       16.27647311      17.80884716      11.81150132
O       15.31639304       1.45341805      11.96381997
O       19.38183849      18.88717361      10.59643684
Si      14.04494016       0.80539794      11.19769131
Si      17.75966310      18.05316952      10.49194744
O       14.59586249      19.60699203      10.24003544
O       18.24112523      16.50275767      10.34669516
Si      14.00668082      18.06481259       9.89057223
Si      18.32900189      15.23296598       9.24168929
O       17.38458421      18.38507205       8.85862304
O       14.87722227      17.62288248       8.52845971
Si      16.16955153      18.44234295       7.79239800
Si      16.14112977       4.72629217       8.20879485
O       15.70785615       0.08950868       7.88730242
O       16.26195915       2.86778002       8.33190280
Si      16.21792323       1.50611193       7.25412960
O       10.51320635      17.37927420       7.86950476
O        7.83604754      16.42477338       8.12778873
Si       9.02213235      17.18544667       7.18169461
O        8.33489734      18.68426491       6.89189627
O        9.46712149      16.50069256       5.73477405
O        7.63390161       0.78266705       5.39666350
O        9.08813844      18.37483354       4.02892086
O        7.92390005      19.33794105       1.99863307
O       14.83071862      14.68723477       6.66488569
O        9.75799009      14.69090459       7.97641684
O       13.87641021      12.11873396       7.47890937
O       12.28694961      13.92244282       7.69216806
Si      12.53021871      11.53791746       6.68590135
Si      13.19090041      14.60463538       6.29327896
O       12.76453834      16.27893998       6.38412636
O       13.49977819      10.98540355       5.29470277
O       13.25474886      13.58904440       4.75385292
O       11.70245174      17.94568374       4.69380655
Si      10.28326327      17.25065242       4.38350821
O       10.35256761      16.03961955       3.17238507
O        9.96352713      12.54883740       1.78669492
O       12.63390497       0.93652102       7.53349496
O       15.50588240       5.02816957       6.63725806
O       13.04285505       4.84575616       7.48691848
Si      13.93894171       4.93849009       6.01826448
O        8.41067031       1.04028162       8.29117700
O       13.44217433       6.21761711       5.02219265
Si       8.70876008       0.27488366       6.69863841
O       12.22965693       1.41626068       4.71747862
O       13.51587476       3.57546892       5.19930543
O       10.18912650       0.39387706       5.97029053
Si      10.66421157       0.81537773       4.32709248
O        9.22477936       1.60859487       3.47237564
O       11.02723826      19.76010512       2.87345217
O       12.54735276       5.49464569       2.26127175
Si       8.25619645       1.05152374       1.96830559
O        9.67226751       1.07966889       0.83505357
O       16.49948897      17.75367870       6.23471068
O       15.06946203       1.64038625       6.01449219
O       19.09587225      17.84119970       5.23561418
O       17.92210180       1.31321805       6.99768536
Si      13.42361410       0.89423451       5.99714623
Si      17.44574680      17.63734353       4.74028364
O       13.71594905      19.12398778       6.11733603
O       17.01623428      16.06448366       3.77761465
Si      13.10700528      17.65672863       5.48845379
O       16.58261254      18.62695394       3.68343075
O       14.28986661      17.18218928       4.37669033
Si      14.93963936      18.09777177       3.21458513
O       13.98895678      19.65643222       3.55239813
O       15.21118759       1.91096431       2.34443627
Si      14.01934659       0.92470959       2.65807771
O       12.52839836       1.52578524       1.92340794
Si      11.27067173       0.46867596       1.27836211
O       12.20074499      19.62394010       0.21736293
O       18.11018818      13.15356495       7.59994758
O       15.98522889      11.32293709       6.10514419
Si      16.26377792       9.49554956       6.35450540
O       16.22105742      10.07988661       8.04310921
O       17.64070519       9.04314875       5.89574988
O        0.24788724      13.46162906       6.22159803
O       19.61575965      11.20249771       7.81777579
Si       0.48669457      11.69376757       6.40534083
O       19.63602369      11.10201219       5.10163145
O        2.03557311      11.63524151       6.46015774
O       19.18280155       8.94840151       3.64719471
O       17.78496819      15.24455940       5.96980769
Si      18.69126260      13.93355559       6.42878439
Si       0.98269764      18.58398693       9.64126367
O        0.05604482      14.62896065       8.78220025
Si       1.28673525      13.54074062       9.72819235
O        2.63102414      17.60445012       9.29761883
O        1.83800275      11.96346211       9.26508688
O        4.64465278      17.63773920      11.14175711
O        2.53620621      14.67946428       9.96564381
Si       3.12256039      15.90975205       8.88334922
O        2.32539982      15.69469258       7.37211650
O        4.80265096      15.58131517       8.58134281
O        3.05529072      13.98599990       5.45119220
O        5.67884506      17.92780890       8.43038312
Si       3.35634846      12.64058693       6.38709968
Si       6.09272498      16.41595763       7.79193006
O        5.54538680      14.08520767      10.77636834
O        3.73685613      13.14935686       8.05001060
Si       5.13285253      13.11779705       9.18160844
O       17.93200429      13.26780191       4.86107845
O       19.62608884      14.55160837       3.34040771
O       18.57631013      12.11966809       2.60073761
Si      19.67203633      10.82996601       3.48247599
O        2.04202759      14.33959190       2.67416677
O        1.28268505      11.28686192       3.05338748
Si       2.21120760      12.58229796       2.33545554
O        2.11019096      12.42439059       0.69608900
Si       2.67705263      12.73304273      19.11541846
O        0.10450132      18.75652155       7.98397893
Si       0.17220367      18.86895912       6.14484151
O        1.17394060      19.36522583       2.61464173
Si       0.52312833      18.22919695       1.50970868
O        1.72408830      18.61452421       5.80581449
O        0.41081332      16.73547446       2.16701410
Si       0.96983849      15.51686705       3.21559724
Si       3.07670298      19.61310941       5.43952268
O        1.52300587      16.07409795       4.68199834
Si       2.74241100      15.62735267       5.76908748
O        3.89368133      18.96127431       4.27125889
O        4.13338653      16.55679594       5.47313297
Si       4.68586092      17.52449574       4.13685300
O        4.03155844      16.71418798       2.86600625
O        3.44065073      17.32813296       0.38348839
Si       4.29614785      16.37953444       1.32879565
O        4.36531516      11.62125648       5.61890923
Si       4.74829560      10.03443378       5.62431827
O        4.24093785       9.33258665       4.28149645
O        6.33013247       9.97089545       5.45483727
O        7.26762244       8.42530244       3.09033020
O        6.44187490      15.53048950       6.33691525
O        6.24327446      13.44568972       8.19262975
Si       6.76165609      13.76927464       6.54587215
O        6.27510957      13.15613148       5.15458311
O        8.16346274      12.87461108       6.94256239
O        7.28677062      11.42603073       3.26055628
Si       7.41369008       9.94116375       4.17925975
O        8.93528546      10.28178927       4.94920608
O       11.13988306      12.41951360       5.80929957
O       10.91387729      10.41965100       3.44376071
O        3.82836212      12.43694605       2.50286523
O        3.70672904      13.94391239      18.32781100
O        3.16727537       8.29385651       2.40982172
Si       4.66274834       8.87533630       2.67588383
O        5.33627889      12.31803817       0.21159640
O        5.19718780      10.17854243       1.85795325
Si       5.76835209      10.68017465       0.30698944
O        6.33482038      17.99887080       4.01888203
O        4.10280271      14.73964937       0.96600928
O        5.92935434      16.73690446       1.04649252
Si       4.89333305      13.35322476       1.46352857
Si       7.72500418      18.14715791       3.06350049
Si       6.69103401      17.35764648      19.62690147
O        6.10797979      13.75680442       2.44750413
O        5.46761566      18.48814200      19.39672367
Si       7.00693651      13.06695162       3.65115602
O        7.96922805      16.67528334       2.42294150
O        7.94771337      18.46633613      19.31496541
O        8.35007189      14.16911974       3.74037213
Si       8.93929963      15.31760703       2.58282112
O        8.87084738      14.70719869       1.16022117
O        7.18262199      15.79396972      18.97283453
Si       8.44949313      14.80816886      19.66093717
O        8.10914724      13.09343262      19.24991988
Si       9.08944195      11.40381831       0.41580377
O        9.95727446      10.39188449       1.21092171
Si      11.19072921      11.44128072       2.50528516
O       12.69563524       6.37782897      19.71757712
Si      11.50903350       6.57132287       1.22456081
O       11.06700661       8.19464020       0.63587590
Si       9.59696626       7.60997988      18.55987902
O        8.12806435       7.29537055      17.83296200
Si      10.03593437      12.12465902      15.57416357
O        7.49413091      10.59352191       0.50234730
O        8.99954799      11.71415553      16.96946682
Si       7.67216624      12.32061537      17.95102045
O        7.58670934       3.52547654      18.99236430
Si       8.43754856       4.38032776       0.32809361
O        8.37261678       6.34972975       0.74480734
O        4.22761868       5.10970617      17.38329722
O        5.85233929       6.53253520      15.89090738
Si       6.46505500       7.54469645      17.21717880
O        5.59926442       7.04182899      18.61175767
Si       4.43855075       7.71034191      19.52122631
Si       4.39748143       5.49411994      15.76559100
O        4.79279227       4.15454038      14.89747531
Si       2.91172243       4.99509136      12.96234321
O        9.73251429      13.54097965      14.53227051
O        5.75903128       9.05277339      16.73842306
O        6.53916676      11.28499901      17.83540640
Si       5.95636115      10.63560943      16.35023328
O        7.08656394      10.93138140      15.04514578
O        9.47678945      14.50220647      16.61430870
O        4.56442516      11.62781092      16.02752586
O        7.40046435      13.54251339      14.39496594
Si       7.83718574      14.47144939      15.86227311
O        7.02942091      13.67134505      17.01517363
O        7.46193949      15.88314622      15.56026116
O        1.77796120      12.55991139      15.88426412
O        3.44780089      15.69470596      13.12535744
O        4.83974219       9.47731281      19.32056525
O        2.87170988       6.87351867      18.97761789
O        1.50788137       7.51459891      16.75769104
O        2.82272614       9.88297226      16.14684612
Si       2.92660425      11.37141499      16.51972783
O        3.04938276      11.41705027      18.24890534
O        6.05599861       8.75839884      13.74434109
O        8.42240621      11.74978572      12.25422449
Si       7.26785692      12.07373864      13.68710988
O        3.97385733      10.07757342      12.88018766
O        5.77265780      12.21182823      12.90283595
Si       4.66778678      11.44410629      12.06096750
O        5.24700643      11.03169389      10.54022064
O        3.31509009      12.40292274      11.91025014
O        6.05028767      16.08503857      12.91287569
Si       4.53324066      17.00988760      12.77988669
O        2.85914001       5.78761704      14.59594519
O        4.49388584       7.47896544      12.11186502
Si       4.45100248       8.61199545      13.38884946
O        3.63706541       8.06104664      14.69436986
Si       2.25318089       8.56232398      15.59586463
O        0.08899243       8.03868277      12.24709997
O        1.02373033       8.80191657      14.59774025
Si       0.29979056       9.42219748      13.34232066
O        1.06735895      10.76357735      12.68539570
O       18.94492905       9.89814850      13.89096201
Si       1.77971756      12.34979965      12.44936770
O        1.48031844      13.58431947      13.57204036
Si      14.46794880      12.45249386       1.29613252
Si      16.81291525      11.63544858      17.00067573
609
Lattice="20.00098044389361 0.0 0.0 0.0 20.00098044389361 0.0 0.0 0.0 20.00098044389361" Properties=species:S:1:pos:R:3:charge:R:1:forces:R:3 relative_density=0.96 cell_dim_angstroms="_JSON [20.0, 20.0, 20.0]" n_grains=7 grain_size=13.0 crystalline_fraction=1.0 grain_radius=10.215841967756422 energy=-43351.54250711067 dipole="12.723163473940767 -36.78831148043255 -14.118337062299949" stress="-0.2116677371605749 0.004428440520626543 0.0037830816390743796 0.004428440520626543 -0.18691316556885768 -0.004420226468598019 0.0037830816390743796 -0.004420226468598019 -0.1979549685877861" pbc="T T T"
O        7.01021836       6.52734533      12.61610239      -0.45886326       4.05397693      -2.47180956       1.47513646
Si       7.33242710       8.21299735      12.83448140       0.95420028       0.31656158      -1.99540495      -0.75036154
O        7.68268018       9.12829188      11.50885473      -0.42874226      -3.08802567       1.85987620      -1.63452541
Si       8.77616520       9.56252394      10.36064940       0.88526333       0.63426715       3.75523249      -0.57281714
O        6.94562410       2.84735941      15.17902971      -0.47957239       4.58243382      -1.46597690      -0.06518566
O        7.19821787       0.80016061      13.00860625      -0.37616089      -2.62149133      -2.90226880      -1.42808455
Si       7.59224567       4.60874264      15.41285300       0.57859496      -2.72877211       0.72119307      -1.55462956
Si       8.40551939      19.58790766      17.96977700       0.61770647       0.99710876       0.22996430      -2.05006209
O        8.42575207       4.22420176      16.83705016      -0.35498954       0.39577188       1.32066032       2.75100472
O        8.62716873       1.45907059      18.32855279      -0.34294672      -2.94375152      -1.64093043       2.80051441
Si       9.21014249       2.64659195      17.24396753       0.85944719      -0.45417259       0.21584185      -2.37859755
O        4.92035043       1.64127827      13.77094872      -0.45088914       1.28793102      -0.75989530      -3.70091398
Si       5.27221834       2.60446141      15.07971180       0.95320163      -0.79517360      -0.64318867       0.76126717
O        4.54624187       4.92411277      12.60224298      -0.44021893       1.31276669      -4.55676110       1.44651641
Si       5.53266844       6.07954547      11.96464765       0.92261134      -1.55401823       2.14115268       0.77734999
O        5.81188176       5.55856845      10.42722084      -0.46562390       3.69085984       2.12189282      -1.44521123
Si       7.27137657       0.22158002      14.57525356       0.75270397      -0.67249221       0.69312837       4.21936724
O        6.73558228       2.22114448      10.56766911      -0.40242529      -1.79692437       2.15971355       0.00175715
Si       7.77628912       2.01194960      12.04568114       0.91156782      -2.04743555       1.37951368      -1.53138025
O        8.55132460       8.38316896      13.91205678      -0.46735323      -0.68513665      -1.60127276       2.77462473
O        9.94465284      10.80610482      14.41909757      -0.43244987       0.03118697      -1.08523117      -2.75688581
Si      10.02696442       9.05413895      14.21780602       0.95542240       0.75805916       1.60100460       1.59901386
O       10.38810763       7.95000863      15.45181370      -0.49802538      -2.59217283       1.44631909       1.86669601
O       11.06659419      12.56833218      12.52659103      -0.39676631      -0.92360758       2.99203887       3.53410614
O       11.08651528       8.84727617      12.97211803      -0.43069018       1.66459451       2.56305853      -1.22251411
O       12.34861651       7.78196475      17.03080676      -0.42595700      -0.54330233      -1.48249390       5.00928408
Si      13.43777044       8.98499597      16.49073380       0.47783207      -1.14122286       4.33862088      -4.87098309
O       13.17420152       7.39544629      12.91128275      -0.35659845      -1.89143569      -1.05967611       2.55439677
Si      14.82901507       7.39504870      12.60919404       0.76386273       1.77958881       4.46161528       0.55954385
O       14.74023017       7.86116692      15.92187721      -0.37578230       0.21060994       0.67325753      -3.66143703
O       10.28509111      10.22332546      11.06660462      -0.40394465       1.73865012      -2.92839937       0.69269932
O        9.48903270       8.60782657       9.21526460      -0.37363877       3.10732026      -1.41249284       0.86778766
Si      10.33268611      11.90399871      11.17556790       0.88551868      -2.85595110       1.29243221       0.13839519
Si       9.13701825       7.84719470       7.77034264       0.86698294      -5.83650666       2.16789141      -4.22297488
O        7.97080003       6.81295263      10.03180554      -0.46473579      -0.59069005       1.16094039       1.69371326
O       10.19184938       8.58148627       6.76600534      -0.40354205       4.18874343      -2.85838387      -1.48698870
O       10.36395009       6.35915057      11.67727999      -0.41372504      -0.13219717       0.57238107      -0.10971199
Si      11.75010705       7.72555155      11.92330089       0.86973661      -1.13112608      -2.88646121      -3.10422858
O       11.98169119      10.65169255       8.16313569      -0.44376234      -3.50959569      -0.65402611      -1.00210436
O       12.14266264       8.64887045      10.47903829      -0.44967466      -0.84574086      -1.22807141      -1.33400623
Si      12.89148451      10.06305871       9.57073870       0.87434143      -1.05578676       1.08170053       2.67063145
O       12.33379387       7.37688418       6.89485602      -0.32226940      -3.29655874      -1.22269417      -2.86824583
O       13.63184703      11.39132919      10.42217804      -0.32878790       0.89901109       1.56885277       1.21877046
O       13.99890058       9.18967574       8.65990074      -0.42336322       4.40331533       2.12642198       0.42164652
Si      13.73889893       7.89252261       7.65586062       0.85983571       1.11800612      -1.17240881      -0.88084938
O       13.42540608       6.78909183       9.04871189      -0.45438462      -3.56209610       0.88167225      -1.07519861
O       15.04763924       8.08899584       6.42601377      -0.36097263       0.63231038      -2.24704982      -2.09565323
O       15.18480524       7.08777157      10.99449562      -0.39656169       2.87039678       0.38641088      -2.79837448
O        8.90179605       5.18987205      14.34338793      -0.33271302       1.02767648       2.63206759       1.08513203
O        8.84427550       0.17381698      15.13444451      -0.47384296       4.66083764       0.62027589       1.46482946
O       10.47422478       3.20628094      18.19448237      -0.39804848       1.53956186      -1.41581192       4.11373712
O        9.97572843       2.47752028      15.66313033      -0.38005486      -0.35484549       1.97670462      -2.26609766
Si      11.46324795       4.55168609      17.94882215       0.65574390       2.24053995       3.19731419      -2.41840291
Si      10.81656256       1.01107443      14.95734811       0.66952828      -1.63391872      -0.49238526      -0.41986664
O       10.53527642       5.47127388      16.56869329      -0.44090909      -2.32257203      -2.15250210       1.38140842
Si      11.44295024       6.75909046      15.96224310       0.89283664       1.44782243       0.03550933      -0.26347175
O       10.31473524       5.92010821      19.06644694      -0.30403522      -0.02634815      -1.75107256       0.58100219
O       11.20476453       3.69571696      13.66098799      -0.40370346      -0.03806922      -3.17821572      -1.18780704
O       11.05682635      19.32042533      14.34062274      -0.44103671       2.55882539       1.96187601      -4.73165130
O       12.41113173       6.03225805      14.73254354      -0.46038360       1.79208411       1.38559379      -2.40604298
Si      12.47424700       4.27669653      14.74096080       0.86150010      -2.16220946       1.15679501       1.70750568
O       12.42171399       3.72836877      16.43188173      -0.40066452      -0.08755325      -1.30520554       3.46249541
O       13.94949000       3.96941426      13.99983381      -0.32865636       2.43137640      -0.62352413       1.51191747
O        8.54161971       3.94437080       9.67809190      -0.48380452      -0.11798133      -0.76296195      -0.01724185
O        8.53726542       3.18472918      12.89750945      -0.38158926      -1.22024775       0.49985006       3.31745735
Si       9.70178702       4.38009730      13.00397074       0.63046888       1.68607712       3.27090092      -2.28933893
Si       9.38503536       5.62958867      10.14772390       0.78965213       0.58631899      -1.65023638      -0.57945419
O       11.00305448       5.66488037       9.24468467      -0.40659139       0.51770751       2.01782307       1.90176591
Si      14.53165445       3.76660774      12.42836778       0.66338297       5.84963272       1.15585580      -3.17906431
O       13.45426518       5.01448350      11.45421855      -0.43408131      -3.56139153      -2.29807394       3.25179424
Si      14.19089556       5.85571150      10.17433648       0.92097801       1.10050766       1.39543094       0.89890735
O       12.35787409       7.86930456       2.68180817      -0.43399893       2.27874346      -2.60101365      -4.54825198
O        9.08593587       6.19465603       7.72346095      -0.47664539      -0.68179219      -2.34351346       3.39831197
O       10.85153541       5.08262083       6.25859242      -0.38889240       4.48129122      -0.09679453      -2.91520353
Si       9.18503913       5.22208468       6.25296511       0.92510415       0.39498850       1.40875036      -0.46970988
O        8.74437464       3.76528279       6.93062168      -0.45833089       2.52383141      -3.85016195      -1.54278652
O        9.80289582       7.93801055       3.57632519      -0.43147203      -3.44390967      -1.81940707       1.13343464
O        7.74784768       5.68333456       5.55719993      -0.42569140      -2.89105194      -1.35357255      -3.99635058
O        6.53638875       2.38651164       6.86898101      -0.52168495      -1.76046734      -0.70803550       2.18708697
Si       8.48173827       7.32947771       2.49120814       0.79672411       1.91289174      -0.60356160      -5.16466819
Si       6.63678811       2.02253716       5.13196089       0.91386856      -0.05377281       1.69879908       0.20475545
O        8.29943791       5.82079303       3.19535430      -0.47031888       2.61852726      -0.80811173       3.18550334
O        7.37804662       3.39384972       4.36024326      -0.47177723       2.83503726       0.47122082       1.47853591
Si       7.23420586       4.49626656       3.08223661       0.94711655       0.49632061      -0.68971167       1.80095244
Si      10.19501800      10.06493409       5.98798473       0.80427862       4.97627019       1.56292041      -2.08850633
O        8.40426449      11.28021934       9.70372778      -0.39823016      -0.35641864       1.71889397       3.41426000
O       11.98576131       9.10588859       5.14656561      -0.36105627      -0.57946859       2.16684250       4.82579358
O        9.73060384      10.97287244       7.42716655      -0.39216261       2.72629132       0.33701384       1.39495130
Si      11.29450655       8.72006073       3.65076502       0.86831576       1.07877044       0.26306847      -1.65045586
Si       8.18144769      11.31895038       7.99114007       0.77274565      -3.62015407      -0.25303130      -2.53099308
O        7.04826604       9.75030012       8.17362936      -0.54898337      -0.74547773      -0.37839274       0.03370636
O        6.05323069       6.86842201       7.75891984      -0.37629311      -2.89251753      -2.15178304      -0.72262861
Si       6.69374653       6.93678956       6.09633021       0.89774444       0.29002300      -0.61794180       1.30122177
O        7.76321700       8.22039584       6.30795179      -0.52015036       3.96292344       2.75198061       2.11410143
Si       7.58580313       3.37827496       8.04174466       0.84963151       2.29908919      -1.64126000       3.98958650
O        6.35961272       4.50436399       8.18511357      -0.41523151       0.03162827       2.85643714      -2.91744205
Si       5.11954331       4.55107707       9.29203632       0.97041443      -1.84844327      -3.77903796       1.35500484
O        4.52293950       3.08255917       9.98600458      -0.54146651       1.39922617      -1.73440513       0.78501583
Si       3.24095700       1.89841164      10.52445026       0.91288731       1.25884733       1.61397244       2.35750643
Si       6.61600221       7.69095949       9.10188878       0.79065381       3.82591747       1.19368463      -0.65308620
O        5.39112064       8.51696024       9.84359835      -0.30697725      -0.78097832      -2.81568568       4.30093657
Si       4.67882325       9.99639011       9.38024771       0.48973008      -0.54399701       1.15084826      -6.97495915
O        5.30718678       1.47752864       4.26265357      -0.49188351      -3.58862816      -0.81092978      -1.23606048
O        5.40585755       6.95748536       5.01632085      -0.47018566      -2.72136648       2.07557186      -1.49088590
O        7.61938590       3.78310896       1.62556777      -0.37694154      -0.94782907      -4.34353547      -1.58923117
O        5.72368342       5.19453940       2.93461198      -0.46449791      -2.05889520       1.44621533      -4.70346501
Si       4.71573619       5.47740982       4.23305066       0.90397173       0.28559486      -0.29735467       2.98558754
O        4.80395811       3.99340352       5.10324893      -0.44730247       2.96145656      -1.05294387       0.75388106
O        3.21839494       5.89023912       3.64670253      -0.43006812      -1.95663047      -3.16298270      -2.30596872
O        2.79350133       1.35192513       5.07549008      -0.45141470      -2.69235935       0.75841446      -2.10361559
O        0.92200161       7.12425808       3.33086770      -0.44630116      -3.50881459       0.99690619       1.43767650
O        3.99036803       9.19562568       6.95176829      -0.48268821       1.40106784      -0.86858569       2.93724325
O        2.37736517       7.46672955       5.54349667      -0.38364410      -1.15156479      -1.98848780       1.26303730
Si       2.47516719       7.37749202       3.88480232       0.87234794       1.22078067       3.36661872      -1.97543415
O        5.74730751       0.55091971       8.48403265      -0.45403856       1.91506721      -1.97635175      -1.26371338
O        3.90919671       5.47656688       8.66510639      -0.47453469       0.65940904       1.47417872      -4.52672661
O        3.08671456       0.89446617       9.18026433      -0.46965390      -4.70779815      -3.12474511       0.65622510
O        1.94457842       2.94368423      10.70508313      -0.35465627      -3.89040800       2.22117801       1.09717676
Si       4.21151887       0.76918749       7.97513520       0.98201215      -0.27502914       0.03193088       0.20166875
O        4.11125948       2.26876454       7.28818372      -0.47027152       1.31624656       4.15864530       2.00812914
Si       3.70225674       2.79191205       5.77069300       0.92607225       0.56019603      -1.84565046      -3.56968304
O        3.92346084      19.57644562       6.88530134      -0.45580178       1.99532987      -4.97013181       0.98990112
O        1.31026622       4.86419899       8.52980141      -0.43414207      -3.75211762      -1.12306265       1.63533981
O       18.55274893       3.92935579       7.83276692      -0.45436021      -1.72628210       2.25122641       1.71789617
O        2.57553156       3.95263394       6.19076587      -0.47476409       1.00517061       3.55409666      -1.87879323
Si       1.20544711       3.94530476       7.11242183       0.92958147      -0.14528349      -0.66188759       1.81390844
O        0.62115961       2.32169744       7.35429744      -0.45407302       2.97685674      -3.48519969      -0.76694721
O       19.21797917       1.35369381       9.52821338      -0.40483251       0.53079760      -2.28837909      -0.85414196
Si      19.06800590       2.12204925       7.99402386       0.88629269      -2.00169236       1.98571412       0.60049135
O        0.16227860       4.52653928       5.92906848      -0.46849259       1.25114637       0.51457728      -4.75153684
O        3.08929852       9.59630722      10.03390599      -0.39671919       1.00388783      -1.68774843       3.29665936
O        2.43759460       6.00253523      11.15129703      -0.38395585       0.42048000       0.50171633       1.86830956
Si       2.41464798       5.88094859       9.28159835       0.92340151      -0.52101316      -0.30162706       3.97585549
Si       1.75571859      10.22562932       9.24501879       0.90523861      -1.82677462       0.09623278       1.41930572
O        2.23257237       7.36044568       8.46241875      -0.45666556      -0.85418113       2.84050010       0.07902901
Si       2.47206205       8.26745125       6.98663470       0.91454841       0.28520567       0.44079199       2.61163281
O        0.32810065       9.79797371      10.14867854      -0.47526841      -1.19299169      -0.38630502       1.67048656
Si      18.85575204      10.12012125       8.98387123       0.87379546       1.34804354       0.81558966       0.60870251
O       18.49602093       8.52984874       8.56159016      -0.36954467      -0.57209461      -2.58085560      -3.47525738
O       19.41106169       6.34749036      10.17969763      -0.30754236       2.27718678      -1.69744326       0.99090053
Si      18.11515217       7.35042361       9.79624853       0.82989523      -2.50132064       1.20587238       3.40425463
O        1.48511662       9.57529405       7.69815877      -0.46877277      -2.56501305       0.34407974      -4.25616739
O       17.09532484       6.28238209       8.64995817      -0.45087160      -0.35807709       0.81761580      -1.76888235
O       17.76129767       8.62922657      11.25631096      -0.36628875       2.42172933      -1.35240393      -2.27578177
Si      18.56286989       4.93597219       6.22863832       0.82997834      -1.54519341      -0.27070342       1.34061952
O       18.92679004       6.69501479       6.17041333      -0.36790284       1.59260940       1.18634949       2.22121333
Si      18.35546547       7.81071358       4.91050246       0.84784223       0.47651938      -1.06944001      -2.52858731
O       10.32013557      17.64805429       0.78764086      -0.17363348      -0.02764843       0.13028766       0.06153068
O       14.90108039      16.87990664       1.76120245      -0.44053209       1.97452282       0.17259124      -0.73226883
O       13.60521324      13.94462839       1.61345717      -0.35663961      -2.57335766       0.14990928       1.09314134
Si      13.94987362      15.54639767       0.92799507       0.88504552       1.57556753       0.39007305       1.59927918
O       12.78127027      16.34843659      19.99758771      -0.41406946      -3.38869862       1.58258380      -0.12016272
O        9.92625893      15.56746643      19.16424787      -0.44177382      -0.91430801       2.02569766       2.37505553
O       14.82578036      14.85698635      19.55642940      -0.45662484      -2.32131287       1.89718959      -1.02957299
O       12.55623899      10.81614194       1.53962445      -0.41433341       3.72501923       0.46906082      -0.38447191
O       11.86824151      16.03482907      17.44267096      -0.41379628      -0.93573888       0.69147206      -4.93279593
Si      11.96887316       9.68842912       0.29141543       0.89995619      -3.55659826      -1.35849089       1.69190367
Si      10.79324753      14.85916771      17.90693866       0.91572434      -1.26157323      -2.00716429      -1.06637334
O       11.44969959      10.69573740      18.95370496      -0.46995755      -2.27529757      -0.60310519      -1.41228760
O       11.96413718      13.69148113      18.64872312      -0.41024032       0.79593187       1.90009554       2.96541439
Si      12.00708509      12.10661087      18.08534107       0.87260718      -3.22065898      -1.17913320      -1.76267789
Si      16.70685081      14.54423184       4.42768353       0.73401895       0.98866429      -1.61076312       4.86932020
O       15.52077054      13.27364178       3.84217221      -0.37609254      -0.75130087      -0.09158896      -1.19710221
Si      14.18808130      11.86560521       4.00033079       0.66697005       2.57640886       2.26023070      -1.67627226
Si      18.78127288      13.83405146       2.14333284       0.62965266       1.25961275      -0.65776274      -3.76784484
O       15.74186072      10.57979353       3.54879901      -0.42026466      -0.68342363       0.56848681       1.46650264
O       17.73179811      15.12336008       1.37777584      -0.36574709      -2.35767221       0.68534834       1.57881810
O       17.31262035      14.94593151      18.70511277      -0.45368774       2.10435716       0.08173687      -4.64221926
Si      16.09267074      13.90231986      19.12066182       0.93322798       0.19616025      -0.38986226       2.06203726
O       17.84694013      10.14324938       1.37844451      -0.41706572       4.12019760      -0.66071355       0.08760614
O       16.74192665      12.85971415       0.43124625      -0.45792982      -0.94311776       0.90621367       3.66739782
Si      17.67146902      11.39632307       0.21995026       0.88222462      -1.20511638      -0.39440503       1.64201157
Si      14.04456735      19.80887177      19.74645021       0.86893901      -1.53743745       1.67611273      -0.54117694
O       10.22111240      19.64782103      18.66637767      -0.36927870      -3.55673873       0.21860262       2.44706793
O       15.25080096      18.70119972      19.14013835      -0.43488698      -1.72592858      -1.98428143       1.75598358
O       11.81851156       0.75645025      16.46199669      -0.44552667       1.96171133       2.56353713      -0.23231403
Si      11.56491873      19.49055232      17.62934960       0.88361898       0.46723041       1.92101200      -0.15283326
O       12.97922891      18.60485523      18.21949427      -0.38002577       2.47982143       3.95149690       0.19964475
Si      12.98960046      16.91754350      18.27817932       0.93752324      -0.39565637      -1.07278278       3.61125639
O       10.99765024      18.21306335      16.74526016      -0.51199872      -0.77488618      -3.27284195       2.95504861
O       16.07515468      18.02932741      16.58086720      -0.45744156       1.96287178       2.59048604      -3.29270192
O        9.03428163      17.68361965      15.21012136      -0.50048408      -1.58783703       0.53964710       3.38856619
O       14.35003697      16.36266026      17.49628888      -0.41981048       2.22822721      -3.05464121       1.52413111
Si      10.64033834      17.93650917      15.17476592       0.96891254       0.46790019       0.76479227      -0.76920317
Si      15.18476238      16.70009427      16.10036606       0.91049253      -0.03986772      -0.80783378      -3.34809174
O       14.35517700      17.41826367      14.62855878      -0.44163402      -2.51019782       0.09638559      -0.61873998
Si      14.78288975      18.32223730      13.08150228       0.81385699       1.30244077      -2.02846623      -4.43177593
Si      16.49257489      18.71921020      18.01876687       0.91303199       2.44829338       0.32252279       0.97253643
O       17.56338736      17.66342494      19.16269485      -0.50718755       1.60421163       1.23430499       0.69069769
Si      18.04601076      16.00740720      19.76660942       0.88435647      -1.73833169       2.86356323       1.60487018
O        1.17554570      17.95112472      19.86823776      -0.45954985       2.09534111       2.95160767       0.16571996
O       19.66864849      15.74212328      19.53485294      -0.46161079       1.10722739      -4.13217663       2.25702200
Si       0.82257433      16.66363999      18.76075450       0.97784478       0.56280108       2.25551325       1.06620132
O        0.23245217      16.98929686      17.26808564      -0.47603705       0.17223137      -3.34840453      -2.08908732
Si      19.58008530      18.14954412      16.31274063       0.96504598      -0.79606812       2.50059809       1.97169219
O       14.40052182      11.75314052      19.73928747      -0.38578660      -3.08854202       3.55278211      -3.31864918
O       11.30231772      12.40839349      16.34722655      -0.51429353       3.67288319       0.62578362       1.55071153
O       15.93002983      12.95648660      17.77447434      -0.31440666      -2.92082031       0.17095508      -2.57560224
O       13.51681431      11.78052040      17.46693119      -0.39868981       3.19178790      -1.24434573       2.58750224
Si      13.93154486      11.78869683      15.81774538       0.71521858      -1.52318035       4.58861868      -2.91244194
O       14.14565409      13.84173944      16.05547895      -0.49623611      -0.52784688      -2.60027815       1.59997633
O       14.39249304       9.50558786      17.83409642      -0.46498652       2.81012989       0.33980353       2.64954133
O       15.55136502      11.22653700      15.95573611      -0.35586563       2.25165761      -1.94965103      -1.49548762
O       13.28698383      12.36878339      14.09563992      -0.31928625      -0.77132397      -1.08944680      -0.14741011
O       16.61993959      10.73447573      13.62949955      -0.28938950      -1.00517892       2.51748102       1.82895382
Si      16.72127183       9.48456911      12.46637951       0.77462629      -0.64975551      -4.48283885       0.46565876
O       14.98344027       9.37823686      11.99267771      -0.39121642      -1.95580429      -2.28422636       0.54588070
O        1.12285200      13.01258909      18.47931700      -0.46936913      -1.39387387       4.53259708      -1.78897500
O       16.74597119      10.62990369      18.90085908      -0.35854027       2.57176520       0.64384175      -5.32322923
O       19.12332968      11.94705564      19.66877603      -0.44211694       1.11362591       2.09434836       2.63380025
Si      15.08590665      10.29446839      19.24847197       0.88723490      -3.24843409      -4.40305051       1.09772575
Si      20.00652018      11.79383686      18.26048646       0.86643905       1.39298517      -2.95776806      -1.07045311
O       19.22577275      12.31130392      16.80716380      -0.43276447      -3.57095958      -0.58481136       2.66241940
O        0.70970335      10.09062471      18.52052736      -0.39109314       2.38359387      -0.67034909      -2.32729854
Si      18.15794515      11.00164806      14.65973407       0.44776671      -0.33329493       3.07605811       1.77474017
O       17.83193789      10.15947782      16.49209381      -0.27552134       1.34734542       2.48078678      -2.70158864
O       11.48898998      16.55172672      14.85157213      -0.47707823       1.20832838      -3.42054448       3.80887537
O       16.42063635      15.47549367      15.89634318      -0.46818118      -0.59166252      -3.18506269       1.71118818
O       15.82941147      19.44732672      13.72764734      -0.41850159       0.48436870      -0.85127669       4.14353619
Si      12.00906533      16.13274425      13.33517453       0.94768834       0.45769380       1.37537602      -0.50238424
O       13.49125276      15.43393671      13.45799423      -0.38785178       4.29933051       1.62112135      -2.33855967
Si      14.03989542      14.11456081      14.29639419       0.82253726      -2.72018171      -2.73853945       1.56189606
O       17.35270526      15.65704212      13.54315827      -0.40567519       0.77621385       4.29899717      -2.93775541
O       15.58574794      13.67539419      13.85475990      -0.44610031       1.17472489      -3.39351115       2.25503318
Si      16.63158724      14.36993783      12.78413606       0.92008854       2.07014817      -2.54002333      -0.32629848
O       15.84333446      14.70628438      11.39204775      -0.43112463       3.34792203       0.49615156      -3.35397431
O       17.89293711      12.97965944      12.67475631      -0.43288882      -1.92221472      -2.73005044       3.18822855
O       18.03984512      13.82501318      10.14104792      -0.41386178      -2.33766119      -3.93230038       0.69822579
O       17.93534562      11.09315086       9.98971907      -0.40113887      -2.55505237       2.42688111       2.70750296
O        2.23007686      15.87766301      18.52882282      -0.43185921       1.30642565      -1.49676159       3.25480575
O       18.37232718      17.39414636      15.44807400      -0.41128055      -2.95993778       2.73389238      -1.87504050
O        4.61851383      16.35250923      17.17403960      -0.40657402       3.41316089       2.26740728      -0.63222277
O        0.76658734      18.64429141      15.30592825      -0.42138115       3.48223099      -2.16720825       0.83423550
Si      17.96133336      15.83567620      15.07806447       0.91981504       0.90255380      -2.83263923       1.84528575
Si       3.29518657      15.35208922      17.36693782       0.90759669       0.77757661      -0.79671392      -2.03387579
O       19.35040187      14.75353832      15.48485127      -0.40858849       1.73859661       1.20447056       1.45506398
Si      20.02739453      13.09435249      15.50281132       0.60476581      -0.28348981      -1.66362717      -4.53871345
O        2.33243827      15.17343968      15.86977506      -0.45455199      -2.00580525      -0.73773969       0.19785732
O        0.87014753      16.93643306      10.83510425      -0.46519114       2.73561570       2.35711175      -5.42830945
Si       2.15962038      15.15291887      14.15895962       0.93571551       2.14935884       0.01416756       0.61844616
O        1.03140301      16.31350689      13.73051316      -0.46582538      -1.26137685       2.54629496       2.27236756
O       18.84934458      17.69720205      12.78986591      -0.37367318      -1.99784261       2.13735713       0.27936386
Si       0.08356413      16.54801072      12.29101266       0.91864087       0.10875068       2.13295756       0.12077112
O       19.31432369      15.06057201      12.11764346      -0.57139643      -0.87357131      -1.98885939       1.01357968
Si      19.03251479      13.46010314      11.53297672       0.89270416      -1.75339451       2.02511682      -1.19085533
O        0.58519847      12.92263185      11.14284158      -0.27692062       2.30067360      -2.18927132       0.22163094
O       14.63671146       8.14033344       3.57937665      -0.12034194      -0.15765541       0.10897959      -0.07328728
O       16.93525891       6.84712527       4.39604714      -0.45869486      -1.92315101       1.18376314      -0.07340648
O       15.30936055       9.60507382       0.95138901      -0.53384392      -3.03426228      -0.31030683      -2.07931986
Si      16.47950879       9.45847544       2.17721926       0.87691193      -2.36637900       0.11738930       3.39609843
O       13.29955638       8.76164177      19.91231939      -0.43143162       2.67196064       2.17034894      -1.11102851
O       17.36354852       4.90267621       2.38940345      -0.46698137       1.52767207      -2.65930274      -3.02515131
O       16.70393445       7.72859033       2.11848756      -0.42928303      -0.79517467      -1.14559106       1.24973715
Si      17.46988900       6.31048454       1.32342166       0.91801497      -2.41227035       0.07199392      -0.77247902
O       18.98583936       6.75714229       1.83519886      -0.49185852      -0.76879443       2.69409145       1.58967532
O       15.46463554       7.24059342      18.64431390      -0.42758507       2.31714972       1.67441473       3.49808856
O       17.71293774       6.01328497      19.64014658      -0.48622376      -1.33049186       2.39817786      -1.58352068
O        0.99753654       7.49445955       0.45416836      -0.35022465       3.34309241      -0.03933850      -2.80298454
Si       0.11796897       8.88238768      19.73103457       0.60395568       0.77470884       2.40942862       3.58186966
O       18.61964287       8.48139307      19.11292139      -0.35756854      -1.25145288      -1.41040056       1.72330324
Si      17.81273611       8.62848657      17.58026827       0.45914006      -5.33765872      -1.20744637       0.51472090
O       17.57985574       4.20515816       4.96443375      -0.38027662       0.85847710      -4.17103686       1.49934703
Si      16.63821278       5.10209037       3.90577882       0.91520632       1.25286793       3.50138478       1.09436806
O       15.04619215       4.89376078       3.49007688      -0.37316742      -2.64517128      -1.91186672       3.87921162
Si      14.16472392       5.16398222       2.11639695       0.94803418       0.69406736       2.98992272      -1.66243738
O       14.59529026      19.65724855       1.35192635      -0.49792866       1.57896732      -1.45851258       3.93497024
O       14.73506819       6.60248919       1.19114353      -0.47855117       3.86605831       0.44682166       2.79942784
O       14.15273911       3.91976590       1.01196601      -0.43419271      -3.12748951      -0.25403027      -3.49163285
Si      14.14663031       7.29051099      19.76862087       0.93602191      -1.69925273      -1.84321204      -1.17977399
Si      15.23607166       2.69844886       0.71856952       0.90219864      -0.87092894      -3.92056861       0.60344514
O       16.80047313       3.20614226       0.58787284      -0.43847950      -0.59590127       4.12511607       0.29747766
O       14.70496563       1.55362403      19.49345546      -0.46093640      -0.71079039      -0.12535183      -3.42331049
O       19.13821197       3.65266263      19.36481770      -0.50030440       5.23786599       0.42013037      -0.71886588
Si      18.43328053       4.89684362      18.49786024       0.92792341      -1.48980200       1.47879162      -0.91643227
O       14.39534986       5.14869141      17.51221809      -0.46745135      -0.67427740       2.68738009      -0.29550088
O       17.04053080       3.96106866      18.06753408      -0.44017256       0.71998621      -2.61856943       2.07040870
Si      15.70252321       3.99176419      17.06994838       0.80110428       0.05907537       4.96706100      -2.67818648
O        0.95664934       4.84916363       2.25296816      -0.40881845       1.52547072      -0.21718213       3.66262729
Si       0.57679277       6.38336930       1.78465674       0.90053109       1.25148317       1.59231369      -0.91747090
O        1.63894937       3.43438239       0.23097633      -0.38866076       1.48495866      -1.46739773      -3.73570842
O        6.37092287       1.27209677       1.82161373      -0.31311968      -2.35459820      -0.43817896      -0.82087462
Si       2.08301098       4.93386044      19.13594361       0.66643206       0.14965827       2.31582726       1.20567895
O        3.71084393       4.71248882      19.88576427      -0.38066850      -0.36928488      -0.42912311       3.71851978
Si       5.06547951       4.63665191      18.86026140       0.62061252       4.22285699       3.14991241       0.34491219
O        0.09540940       0.52070414       5.23588152      -0.33750604      -0.70195689       2.10961103       0.67425259
Si       0.67349147       0.73648053       3.53625310       0.67533789      -2.62926832       0.33561709      -0.14421280
O       19.03180949      18.95386284       0.85195450      -0.46811099      -2.95234087      -0.17477993       1.42295769
O        1.51908008       2.15298385       2.94338318      -0.30716507       2.85621886       0.14953771       1.74411885
Si       0.91839324       3.27101382       1.73730983       0.90548406      -0.88644528      -1.83573529      -0.64273300
O       19.28352677       2.64992410       1.69936365      -0.49063444      -0.12546791      -1.44007683       4.93879888
Si      18.30441634       2.58684297       0.34580186       0.97438662       0.37065644      -0.50844569       0.07564784
O       18.19169165       1.15491455      19.54504647      -0.43462332      -3.67906440      -2.28918944      -2.37116464
Si      19.21811180      19.86956306      19.25419517       0.89875333       1.79655751      -3.12636249      -0.23018687
Si       5.30191230       0.07196016       0.52830585       0.76723585       2.90050134      -1.56193875       3.43660726
O        0.78415658       0.52189310      19.43642975      -0.47162470      -0.08742197       2.64568012       1.62626432
O        3.61401931       0.22900247       0.56654776      -0.37183267      -2.25618490       0.72454453       3.42350712
Si       2.44514518       0.12158435      19.18996003       0.88391776       0.56181394      -3.13190386      -0.64319209
O       19.68951469       5.32851449      17.41472452      -0.40213897       1.78949641      -3.13598819       1.13756674
O       18.56296050       7.53916694      16.55873060      -0.38720569      -0.57030442       0.13805374      -2.55645689
Si       0.01815150       6.66993973      16.45567219       0.91392649       0.71716013       1.53460146       1.00133788
O       16.28300398       7.80341664      13.68292015      -0.35251922       1.48089218       2.02019510      -0.60691495
O        0.09448427       6.36064861      14.84073209      -0.43424228       1.24901458       3.37681934      -2.46149299
O        0.75951721       4.95742180      12.55067462      -0.35318623       4.27460635       0.01330101      -3.21840063
O       16.63647724       0.43964178      17.58325047      -0.41059834      -0.88532055       0.51451496       2.40117935
O       16.57340594       5.70922657      16.22270365      -0.45118383       0.83082765      -3.85322277      -0.43764464
O       15.71332129       2.65584012      16.03977828      -0.34911048      -2.02780287      -1.69982411      -1.66983311
Si      15.49791839       6.83750692      17.00129096       0.80090311      -2.29368280      -3.97446286      -0.35472794
Si      17.02323361       1.40443326      16.21466622       0.88248462       0.17426047       0.86252030       0.70521608
O       18.54104282       2.27661998      16.58527043      -0.47721363      -2.41804095       1.15526781       3.97625807
O       17.38462402       1.13593601      14.61459726      -0.41718809       3.15661380      -0.56101236      -1.36971342
O        0.29410068       3.72642293      15.01496830      -0.49167262       2.29113891       2.56883418       0.37127639
Si      19.81215881       4.99465208      13.94328133       0.93170927       1.11689958      -2.48138740       0.25335133
O       16.27051001       3.07667066      13.45504722      -0.46980983      -2.19126883      -1.17665406      -0.12691435
O       18.23014983       5.00243538      13.46343510      -0.40076164      -2.67611416       3.63196992       2.31579295
Si      17.38753042       4.08916965      12.39366232       0.88225094      -0.97685160      -1.67642696       1.51855883
O       17.88100696       0.57748931      11.98843180      -0.42755593       1.20648152      -3.04917119      -2.00735386
O       16.03974454       4.81978133      11.66774375      -0.44350444      -5.62845538       0.27566131       0.02040206
O       18.28076487       3.27686534      11.27852131      -0.42879513       0.81228503       2.46188951      -4.18387296
Si      18.92538439       1.75418191      11.18574491       0.90622994       0.07694501      -1.72932216      -0.12888173
O        0.33259169       1.73692806      12.11970854      -0.31756375       4.53598740       0.03670106       1.86000713
O        2.02422494       4.01436076      17.63536482      -0.39793893      -1.09340767       2.03146339      -1.96387001
O        6.16305025       0.83919983      19.35158324      -0.39269502       2.21982513      -0.91350167      -0.74867610
O        5.06313649       2.97069018      18.56825190      -0.30098735      -2.98467629      -2.25886589      -0.40566157
Si       6.47670731       2.06971041      18.29983670       0.78468756       5.07491275      -0.65313906      -3.21003228
O        4.35991451       2.10026791      16.39103973      -0.47080408      -1.46888494      -2.74282348       3.55714826
O        6.70575454       0.56653522      16.92012618      -0.35886415       0.09510043       1.25193087       0.63926662
O       19.04132027      19.35517728      17.54195672      -0.49330356      -2.24028494       1.73490248      -0.74001983
O        2.92476484       1.59926826      18.55714240      -0.44347386       2.55620651       2.13102494       2.24762570
O        2.76936017      18.86329337      18.00392540      -0.36020917       0.29433452      -1.78524214      -1.64756637
Si       2.69728994       2.44404914      17.14556418       0.90715828       1.07931121       1.49264667      -1.87350493
O        1.26751967       1.72268174      16.55539708      -0.44848004       1.35971650      -3.29863725       1.43379018
Si      19.94922186       2.24791515      15.66813087       0.96637448      -0.37713920       0.06751866      -0.52448501
O       19.92064246       1.07395632      14.47359965      -0.46880171      -2.60291817      -1.79656217      -3.69857825
Si       1.06489885      19.77367495      14.12992271       0.93110829      -2.24838655       2.04299829      -1.30173046
O        2.60738529       0.38053579      14.32312345      -0.43257544       1.18067245       2.52242139       4.38088243
O        4.43923513      18.53415108      13.67991677      -0.43427452       0.41551540      -0.03683017       2.22938649
Si       3.94694894       0.27810485      13.34661828       0.92633007       0.97124553      -0.84924475      -1.27702145
O        1.06333294      19.16216186      12.56466488      -0.41072327      -0.39221587      -1.92147766      -4.24135838
O        3.56104791       0.63354660      11.71413833      -0.45268648       0.21599200      -1.97473262      -1.87174877
O        2.56876892       3.25825723      13.33640330      -0.31503877      -0.15772500      -1.71162840       0.05585781
Si       7.71750101      17.16268151      14.35845395       0.90925120      -0.79795433      -2.29773836      -1.87517211
O       11.69148663      17.50867768      12.37487041      -0.46496014       1.76623216       2.20379477      -1.75295563
O        6.73975477      18.53917949      14.46286617      -0.40401195      -4.01311405       1.01189038      -0.30842906
O        8.64012200      16.87169009      12.79267652      -0.50034866      -1.74146229      -2.74621557      -0.82749071
Si       9.92660594      17.65732152      11.97946010       0.89038550       1.19055097      -1.51412046       1.78494570
O        9.86445561      19.30855705      12.13860906      -0.37125790      -3.10038487       1.53611938       2.83822961
O        8.41869127      14.35605600      11.92648054      -0.39320213      -1.05826640      -0.13344646      -2.32015758
O        9.84517610      17.43840341      10.33526436      -0.44273424      -4.89205841      -0.11671566      -1.49722745
O        9.03306479       1.45398040      11.11798977      -0.41101013       0.11671586       0.53997996      -4.15589013
Si       6.82620898      15.19184872      11.58973655       0.88783685      -0.16518321      -0.63585495      -0.61574655
Si       7.01796107       0.85166449       9.46802104       0.87834889       1.76694527      -0.31072631       0.90108351
O        7.04379464      16.57819131      10.54182246      -0.45121268       2.50207446       0.08671502      -1.50365083
O        6.93985911      19.42050535      10.50323346      -0.42355200       2.51817974       0.90466582       2.93112875
Si       6.02701540      18.02454615      10.21640740       0.87205650      -0.19885016      -2.10423066      -0.92989439
O       10.97280115      15.01048138      12.73381520      -0.43116323      -0.21730802       0.44109807      -3.55613446
O       13.12871304      13.98511455      11.40622538      -0.41977921      -3.26296547      -2.88964759       1.54012534
Si       9.70637420      14.03484576      13.04641986       0.86622933       0.95359996      -4.67136663      -3.57573450
Si      14.29879998      15.05744869      10.88872536       0.92628009      -1.46354413       0.70919069       1.10113348
O       14.00426984      16.79598077      11.11679096      -0.48084746      -0.52144302       1.96277722       3.47104078
O       14.36318121      15.01377388       9.23684841      -0.46926920      -4.46637513       1.64752388      -2.14613163
O       12.40724474      18.25505810       9.51757528      -0.45212255      -1.37562301       4.57661110      -0.62852429
O       16.95083227      15.54127050       8.38406857      -0.41713381       1.00316563       4.76246408      -2.57371491
Si      11.15668349      17.20088225       9.33501054       0.94555754       0.90616628      -2.96781446       0.47561073
Si      15.54446643      14.72551239       8.13373987       0.94887040       0.72132172      -2.44173676       0.39200815
O       10.65720929      12.74704183       9.73085426      -0.39296138       0.17143873      -1.53171403      -1.40243472
O       11.62914319      15.55126204       9.69292826      -0.47852013       2.90417577       1.00758730       3.86585030
O       15.93023757      13.09807259       8.69369275      -0.36646793       2.42724672      -0.91921963       2.73211835
Si      11.08868833      14.19510580       8.84629638       0.94751257      -1.16455941      -0.86204776       0.64980676
Si      15.46053732      11.69821418       7.85535971       0.79608344       3.08385902      -2.74545849      -2.52790760
O       13.44720215      19.53994072      12.47428367      -0.44388203      -2.44215681      -1.16227236       1.87957152
Si      10.46732452       0.61744883      11.30274560       0.56313358       5.48058527       2.33675558       1.96092239
O       13.05499330       1.91313199      10.18912206      -0.45985888       1.08981301       2.96391733       1.63124974
O       15.05809865       4.73053453       9.35383805      -0.42814457      -0.78558987      -4.17502233       0.84419511
O       10.85644366       0.51974176       9.59679726      -0.38295921      -1.31999068      -2.94342955      -2.37770898
Si      11.93310718       1.66385160       8.82968131       0.92764332       0.81607245      -0.50665583       1.37148180
O       11.14318622       3.04812914       8.34318582      -0.44772188      -3.58095560       0.44397148      -0.21603663
Si      11.52706602       4.66399141       7.92700474       0.90353062      -1.71555047       0.58309060      -1.20380494
Si      16.64669813       0.75290557      13.09842277       0.92912620      -1.52719999       3.61914778       0.03707944
O       16.27830793      17.80418116      11.80550581      -0.46133793      -1.21027083      -0.65760296       0.48310995
O       15.33190021       1.42055699      11.92248132      -0.45106890       1.08357789       3.78601953      -0.45923922
O       19.36546380      18.94711859      10.60238162      -0.32900302       0.83016424       2.40985134       0.91222362
Si      13.97405019       0.76926867      11.17032582       0.85853518      -2.68248998      -0.56997094       1.11673174
Si      17.72854017      18.05838170      10.53645347       0.85816765      -2.44953161       2.40833663       3.19213308
O       14.62033288      19.57995739      10.20190858      -0.44852466       4.12446290       0.97259330      -2.30719400
O       18.25499577      16.47739863      10.34829785      -0.42994318       1.65406480      -0.77232767       3.11307180
Si      14.01398225      18.07393160       9.86660433       0.93849485       0.62612558      -2.49140550       1.78986319
Si      18.33447850      15.22919803       9.26111578       0.92228978       2.95458914      -1.34846553      -1.40709201
O       17.42313420      18.39327553       8.85739050      -0.46314728       3.62212817       0.62380341      -0.02244873
O       14.87467324      17.61586750       8.52281791      -0.46430415      -1.15725772      -4.74408794      -2.89432796
Si      16.13863742      18.42896829       7.78674584       0.95799439       0.76127112       0.90424756      -2.50614421
Si      16.21093267       4.71657927       8.16376142       0.87808962       2.80648801      -0.60505198      -0.17649454
O       15.68246316       0.08264542       7.91379762      -0.47558077      -2.69270787      -0.22557204       2.32961978
O       16.26425206       2.86591471       8.35562990      -0.47641295       0.00864850      -0.18376106       2.33628617
Si      16.21276007       1.52321845       7.24058889       0.89923586       1.11362329       1.46951932       0.27591426
O       10.51129748      17.39517906       7.84030724      -0.46345446       3.49557090       1.89052583      -2.89340632
O        7.88058924      16.43624253       8.16302222      -0.45295297      -1.64391939      -2.90515324       4.22589501
Si       9.00985602      17.19056456       7.18542957       0.97710797      -0.31058525      -1.29375415       0.10926230
O        8.33087400      18.67129321       6.89685053      -0.48912841      -4.09045202       0.17842489      -0.14255924
O        9.45065391      16.47498424       5.73929692      -0.48871482      -0.26894650      -4.42456475      -2.61399977
O        7.67899330       0.70483047       5.33195195      -0.45837179       1.43209997      -3.28184369      -1.75567803
O        9.09279589      18.39304828       4.03979354      -0.48491968       1.07493036       5.04759144       2.66545411
O        7.95662217      19.31795232       1.95474723      -0.45638213       0.06178165       0.69036234      -4.12906315
O       14.84251033      14.69054222       6.64011994      -0.43332391       2.95734957       0.34555142      -4.39645328
O        9.74079764      14.69364730       7.96895835      -0.42944017      -3.86533314       1.13816092      -2.21239733
O       13.88893646      12.17873273       7.52722928      -0.41924574      -0.05656197       3.22742887       1.94460461
O       12.28129841      13.94482415       7.67473533      -0.44017277       2.57926552      -2.30092077      -1.49817088
Si      12.55613930      11.58441968       6.69481510       0.82219423      -2.73836484      -0.06564020      -0.18180889
Si      13.19370236      14.59961141       6.29319910       0.89293533      -2.57746261      -0.62351169      -1.00291665
O       12.75127952      16.29168906       6.40324626      -0.45357284      -2.10469821      -1.01211664       3.36750094
O       13.56955956      10.98390358       5.32270208      -0.33259873       0.60760550      -3.74829331      -0.09078073
O       13.17370850      13.58732392       4.76321324      -0.46331960      -0.57953423      -1.30824786      -2.04745164
O       11.71205523      17.98305405       4.68171754      -0.44089360      -0.39495332       4.09604241      -1.99284318
Si      10.26065083      17.26527694       4.39726126       0.91695770      -0.32631983      -3.03550928       0.53746019
O       10.38485165      16.02435468       3.16115762      -0.43067228       4.96413030      -0.53401521      -0.49816058
O       10.01863182      12.68409411       1.87851957      -0.37124309      -3.65428105       1.70686384      -2.76789193
O       12.63970598       0.91785366       7.52994095      -0.44774296       0.67330068      -2.06713327      -0.65081954
O       15.51779546       5.03853232       6.60965638      -0.49350275       4.76294406       1.22024349      -1.43504948
O       13.11950668       4.85162814       7.50880069      -0.45753616       2.64661233      -0.11367309       3.37614407
Si      13.94875697       4.95319768       5.99691180       0.89375120      -1.22775523      -0.24122216       0.12231847
O        8.42944422       1.06234453       8.30806015      -0.39171669       1.81698024       2.21068288       1.47535818
O       13.44064164       6.22960222       5.02425762      -0.30274135      -1.51291910       4.35163230      -2.22290530
Si       8.68855508       0.26024907       6.69333025       0.91242008      -1.78183573       2.49278833      -0.15413244
O       12.25209900       1.44082176       4.70737117      -0.39345610       1.62146857       2.19893733      -1.25205129
O       13.51261320       3.54965104       5.18634791      -0.43751405      -0.93932918      -4.14196347      -2.27800816
O       10.22008222       0.39097056       5.98211769      -0.41977158       3.98477583      -0.29704896       0.70829102
Si      10.64762223       0.80625994       4.31473557       0.85869117      -1.24056621      -0.72500597      -0.96995618
O        9.21406539       1.63477097       3.48205473      -0.43647190      -1.00298048       2.41326849       0.79619883
O       11.02611142      19.72101197       2.89285777      -0.45456282      -0.05037558      -3.52614281       1.31901959
O       12.52702405       5.46967365       2.29338167      -0.36263710      -4.24123009      -1.97673728       3.32196615
Si       8.25738313       1.04606138       1.97919695       0.79184684      -0.29054921      -0.01989879       0.91451546
O        9.65942254       1.09825684       0.80385136      -0.37515436      -1.07182417       1.71688659      -2.77866787
O       16.48533137      17.74191378       6.23253874      -0.47662497      -1.44498840      -1.25963572      -0.36994409
O       15.06982650       1.65759517       5.98517626      -0.40962094      -1.36551105       1.69425098      -4.35213698
O       19.11164297      17.82525854       5.22083146      -0.40818094       1.59268841      -1.48206386      -1.33393956
O       17.93856673       1.28860458       6.96418885      -0.45375501       1.41780211      -2.25004595      -3.05339900
Si      13.42098295       0.89117917       5.99452145       0.90417843      -0.29019763      -0.28730664      -0.53039505
Si      17.43867721      17.62567386       4.75210085       0.89327555       0.08267889      -2.10805295       1.99229426
O       13.73134528      19.12071850       6.17260666      -0.47960641       1.81527866       0.14528827       2.30458647
O       17.00517299      16.09053065       3.72427540      -0.36840246      -0.06362558       1.83859633      -2.70293467
Si      13.11884533      17.64067736       5.48591240       0.95362465       0.74344555       1.53196107       1.54881008
O       16.59616615      18.65132181       3.66915133      -0.41120519       0.34300232       3.31961286      -2.46551089
O       14.28719770      17.15060593       4.39605114      -0.46502682       2.29425275      -4.79676981      -0.35809168
Si      14.93252752      18.11161055       3.18299685       0.86535230      -0.39838766       1.50811818      -3.08121390
O       13.94293882      19.61814475       3.76237428      -0.42278369      -0.42684964      -1.95134006       2.88349131
O       15.25556732       1.93699704       2.36631773      -0.44369534       3.61109044       2.01958514       2.25571429
Si      13.97043313       0.89116366       2.65668041       0.85777434      -1.59976138      -0.36450537      -2.15912913
O       12.53153406       1.57306817       1.92410864      -0.47297697      -0.23466608       4.23516721      -0.24636676
Si      11.23328777       0.50347218       1.32490606       0.88690893      -0.42806719       0.51292899       1.13685578
O       12.21496158      19.62149998       0.24963660      -0.44526507       0.44063778      -2.49053861      -2.97577261
O       18.12838972      13.14498387       7.66541602      -0.41228829      -1.46743705      -1.76521168       2.88149218
O       15.96972270      11.38083759       6.00076612      -0.36914961       0.38402388      -3.00008698       1.40676131
Si      16.16877840       9.43651850       6.31860299       0.76259205      -2.15142595       5.92746900       1.14402186
O       16.26744506      10.00954998       8.15312253      -0.36818662       0.29936143      -0.30640374       0.24611680
O       17.74610786       9.03908471       5.88133417      -0.36701379       1.62242691       2.39630846       1.45852140
O        0.32583081      13.48434894       6.18360191      -0.47050846       4.44764696       1.06545602      -0.67857845
O       19.60786519      11.19682992       7.83124492      -0.45078325      -0.51592607       1.24975524       0.65695051
Si       0.43326233      11.66432029       6.41411402       0.94658467      -1.60802294       1.96036885       1.65771947
O       19.61480227      11.09063972       5.10392321      -0.40168983      -2.97633127      -1.39633970       0.69710425
O        2.08112855      11.60525461       6.48460769      -0.47850389       1.32879373      -4.25262756       0.38290223
O       19.19560199       8.95482049       3.62028118      -0.41977480       0.79761766      -0.21945092      -2.45994444
O       17.78832031      15.42775491       5.99788842      -0.46471377      -2.83445039       1.90599436      -2.12163787
Si      18.72326524      14.00915054       6.34754661       0.80515663      -1.34874126      -0.93830191      -2.04575397
Si       0.99274883      18.54809009       9.66307622       0.74773487      -0.07833473      -3.88117401       2.35005244
O        0.07400188      14.63486380       8.76785036      -0.46494245       1.42153850       0.92129709      -1.99601385
Si       1.36219580      13.53835845       9.60305619       0.88532980      -3.44147045       1.56720113      -2.85706543
O        2.65478501      17.63932102       9.27818473      -0.41823144       1.09754571       2.41076226      -0.44642157
O        1.86595863      11.98914630       9.23599209      -0.49054902       2.34229615      -0.46148898      -1.61476695
O        4.60883567      17.64217177      11.12981350      -0.43650550      -3.27212418       0.31823239      -1.17956564
O        2.55005275      14.67315008       9.99357425      -0.39233170       2.42596814       0.48252105       2.90047253
Si       3.11345813      15.93170255       8.88046625       0.89113905      -0.68098700       1.91858100      -0.10483780
O        2.30273791      15.69173821       7.35703609      -0.45990959      -3.31442605      -0.30337152       2.29460838
O        4.80704915      15.55221836       8.59880618      -0.44652756       0.55819327      -2.57468447       1.51620224
O        3.06111844      13.97344257       5.42668241      -0.47450002       0.03066878       0.79057322      -4.02492424
O        5.66736717      17.95699061       8.41563324      -0.41675956      -1.41408823       3.50815744      -1.03204326
Si       3.36032692      12.65360167       6.38446459       0.94167350       0.65968477       1.73177905       2.45094304
Si       6.10574949      16.40052565       7.75184435       0.87047995       0.92082287       0.49966239       0.32819946
O        5.53050912      14.08644990      10.79211976      -0.42163089      -1.52886923       0.00669694       1.36971819
O        3.69855261      13.16158588       8.06193826      -0.46660437      -1.76864612       1.49436952       1.44130330
Si       5.05641468      13.08487525       9.26366805       0.70497736      -0.26224580      -0.81129057       1.54327843
O       17.93442971      13.13692545       4.81200184      -0.41622876       0.18824439       0.57758691       0.28350063
O       19.61420186      14.56783140       3.38757217      -0.37515087      -2.46508875      -0.96045392       4.34362147
O       18.58930816      12.13193910       2.59067943      -0.36156187      -2.04712308      -1.60568134      -0.38007239
Si      19.65312122      10.81689240       3.47812182       0.85654159      -1.35438614      -0.91491449      -1.80796710
O        2.06958727      14.35873559       2.66486682      -0.49033056       3.39550500      -0.69533175      -1.67719116
O        1.30119989      11.26940122       3.05634513      -0.42664078       1.48373253      -1.91798708       0.38470061
Si       2.18824660      12.59673656       2.34803187       0.91213985      -1.81545727       1.24006971       1.84008798
O        2.08779290      12.40797998       0.68621701      -0.47590957      -2.02510702      -1.73986053      -1.33439885
Si       2.67370859      12.78297305      19.13140388       0.89941276       1.83276628       2.07185062       1.05418710
O        0.08874945      18.75657656       7.99098698      -0.41091977      -1.36724894      -0.10746763       1.02044709
Si       0.14065337      18.88352412       6.16550844       0.86088349      -1.55681007       1.11495023       1.36899786
O        1.20551977      19.36617519       2.62605618      -0.35392867       2.95015428      -0.21971331       0.93717724
Si       0.52272955      18.23633707       1.49269942       0.90271790      -0.04021515       0.85514367      -1.13678013
O        1.75305430      18.57424446       5.79519253      -0.46068128       1.19977523      -3.63286654      -0.71913239
O        0.39510926      16.71391222       2.16926521      -0.46452145      -1.74814557      -1.74067290      -0.27432753
Si       0.99395416      15.50640855       3.24643378       0.96281981       0.51468000       1.51235671      -1.56297296
Si       3.06275357      19.65104270       5.47390755       0.91271614      -1.43307005       2.33392654      -0.24689641
O        1.52890395      16.07183345       4.69067666      -0.42573521      -2.76337173       3.98221789       1.72711082
Si       2.73178344      15.66098726       5.75032443       0.96657010       1.20930988      -1.49727687       0.06747861
O        3.90739244      18.97493652       4.21713435      -0.44047454      -0.00155805       2.53089697      -3.76828416
O        4.13182621      16.54312310       5.50139464      -0.49332323       4.10753990       1.35504958       2.12876984
Si       4.70649045      17.51176230       4.13898717       0.95184769       1.99584524      -0.88042791       1.27909570
O        4.00093294      16.70133667       2.89320119      -0.48566736      -3.78887584      -2.09205324       1.67355306
O        3.47061865      17.36024789       0.34903375      -0.44792933      -2.72412025       2.96885601      -2.85850608
Si       4.33421504      16.32245090       1.31932000       0.94329760       0.06843287       1.12221724      -1.55519294
O        4.41838542      11.66239799       5.59117185      -0.44882559       2.22468960       2.33025581      -2.43876105
Si       4.73934231      10.04049809       5.67008065       0.95085881      -0.88724416      -1.44117294       0.82242151
O        4.18036565       9.32396147       4.27317668      -0.45750940      -3.30294917      -1.49238001      -1.87206403
O        6.38114534      10.06862839       5.46825450      -0.42986751       2.56642120       0.22537806       3.51577909
O        7.23262612       8.43824003       3.09192485      -0.40735512      -2.85134200       0.45819324      -0.26706783
O        6.41848509      15.52453375       6.27042667      -0.39607573      -0.28839205       0.85268051      -3.51201367
O        6.25936550      13.50484662       8.19603362      -0.40273220       2.19609844       0.01848022       0.59747036
Si       6.77303525      13.78849994       6.56818972       0.86857500       1.12627685       1.42630500       1.21907806
O        6.23797032      13.13531335       5.12744579      -0.44160379      -4.50203902      -1.63361303       0.45735153
O        8.25203750      12.87810854       6.87393500      -0.33675852       2.53127774      -1.03965464       0.26687934
O        7.28984132      11.41461313       3.22792355      -0.47881709       0.22176084      -1.06613751      -3.21633509
Si       7.42483042       9.93258212       4.17450979       0.92041659       1.73823675      -0.78579386      -1.83605495
O        8.88852139      10.29107179       4.96343191      -0.42166280      -0.52207639       1.28033506      -1.03296314
O       11.13856876      12.40878709       5.80773905      -0.35585878      -0.49390426      -0.99336891      -0.40768161
O       10.77008835      10.47104013       3.42634375      -0.36857086      -2.07558667       0.02780048       2.43537969
O        3.86097361      12.41482248       2.53827187      -0.47660782       2.32282919      -2.28166690       2.88513546
O        3.75450884      13.91257178      18.33200935      -0.45227585       3.20814576      -0.81386752       0.20168268
O        3.10725519       8.24885050       2.32799222      -0.38728736      -3.40763958      -0.38554934      -2.06934283
Si       4.67978085       8.83890110       2.67069470       0.59458212       3.93974891      -3.27046271       0.11002749
O        5.33174424      12.32390189       0.21405353      -0.43755874       0.09238314       1.28401462      -5.18460534
O        5.19544359      10.20969213       1.87260380      -0.37918362      -0.09155253       3.54420523       1.17458630
Si       5.75606553      10.70167806       0.29485941       0.88856565       0.09462483      -2.91067424      -0.82112789
O        6.34398888      18.00783001       4.03611951      -0.46078057      -1.47964014       0.62357575       3.78638442
O        4.10624222      14.72004848       0.96449694      -0.44982956      -3.72381164      -1.39084982      -3.36622058
O        5.95556230      16.70404679       1.09285741      -0.50927467       5.12758198      -0.10460425       2.38862311
Si       4.89282557      13.36132079       1.43494280       0.93285259      -1.44025738      -1.75185512       1.98475248
Si       7.72132130      18.16290104       3.12614592       0.98601775      -0.76175939       0.64130550       0.18243906
Si       6.66785868      17.36951367      19.62640459       0.88412282       0.13481663      -0.40494044      -0.03832253
O        6.11713753      13.77521965       2.44472164      -0.47124145       1.94712129       4.20373938      -0.48504739
O        5.42487132      18.51620273      19.37617552      -0.35054077      -3.92463850       2.43154234      -0.81267929
Si       7.00841111      13.07416446       3.65032486       0.94642995       2.89040235      -1.13036969      -0.09845098
O        7.94821379      16.68465847       2.44228930      -0.50873308      -3.12721152      -0.97373452      -3.47740002
O        7.98903527      18.48081241      19.33090461      -0.33575704       2.69717240       1.01701022       1.54112323
O        8.36496230      14.16228169       3.77041805      -0.47276439       1.57811641      -0.63944749       3.04664002
Si       8.91983697      15.37395717       2.65618034       0.96242729      -0.19072950      -1.11925500       2.10769530
O        8.81756274      14.64626600       1.18740937      -0.42926215       0.84629319      -3.55761995       0.61943969
O        7.15305933      15.79582992      18.93912268      -0.38219320      -3.20854873       0.19689848      -3.73292494
Si       8.31337218      14.82730806      19.64712925       0.88027693       1.78689331       1.82026604      -1.48638929
O        8.12553662      13.12128926      19.33371207      -0.35407012       0.15337153      -0.49341733       3.20500475
Si       9.06407640      11.46483941       0.39637917       0.59074934       0.52935984       2.40969610       1.22020660
O        9.91266288      10.19887162       1.10348422      -0.45285775       2.50948356      -2.33386695       0.83267237
Si      11.24661977      11.63989517       2.36195763       0.72923839       1.61629908       1.42310141       1.11588877
O       12.67172421       6.28255179      19.70628106      -0.46682508      -1.72982865      -2.02137150      -0.77506254
Si      11.53132407       6.56825566       1.22449474       0.66379797       1.83296822       0.10521222       0.26552363
O       10.89722650       8.10306390       0.51305963      -0.36851155      -2.35044343       2.29800217      -0.24014819
Si       9.61157250       7.62817514      18.55732465       0.46379339       2.65012126       1.47134726       0.14875634
O        8.12188503       7.27820404      17.82524716      -0.33148462      -1.32404277      -2.03181672      -1.21922972
Si       9.87553681      12.07634965      15.49500862       0.93682130      -0.89597157      -2.12078303       2.80007177
O        7.48864363      10.58281941       0.49894471      -0.40166620       1.50062064      -1.21607840       0.08013911
O        8.91465227      11.65228328      16.99293360      -0.51658953       2.68939390      -2.94779441      -0.82919117
Si       7.70655169      12.35675898      17.90705573       0.90496536      -0.95316076       1.63589773      -2.20396269
O        7.49765892       3.56920095      19.04710672      -0.43667924      -2.38868503      -0.22433033      -1.74575000
Si       8.47735792       4.42402823       0.32450357       0.58412606       3.73459887       3.81273562      -0.71534380
O        8.37262660       6.36517229       0.70064366      -0.41228726      -0.24003005       0.84937451       0.32281856
O        4.25310495       5.13798968      17.37965215      -0.43727813      -2.42526896      -0.05233029       1.32100952
O        5.87666414       6.53648303      15.86381118      -0.42944446       2.09238064       0.05935601      -2.67991866
Si       6.47947583       7.55106262      17.21452307       0.88611385       1.23509008       0.51323739      -0.29341371
O        5.62235344       7.01431628      18.61001560      -0.37586647       1.16561179      -2.23732831       0.57185895
Si       4.41507074       7.71765392      19.57811072       0.52770559      -1.38626277       0.22670154       4.71775675
Si       4.36014603       5.51243857      15.75268523       0.85871604      -2.30572351       2.71202151      -1.03144109
O        4.77567116       4.16383903      14.90132309      -0.47967666       0.08990511       1.47644851      -3.76235976
Si       2.87778446       4.99649313      12.92450360       0.82323954      -5.95176433       0.32441934      -3.07087148
O        9.77396674      13.48841110      14.60350199      -0.38469968      -0.70470774       2.92300307       3.07360366
O        5.73718238       9.02632621      16.74084049      -0.41604102      -2.31128168      -1.55489459      -0.16217562
O        6.47758936      11.22825681      17.87525342      -0.45420867      -2.29471246      -2.46090657       3.76899050
Si       5.93707562      10.63529797      16.31309834       0.93020140      -0.06104810       1.19969418      -1.27755631
O        7.10960109      10.91204768      15.04631430      -0.49956279       2.32930552      -1.79155985       0.03447026
O        9.46682740      14.57570369      16.77524847      -0.58528271       0.73918314      -0.43605268      -0.41870787
O        4.58512530      11.66993984      16.00148774      -0.45296780       0.75958349       3.05654403      -2.52167440
O        7.26380832      13.58285347      14.38985322      -0.49412109      -0.61956557       2.98816340      -0.59740955
Si       7.90887190      14.38326722      15.84605581       0.91003421       2.13805524       0.04276356      -1.20098884
O        6.97618856      13.66716794      17.05090195      -0.45073893      -3.67278586       0.92553793       1.24218097
O        7.30965143      15.92085820      15.56034555      -0.38211561      -2.85695854       2.35904241       0.66089023
O        1.77814775      12.58523226      15.87564058      -0.47182020      -0.02330952       2.33336062      -0.85369081
O        3.46135752      15.67736714      13.10578220      -0.44563201       1.17423241      -1.74460553      -1.95175025
O        4.83177237       9.49326451      19.29494363      -0.39419391      -0.90911301       1.03059086      -2.64416855
O        2.84687325       6.88525238      18.95824826      -0.33358133      -2.10163072      -0.10315038      -1.69091181
O        1.53096945       7.50149959      16.80813479      -0.42740391       0.86396671      -1.57071581       4.65674503
O        2.83107042       9.87422318      16.19818987      -0.49549924       1.08933541      -0.30633894       1.44126067
Si       2.93177016      11.47438899      16.51624488       0.91929574      -0.55312403       1.57748100       1.26265730
O        3.09683845      11.37400287      18.27585934      -0.45976130       1.33033312      -3.69718045       1.07443676
O        6.07740049       8.77330505      13.76519766      -0.49259624       0.88933379       2.78796164       4.14720927
O        8.43138736      11.74632588      12.24705818      -0.58047154       1.04610253      -0.40653562      -1.01419518
Si       7.26266476      12.05154196      13.66058806       0.86557424       2.93701533      -2.46227502      -0.62491832
O        3.93628899      10.10856880      12.87938397      -0.49524486      -3.83439148       1.81404431       0.47257397
O        5.78298720      12.23100868      12.91704819      -0.43064667      -0.78512218       3.59561702       1.06072263
Si       4.65650126      11.42889651      12.05275929       0.95322448      -0.49518239      -2.90507017       1.86779299
O        5.27838345      11.05939766      10.56963707      -0.37305820       4.57740279       1.85553760      -1.12060322
O        3.32135335      12.42198159      11.89477023      -0.43001059       0.21362310       4.03585808      -2.82670358
O        6.06817006      16.08270610      12.95009780      -0.42749210       1.60662763      -0.22296057       3.27165752
Si       4.52756817      17.02073178      12.78027429       0.89830005      -0.39103527       0.89826938      -0.03410243
O        2.83572610       5.74106645      14.62959851      -0.42500228      -1.33220045       1.78361948       2.07674265
O        4.47269628       7.48032031      12.07754784      -0.49866101      -2.12760211       0.34290330      -3.12297350
Si       4.46880108       8.60549153      13.36783197       0.95058923      -0.88273852      -1.07800964      -1.39156019
O        3.67690391       8.05486827      14.71328888      -0.48136375       1.46723366      -3.35235368       2.32449319
Si       2.29149793       8.43851704      15.63498303       0.99411347       0.92373021      -1.45389584      -0.60152070
O        0.08423940       8.01152049      12.22111203      -0.33335168      -0.38680323      -2.53993217      -2.45568470
O        1.07596006       8.74080320      14.59961388      -0.50064348      -2.27274365      -0.62424220       1.26006133
Si       0.42362482       9.35723061      13.23415724       0.94831791       0.63337153      -1.38920815      -2.91449758
O        1.08499061      10.79710845      12.67064515      -0.48165266       1.50851056       2.62355005      -1.44924037
O       18.91343485       9.81743722      13.78105925      -0.39088878      -3.07603597      -1.81579019      -0.39255019
Si       1.78141187      12.34340248      12.47408631       0.92158192      -0.91680188      -2.52134026       0.90865688
O        1.47020844      13.57119009      13.56859691      -0.44760679      -1.71822267       1.34570965       1.95653629
Si      14.50547179      12.47140147       1.27532895       0.46715719       1.72915971      -1.68489594       5.06038482
Si      16.76920446      11.63781478      17.13971111       0.68637322       1.87071692      -2.26599686      -0.05880847
