609
Lattice="20.0 0.0 0.0 0.0 20.0 0.0 0.0 0.0 20.0" Properties=species:S:1:pos:R:3 relative_density=0.96 cell_dim_angstroms="_JSON [20.0, 20.0, 20.0]" n_grains=9 grain_size=12.0 crystalline_fraction=1.0 grain_radius=9.537136187179533 pbc="T T T"
O        5.73380222       7.67972856      11.39050571
Si       3.99502396       3.01951012      11.97648483
O        4.60952237       4.09505663      13.01507056
O        5.21572564       2.29814438      11.17169169
O        6.70441133       5.72645093      12.86815196
O        6.15157719       0.33314099      12.68961877
Si       6.74724314       6.41841443      11.41969342
Si       6.19729368       1.03055305      11.23201046
Si       5.95389092       4.59287812      13.73967769
O        7.00846231       1.42413069      15.77658106
O        8.37500098       1.68563140      19.06322939
O        6.92752769       3.30412455      13.90438225
Si       7.84947255       2.52660866      14.99002044
Si       9.36318528       0.41206153      19.08593827
O        8.43416135       3.61115886      16.05225046
O        7.91239716      18.19942165      15.83622874
O        9.44594745       4.70316613      18.20114470
O        8.90046857      19.31748433      17.98953530
Si       9.80145346       4.07844491      16.75281462
Si       9.26605919      18.67407218      16.55908534
O        8.22798980       6.93188197      11.11603847
Si       9.08591080       8.03230487      10.32673641
O       10.27942175       7.30440208       9.53526027
O        7.70464874       1.54386995      10.91425166
Si       8.54915359       2.63793686      10.11052174
O        9.14931503       3.71832872      11.18693443
O       11.22729454       5.33690516      11.02514410
Si      11.26799605       6.03351483       9.57251398
O       10.80567788       4.95011085       8.48414996
O        9.62289352       7.20229794      14.40084709
O       11.39204078       6.30292310      18.98160064
O       11.32350156       8.19383526      17.15338884
Si      12.24567571       7.43218586      18.20868192
O       12.06917875       6.41831131      14.13677256
O       13.45342258       6.70138382      17.40684145
Si      12.93834429       7.56428100      13.34007439
O       13.53835418       8.61926424      14.37463885
O       14.13930786       6.81664578      12.55426284
O        9.04775235       1.78769857      14.16832227
O       10.55961479       5.22913740      15.88605301
O       10.00810451      19.81858233      15.70158587
O       10.78633190       2.81980634      16.93808472
Si      10.58450189       5.93001995      14.42350237
Si      10.05257981       0.50574280      14.24084267
Si      11.71685402       2.01948000      17.99860532
O       10.10685534       4.82288707      13.33548075
Si      10.48307938       4.21519991      11.92307861
O       11.54654665       1.02591126      13.93352367
O       11.46001580       2.93064356      12.05524224
Si      12.39074922       2.13064372      13.11177012
O       12.99802576       3.21848234      14.19815414
Si      15.14027320       5.53439648      12.58359236
O        8.07115124       5.30559399       7.50887710
O        6.31395962       2.37948451       9.76506108
O        7.55942612       2.03778627       7.49701770
Si       7.64386969       2.14297815       5.89382942
O        6.55061080       7.46305764       7.87051939
Si      10.22440030       8.45162112       2.43992938
Si       7.05638535       6.36065015       6.82060665
O        9.35736659       7.65970198       3.55443481
O        7.79170516       7.12188301       5.61858415
Si       7.88138767       7.21023438       3.99793219
O        4.79371327       7.26307558      10.77919508
O        5.61938740       4.90979796       9.79950439
Si       4.31466356       5.81829696      10.19390701
O        3.48850648       5.02638311      11.32802056
Si       1.99575498       4.56468486      11.74414878
O        6.78332989       8.84535323      10.10510967
Si       6.89768947       8.93384080       8.48888352
O        5.83134864      10.01010339       7.89837537
Si       4.55541847      10.91351197       8.28936447
O        3.72645148      10.09559899       9.43212526
Si       2.21584261       9.64949450       9.85641113
O        9.09003739       3.59875508       3.01043195
O        5.53578201       0.44726886       8.16549567
O        5.76542466       5.53998804       6.27600134
O        6.61036397       3.21776652       5.29529798
Si       5.33312487       4.10303950       5.71850699
O        4.47593693       3.31802544       6.84579488
O        6.79138708       3.81059534       1.77720994
O        4.41186358       4.34965686       4.40722237
O        3.88491230       1.05307026       4.37321334
O        7.54887045       5.75524775       3.40443797
O        6.84217848       8.28587465       3.41036861
Si       8.05646426       4.64785839       2.33522097
O        4.72682046       8.39923636       4.95219082
O        2.90513651       6.49051604       4.74944473
O        4.11776633       6.11919901       2.46181610
O        3.41952752       6.04487617       8.89338952
O        0.93042708       5.66364268      11.18414045
Si      19.65713884       6.55106692      11.55985558
Si       2.96592848       2.84590881       7.26499528
O        1.10277357       6.27154339       7.65581652
O       18.75336995       6.78699670      10.25757552
O        1.93893661       3.92023087       6.69385718
Si       0.65786616       4.83078523       7.07075098
O       19.73643836       5.07585416       5.74952885
O        1.88543721       8.19677161       9.25464931
O        1.17702804      10.73818340       9.26853422
Si       2.38605178       7.09219298       8.19539958
Si       3.22821410       7.94724018       5.37424694
O        0.03662656       9.12437492       6.32243546
O       18.46418937       8.59564089       8.33986037
Si      18.54980362       8.64548243       6.73348039
O       18.22028575       7.20073214       6.10824929
Si      18.72514416       6.11127638       5.06186979
O       13.94734923      12.44000859      13.85040498
Si      15.30626732      13.01974097      13.18590040
O       15.08037790      14.53782366      12.69764626
O       18.12502005       9.93429434      13.33522263
O       16.47404488      12.92720567      14.26585685
Si      19.48012044      10.49082210      12.64955679
O       19.23724443      12.01747647      12.17116451
Si      19.58399269      13.53231049      12.51596543
O       12.69359073       9.45163934      18.23339796
O       15.60306120       9.49402975      13.90306154
O       14.45019016       9.13432216      16.27042722
Si      16.88231398       8.93524765      13.08832479
Si      14.04847375      10.03547230      17.53631946
O       13.80536469      11.57732695      17.06795886
O       12.56221466       8.56257001       1.41942790
O       15.24215377       9.94522803      18.61785549
O       15.51822863      13.55288862      16.67151812
O       14.26810976      10.56179292       1.02905335
Si      16.79275104      13.00387807      15.84121809
Si      15.54029762      10.00784995       0.19703687
O       17.98966926       9.03542670      16.53175196
O       17.14095188      11.49833299      16.37642779
Si      18.34486518      10.56664622      16.90536942
O       12.29391465      15.47123845      14.78351509
O       11.42246572      18.70524416      15.16992499
Si      11.04289643      19.60817261      16.47753952
Si      15.40567912      16.08185607      13.04091340
O       13.87185068      16.53192246      16.61157041
O       12.20879063      19.54944083      17.54148680
O       15.60906990      16.19519053      14.65366606
Si      15.22127408      17.08831288      15.92940383
O       14.97655273      18.61517292      15.46947511
O       14.11317862       1.10003776      15.31532241
Si       8.44020306      18.04169274      16.91322597
O        9.63495719      14.07747385      17.60946969
O        8.77357748      16.57984285      17.43555423
Si       9.97122192      15.59858996      17.95373903
O       11.04790230      12.47326206      19.17106023
O       11.35580391      16.06843058      17.20557856
O       10.19441424      15.74449761      19.53265155
Si      12.60158360      15.52279359      16.38046224
Si      11.36477304      12.53172165       0.73264572
O       12.96378924      14.04457300      16.92450428
Si      14.17301498      13.08543871      17.42938310
Si      12.91278772      10.11607017       1.77605194
O       12.60801351      13.52880318       0.98622993
O       14.38183362      13.22124143      18.98209180
Si      13.97796671      14.08020684       0.31835026
Si      12.53948824      19.59299178      19.14441559
O       13.73188812      15.62409285      19.81591259
O       12.88316532      18.10802270      19.67482915
Si      14.05521028      17.15930265       0.15263041
O       18.07248748      13.99718007      16.09024523
O       19.80168864      13.67865150      14.10258866
O       19.16858441      16.08916855      14.92167280
O        0.59423501      14.48875846      16.48424967
O        2.47864222      16.04276247      14.25484534
O        2.13686207      15.54368472      18.30563163
O        3.90676389      15.22322635      16.32306946
Si       3.50318515      16.10845247      17.63559667
O       16.81002806      10.99945065       0.44975939
O       19.69996416      11.02348042      16.13679751
O       18.53906574      10.69675929      18.48285761
Si      18.14296364      11.58628423      19.76012597
O       17.91724421      13.07416695      19.29789115
O       19.33974614      11.49451997       0.86553525
O       19.60464687      15.10091616      18.89147422
Si       0.88135135      14.54106133      18.06427646
O        1.23534386      13.04108799      18.61357620
O       16.41637576      16.99349675      17.00781388
O       13.79321640       0.60965632      19.35371050
O       15.52193734       0.25697301      17.38922291
Si      19.52637512      17.60384088      15.29161137
O       17.97163563      18.06908614      18.84268374
O       19.70811402      17.72712504      16.87661968
Si      19.33084702      18.62933044      18.15463622
O       15.16172839      14.02668274       1.37026603
O       15.44283570      17.61893216      19.39586741
O       14.26504689      17.28491851       1.74580277
Si      16.69527654      17.04724711      18.60330508
Si      15.47496509      14.08534770       2.98551853
O       17.06935189      15.59664084      19.14145950
O       15.83101663      12.61640692       3.52672365
Si      18.26833787      14.62132504      19.63614300
O       16.73693139      15.09446475       3.20425161
O       18.47851112      14.77734091       1.23541918
Si      18.08129379      15.65392067       2.51891005
O       17.82957772      17.19507698       2.03580267
O        2.57023140       7.38166377       0.35338836
O        0.75632543       8.26716559       2.06595022
Si       1.02019504       7.46127197       0.68741724
O        0.25089415       8.22894996      19.48096810
O        0.42995461       5.96208944       0.85414360
O       17.69230976       8.14154308      18.67361979
Si      16.72272352       8.18210713      19.97964887
O       18.09587141       6.41172983       3.52769403
O       17.42046488       7.33125225       1.17455185
Si      17.12094131       6.16489885       2.26640702
O        6.49832910       3.63503703       0.71766366
Si       4.89862757       3.71069539       1.06623966
O        4.15247397       4.46567270      19.86904234
O        4.35751087       2.21681969       1.24362814
O        1.60900639       4.38140481      19.06662963
O        5.53899942       0.62904820      19.43008097
Si       0.64871597       4.44542470       0.35719602
Si       4.57771046       0.68060546       0.71301117
O        1.98615538       2.66374078       3.88172318
O        1.32421029       3.57714891       1.54074625
Si       1.02039743       2.43375906       2.62600371
O       19.56772287       9.15248883      17.12734858
Si      19.26345567       8.03606458      18.24455509
O        1.33463888       5.65125641      15.91983322
O       19.52728062       6.55165301      17.63869658
Si      19.78642279       5.74217296      16.25321225
O       19.01574082       6.52667772      15.04730188
O       18.31207370       7.41601355      12.69097715
Si      18.01739572       6.29373895      13.78091577
O        3.46383890       5.38587160      17.48673345
Si       3.15870766       4.27277394      18.60492788
Si       7.07644040       0.51280135      18.97240002
O        5.25272372       1.89869925      16.28841578
O        3.44019116       2.80169053      18.00448980
O        7.33890421      19.04199689      18.37031805
Si       3.66622022       1.97684631      16.61365510
O        2.92068964       2.75653955      15.43610150
O        2.22066667       3.67685021      13.05318332
Si       1.93730468       2.56610580      14.15632688
O       15.30344600       7.57917931      19.57885856
O       19.22448406       3.82781914      19.95405323
O       15.56642492       6.31177503       2.70910929
O       17.39147192       4.72379486       1.65226297
Si      14.59594337       6.35993778       4.00645958
Si      13.74381084       7.66649590      19.89657584
Si      17.63279492       3.91919544       0.29035058
O       16.85058249       4.69144197      19.07706080
O       17.08023525       2.01181928       3.97011196
O       13.14427399       6.18624773       0.06350910
O       17.07293947       2.39270766       0.43856898
O       14.34376802       4.57548309      18.28039371
Si      13.37875191       4.62951277      19.56292287
O       14.03885613       3.76940923       0.74066248
O       15.82500929       0.27447612      19.53572182
O       14.00695196       1.15490825       1.23924493
O        3.11568040       0.09098736       0.32850031
O       19.47442298       2.56594457       3.07095922
O        1.28746117       0.94590021       2.02133354
Si       1.52254330       0.15147737       0.65282751
O        0.77189124       0.94657765      19.46003207
O        0.96535939      18.66415657       0.79237822
O       18.25960042       0.82136114      18.65628264
Si      17.27804102       0.88403928      19.93175579
O       17.93418816       0.02227302       1.12449517
O       15.29262580       8.00014091      16.04376364
O       19.19733538       4.24994079      16.41366926
O       16.47794085       6.43438977      14.25259109
O       16.17653587       5.59847036      16.72119025
Si      15.89293021       4.47323010      17.82077891
O       17.97599605       2.09966865      15.51973890
O       16.16173979       3.01430920      17.22614752
Si      16.38992589       2.19044458      15.83947901
O       15.63495550       2.97985692      14.62533900
O        3.11602359       0.48930350      16.78394778
O        0.39070773       2.66341707      14.63089968
O        4.29425479      18.91559240      14.99392067
Si      19.40970542       2.71996029      15.91400260
Si       3.30822531      18.96115592      16.27573018
O        3.99729968      18.09305562      17.44566533
Si      19.79332270       0.72869312      18.18983078
O        1.88406096      18.34998955      15.88233117
O        0.05234939      19.25395386      17.58384810
O       16.24195271      17.64821169       5.57215306
O       15.02627558      17.24313138       7.85733588
O       16.51653358      18.05348481       2.98271931
Si      16.95451592      17.14127521       4.23174458
O       16.10652684      14.27928159       6.13590375
O       14.26802795      14.30752403       4.25079155
Si      13.06496852      15.20402109       3.73748491
O       13.38285505      16.74768021       4.14154017
O       11.69228507      14.71665527       4.41438501
O       12.95855704      18.08132023       6.40257965
Si      13.42974766      17.17883783       7.63460537
Si      10.10209046      14.62267590       4.19257450
O       12.99977140      15.63861292       7.31413572
O       15.41783827       1.00962951       4.71487802
O       14.86700663       4.37885830       4.81387241
Si      13.68247296       5.28101800       4.28646328
O       13.11600229       1.41558056       5.84053891
O       12.28527243       4.78289194       4.96445583
O       14.46691962       0.63109264       7.95694421
Si      13.27157789       1.52929241       7.44386883
O       13.57556282       3.07365660       7.85038453
Si      12.92251928       4.39520650       8.52295910
Si      13.10870876       1.82016792       1.64789733
O       12.07393775      18.48259950       1.27655366
O       13.36171350       1.83032871       3.27642047
O       10.03099882      19.29435784      19.80699296
O       11.55230378       1.83156816       1.36561218
Si      13.82028961       0.92236146       4.49704477
Si      10.48508138      18.38100350       1.07055497
Si      10.32420831       2.76096359       0.83941823
O       13.40820381      19.38811946       4.16836697
O       10.08461830      16.86399556       0.70768820
O       10.63821224       4.28748546       1.25504153
Si      12.71847373      18.07512367       4.79742304
O        9.77547264      18.89202517       2.39856535
O        8.94893245       2.25624422       1.53309708
O       11.12575350      18.08938538       4.52991448
Si       9.93054628      18.98413861       3.98157459
Si      10.66863554       4.67865556       4.77594831
O       10.24279517       0.51961936       4.38708836
O       10.27809514       3.16644704       4.44363831
Si       9.60013819       1.83975544       5.06842879
O       12.68752665      17.67362274       8.98295094
O       14.06888017      16.86459685      11.09878553
Si      12.85311039      17.77383952      10.60267979
O       13.18434289      19.33400636      11.00855041
O       11.48397409      17.27034963      11.26422997
O       12.76211924       0.62624246      13.27316941
O        9.15583761      17.68200746      12.39204143
Si       9.32170785      17.81413269      14.00097420
O        9.63219043      19.33757417      14.40411579
O        7.94459372      17.30084713      14.67721784
O        9.36056439      15.13740497       5.53741988
Si       9.51811701      15.24466423       7.12016698
O        9.85396656      16.78361904       7.55227465
O        9.44384120      18.11054349       9.81782093
Si       9.89334769      17.19743357      11.05692326
O        6.27575046      16.78120579      10.96978724
O       11.88490971       1.03847594       8.12635964
O       13.22405455       1.93271256      11.04437279
Si      12.49756910       0.62894863      11.65466066
O        9.55583036       1.44973425       9.24502435
O       10.93442203       0.61431190      11.35322728
Si       9.71342922       1.55964290      10.85357027
O        8.53277765      18.50755575       4.67309070
O        9.84441637       1.86029546       6.67647236
Si      10.29403909       0.92907893       7.90352846
Si       6.96054724      18.39180304       4.43440136
O        9.88235507      19.40487035       7.59105015
Si       9.18992057      18.11298523       8.20008212
O        6.23621960      18.91731393       5.79334846
O        7.58223605      18.09395571       7.91686833
Si       6.37798060      19.01258078       7.39194531
O        6.68297569       0.55528024       7.81337442
O        6.35037099      19.41430490      11.00782284
O       17.23961594       9.79415205       3.09772898
O       19.53127867      10.88724631       3.62790182
O        0.16848277       8.29734340       3.87679989
Si       0.71799958       9.75421837       3.50518224
O        1.23671779       9.67155634       1.97016612
O        1.90431364      10.16278430       4.49264685
O        3.56437712       8.91463483       0.94525451
Si       4.01978560       7.53309416       1.64674175
Si      17.94482447      11.04636058       3.80180035
O       17.54151863      11.10486473       5.35002145
Si      18.10201704      10.84034352       6.84394896
O       19.18909252       9.65534974       6.77655857
O       18.77272067      12.16909924       7.43589129
Si      19.35075181      13.64297203       7.04198071
O       19.88287550      13.58144544       5.51837245
O        2.21253834      12.78963695       4.49555570
Si       2.63589565      11.42227908       5.19400563
O        2.22923857      11.48447276       6.76744315
Si       2.78532446      11.19405490       8.25707516
O        0.21995487      12.94144531       0.81573919
O        1.92856367      10.38384497      19.53333424
Si       2.46143753      10.10032676       1.02527188
O        2.55872247      14.01825424       1.36653205
O        3.18737354      11.45061887       1.62168269
Si       3.74065499      12.89474725       1.22601009
O        4.25837717      12.84363730      19.69167730
Si       5.49955315      13.24205026      18.72697933
Si       0.97746553      14.19991047       1.52274257
O        0.55856444      14.26258628       3.07218750
Si       1.10469225      13.97557473       4.58567266
O        1.18117981      17.90133071       4.88744851
O        1.79338715      15.32878588       5.17621611
Si       2.36335673      16.76734541       4.78337559
Si       3.97479432      17.34527795      19.23547005
O        2.90664663      16.72807454       3.26206537
O        3.57401873      17.39722751       0.79156621
Si       4.12818474      17.14492896       2.30126749
O        4.23027832      11.22129191       5.03211012
Si       5.40561954      10.12349609       4.91228223
O        5.94501633      10.06854160       3.37575206
O        6.60146082      10.50785164       5.91716149
O        8.26538646       9.27293489       2.35447516
O        2.86984770      15.10045200       8.59790866
O        3.47291183      12.54884910       8.86388523
Si       4.02133930      13.98578531       8.46098973
O        4.56717657      13.93121203       6.91758212
O        5.22787756      14.39145056       9.47170608
O        6.89336655      13.14586155       5.92507806
O        5.51597179      17.04192177       9.46247617
O        4.91802198      13.30181439       2.23696516
O        5.57870747      17.14337219      19.08742294
O        6.18112856      14.57288446      19.33187553
Si       6.75763087      16.06224888      18.94669342
O        6.61930691      10.74379289       0.92973355
O        7.27802546      16.00014549      17.42282083
Si       7.17469114      10.46898959       2.44322032
O        7.24400876      14.36750406       2.77888488
O        7.94110795      16.47231347      19.96477736
O        7.87642437      11.80960089       3.02810952
Si       8.43107457      13.25310900       2.62262302
O        8.95764931      13.22053011       1.12629695
Si      10.19227630      13.61885704       0.15980723
O        9.62164851      13.67423309       3.64455606
O        3.56019692      17.18929555       5.79106061
O        5.22602411      15.94895220       2.24774308
O        4.80937342      18.47986245       2.89928594
Si       5.64494777      14.55940361       2.93270492
Si       4.27757934      18.43431205       6.45739771
Si       5.39205551      19.92035739       2.50179956
O        5.26214853      14.62028776       4.47942931
Si       5.78339435      14.35559360       5.99081590
O        6.49087717      15.65895365       6.58867108
O        8.23002767      19.09319113      19.95059141
Si       8.65527170      17.69909592       0.66530842
O        7.59454855      17.08295036       4.65806360
O        8.25034748      17.77850794       2.21556604
O        3.17996572       6.32129091      16.73998687
O        2.54090038       4.73591163      13.02543936
O        3.01745624      10.19508712      18.15000679
O        4.21701665       8.73009994      16.29448485
Si       4.51501930       7.24946583      16.86278866
O        5.26222629       6.89560253       0.98402051
O        4.91392875       7.39439617      18.43159186
Si       5.98101437       6.91458678      19.52193652
Si      19.32286516       9.66176434      13.59265286
O       19.05512500       9.49559301      12.01612983
O        0.92671630       9.64866803      13.90473380
O        0.94860699       6.68957304      12.28478957
Si       2.01821704       6.22007452      13.40872126
O        3.44694249       9.85278691      13.18012362
O        3.26087485       7.24134873      13.46241748
Si       3.98576937       8.43946708      12.70013769
O        1.97894693      12.02698569      13.44503783
Si       2.23281662      10.55224861      14.02178819
Si       3.94500308      14.53643898      17.28141361
O        2.63461021      10.68722626      15.58598423
Si       3.71060649      10.20970362      16.68960920
O        5.11597159      13.86112443      16.45143899
O        4.99934423      15.69631726      13.41310790
O        4.94705527      11.21421063      16.74844670
Si       5.71063371      12.43677234      15.96338126
O        5.42108843      12.26851429      14.39018789
O        5.03442755      12.75953657      11.81097085
O        6.74858813      16.74269321      15.09047853
Si       6.13406158      12.26408368      12.92519838
Si       7.80831917      16.26190137      16.21502351
O        5.70302316       6.55465185      16.04155542
O        5.55033531       3.92311425      16.32173067
Si       6.27754995       5.14140506      15.52464960
O        7.96751641       3.25165579      18.88884778
O        7.38629595      10.55244984      19.31498866
O        6.49651761       5.43227358      19.12688602
O        7.24806112       7.92673667      19.57210730
Si       6.77173723       3.95348840      19.72044455
O        7.68483370       8.96865876      17.22703874
O        9.55322040       9.08912773      19.11756074
O       10.59812717      11.49852720      18.66123035
Si      10.86251165      10.01129855      19.24822054
O        9.95151042       5.62917560       0.09189766
O        5.59109640       8.39992683      12.98867135
O        7.27100149      12.38628560      16.25658697
O        6.62054588      10.79698572      12.53211971
O        8.33202024      14.78740968      15.80142087
Si       6.91240118       9.33133158      13.12623130
O        7.31328162       9.46061112      14.67098397
Si       8.40728240       8.98404511      15.78932609
O        9.63585730       9.98881608      15.84656403
Si       7.36842495      13.74860444      13.36068722
O        7.38385037      12.84181926      12.03965975
O        8.76411865      14.58384807      13.47519934
O        9.27917481      11.53542363      10.77627303
Si      10.18835741      10.73104701      11.86630845
Si       9.44626709      15.97593721      13.07345873
O       10.67464905      12.48969829      15.65896541
O       10.33005660      11.66380102      13.16842373
Si      11.42068938      12.23993800      14.26023684
O        8.31017716      10.78000888       7.61974688
O        9.42488836       8.76191262       8.92403644
O        9.51391146       8.82094441       6.32723781
Si      10.25027300       8.58346701       4.89609673
Si       6.85705103      11.08194736       8.25785523
O        7.02944416      12.02946971       9.56416569
O        8.68394294      14.00650065      10.13103969
O        8.78531283      14.06661121       7.49766343
Si       9.51351660      13.82280809       6.08587511
O       11.64628412      10.42002872      11.22085031
O       12.75349794       8.42130786      12.53717777
Si      12.85039312       9.37301550      11.25831577
O       12.83669562       8.46845429       9.90424878
O       14.24112168      10.21694076      11.34845421
O       14.77021125       7.14868867       8.64310114
Si      15.66453662       6.37833517       9.74428503
O       16.14066748       8.13680853      13.52491649
O       15.81948130       7.28869770      11.03741733
Si      16.90462461       7.88381733      12.10787338
O       16.37058228      11.30217615      10.27980792
O       17.50605624       9.30153124      11.60447910
Si      17.60567629      10.26819270      10.33172386
O       17.58965806       9.36766027       8.96752405
O       10.87132396      15.68157493      12.40905269
O       12.57057859      11.18176846      14.39868781
O       12.01747361      13.66102124      13.71035268
Si      12.13576895      14.65596672      12.46955930
O       12.09834142      13.72219922      11.11642056
O       13.48769430      15.46353803      12.53957684
O       14.03060982      12.39981352       9.84568828
Si      14.91869573      11.61837640      10.93970799
O       15.07722559      12.54844234      12.23449393
O       10.90411767      10.57819827       7.72148209
O       11.43521313       7.51016464       5.03085271
O       10.86759408      10.00639103       4.38934913
Si      12.36018492       6.72787430       6.13927681
Si      10.97480274      10.98662999       3.10966414
O       12.52460619       7.66989425       7.45984463
Si      13.57180338       8.23780623       8.52565228
O       13.78556502       6.39843405       5.51157090
O       13.03164907      11.66741101       6.67215195
O       12.33568043      11.78433306       3.19390736
O       14.16132860       9.64257430       7.99810877
Si      14.27103949      10.62416590       6.72091929
O       14.23705982       9.69905592       5.36860373
O       13.95742653       8.88903793       2.88760777
Si      14.99370906       9.45075133       3.95343024
O       15.67315395      11.45228726       6.80162023
O       16.19958885       8.40881999       4.11800660
O       17.23293937       8.53857090       6.50993567
O       10.70360080      12.76173695       6.23421931
Si      11.62705572      11.97723776       7.30702072
O       11.76102398      12.91299104       8.63836362
Si      12.84735748      13.47006997       9.67725894
O       13.44429062      14.88609124       9.18065409
O       15.45765663      13.62590211       5.29157672
Si      16.34018252      12.86024548       6.38554307
O       16.49691743      13.76501480       7.70442553
O        3.57384574      19.24793575      11.80070825
O        3.82067002       1.38907007      13.34099867
Si       3.04541543       0.74161484      12.07142237
O        3.39700344       1.66485329      10.76132576
O        1.47531585       0.70285618      12.34358770
O        4.98194777      17.19533406      10.95771292
Si       4.71433331      18.17642152      12.19548668
O        4.29451569      17.33170957      13.50089518
Si       3.22286374      17.25729259      14.71213658
Si       1.16806433      15.73551998      12.98477961
O        1.51466921      16.63240252      11.68265207
O        0.35539695      18.86447981      10.78806500
Si       0.13603817      19.88974937      12.03833538
Si      18.61736692      18.94533281      14.52745929
Si       5.27576302      19.16483966       7.95995398
O        3.66580835      19.13037139       8.23384170
O        3.58470452      19.94437469       4.94085254
Si       2.70136562       2.37138051       9.47473513
O        1.16255271      19.37536662       7.52987640
O        1.26661010      19.22150813       3.96523879
O        1.40878257       1.51690123       9.06662598
Si       0.65704376       0.86718774       7.79666123
O        0.98209879       1.79096407       6.49592660
Si       0.27116424       2.50480837       5.22202839
Si       2.31233867      18.30434317       7.91181113
O        1.89773722      17.43204109       9.21353411
Si       0.81596458      17.37367732      10.41527305
O       19.27919307      14.35525461       8.46298907
O       19.52578804      16.51848562       9.95971975
Si      18.78850894      15.87332894       8.70326096
Si      19.91461194      18.44847234       3.63876813
O       19.07408580      16.77988570       7.40439222
O       19.47579352      17.56236768       4.91689210
Si      18.39681190      17.49692870       6.12547856
O       18.99239563       0.91942976      11.62309976
O       19.21143547       3.09696277      13.17262833
Si      18.45962192       2.46463704      11.88826921
O       18.77887667       3.35202224      10.60722197
O       16.87093031       2.39761762      12.18293827
O       17.62619212       5.58007252       9.68367777
Si      17.39814852       6.59295498      10.94083317
O       16.96009077       5.71527158      12.22687904
O       14.36107025       2.62949303      11.47668209
O       18.16606212       0.47800318      14.89267921
Si      16.56565487      17.43420817      12.80230471
O       16.89874547      18.34200947      11.51338683
O       15.76181863       0.57132002      10.61935468
Si      15.51372095       1.59158346      11.86888818
O       15.08075637       0.70706831      13.14629988
Si      14.03135225       0.64091025      14.36418513
O       19.05855984       0.82377615       8.08752377
O       18.99111047       1.63879772       4.79725983
O       19.15835284       4.15438427       8.11896807
Si      18.08122897       4.08099152       9.33871283
O       16.56023834       1.07606684       7.34476954
O       16.79642932       3.22533891       8.89105827
Si      16.04172570       2.55260190       7.61287272
O       16.36736919       3.48871308       6.31573395
O       17.19921685      15.80310004       8.99881344
O       17.96463752      19.01288121       6.53113997
O       17.09420388      16.62752743       5.69874745
Si      17.72199177      19.99491480       7.74889145
O       17.26860734      19.14037488       9.02276196
Si      16.21426473      19.04815643      10.24717852
609
Lattice="20.0 0.0 0.0 0.0 20.0 0.0 0.0 0.0 20.0" Properties=species:S:1:pos:R:3 relative_density=0.96 cell_dim_angstroms="_JSON [20.0, 20.0, 20.0]" n_grains=9 grain_size=12.0 crystalline_fraction=1.0 grain_radius=9.537136187179533 pbc="T T T"
O        5.73380222       7.67972856      11.39050571
Si       3.99502396       3.01951012      11.97648483
O        4.60952237       4.09505663      13.01507056
O        5.21572564       2.29814438      11.17169169
O        6.70441133       5.72645093      12.86815196
O        6.15157719       0.33314099      12.68961877
Si       6.74724314       6.41841443      11.41969342
Si       6.19729368       1.03055305      11.23201046
Si       5.95389092       4.59287812      13.73967769
O        7.00846231       1.42413069      15.77658106
O        8.37500098       1.68563140      19.06322939
O        6.92752769       3.30412455      13.90438225
Si       7.84947255       2.52660866      14.99002044
Si       9.36318528       0.41206153      19.08593827
O        8.43416135       3.61115886      16.05225046
O        7.91239716      18.19942165      15.83622874
O        9.44594745       4.70316613      18.20114470
O        8.90046857      19.31748433      17.98953530
Si       9.80145346       4.07844491      16.75281462
Si       9.26605919      18.67407218      16.55908534
O        8.22798980       6.93188197      11.11603847
Si       9.08591080       8.03230487      10.32673641
O       10.27942175       7.30440208       9.53526027
O        7.70464874       1.54386995      10.91425166
Si       8.54915359       2.63793686      10.11052174
O        9.14931503       3.71832872      11.18693443
O       11.22729454       5.33690516      11.02514410
Si      11.26799605       6.03351483       9.57251398
O       10.80567788       4.95011085       8.48414996
O        9.62289352       7.20229794      14.40084709
O       11.39204078       6.30292310      18.98160064
O       11.32350156       8.19383526      17.15338884
Si      12.24567571       7.43218586      18.20868192
O       12.06917875       6.41831131      14.13677256
O       13.45342258       6.70138382      17.40684145
Si      12.93834429       7.56428100      13.34007439
O       13.53835418       8.61926424      14.37463885
O       14.13930786       6.81664578      12.55426284
O        9.04775235       1.78769857      14.16832227
O       10.55961479       5.22913740      15.88605301
O       10.00810451      19.81858233      15.70158587
O       10.78633190       2.81980634      16.93808472
Si      10.58450189       5.93001995      14.42350237
Si      10.05257981       0.50574280      14.24084267
Si      11.71685402       2.01948000      17.99860532
O       10.10685534       4.82288707      13.33548075
Si      10.48307938       4.21519991      11.92307861
O       11.54654665       1.02591126      13.93352367
O       11.46001580       2.93064356      12.05524224
Si      12.39074922       2.13064372      13.11177012
O       12.99802576       3.21848234      14.19815414
Si      15.14027320       5.53439648      12.58359236
O        8.07115124       5.30559399       7.50887710
O        6.31395962       2.37948451       9.76506108
O        7.55942612       2.03778627       7.49701770
Si       7.64386969       2.14297815       5.89382942
O        6.55061080       7.46305764       7.87051939
Si      10.22440030       8.45162112       2.43992938
Si       7.05638535       6.36065015       6.82060665
O        9.35736659       7.65970198       3.55443481
O        7.79170516       7.12188301       5.61858415
Si       7.88138767       7.21023438       3.99793219
O        4.79371327       7.26307558      10.77919508
O        5.61938740       4.90979796       9.79950439
Si       4.31466356       5.81829696      10.19390701
O        3.48850648       5.02638311      11.32802056
Si       1.99575498       4.56468486      11.74414878
O        6.78332989       8.84535323      10.10510967
Si       6.89768947       8.93384080       8.48888352
O        5.83134864      10.01010339       7.89837537
Si       4.55541847      10.91351197       8.28936447
O        3.72645148      10.09559899       9.43212526
Si       2.21584261       9.64949450       9.85641113
O        9.09003739       3.59875508       3.01043195
O        5.53578201       0.44726886       8.16549567
O        5.76542466       5.53998804       6.27600134
O        6.61036397       3.21776652       5.29529798
Si       5.33312487       4.10303950       5.71850699
O        4.47593693       3.31802544       6.84579488
O        6.79138708       3.81059534       1.77720994
O        4.41186358       4.34965686       4.40722237
O        3.88491230       1.05307026       4.37321334
O        7.54887045       5.75524775       3.40443797
O        6.84217848       8.28587465       3.41036861
Si       8.05646426       4.64785839       2.33522097
O        4.72682046       8.39923636       4.95219082
O        2.90513651       6.49051604       4.74944473
O        4.11776633       6.11919901       2.46181610
O        3.41952752       6.04487617       8.89338952
O        0.93042708       5.66364268      11.18414045
Si      19.65713884       6.55106692      11.55985558
Si       2.96592848       2.84590881       7.26499528
O        1.10277357       6.27154339       7.65581652
O       18.75336995       6.78699670      10.25757552
O        1.93893661       3.92023087       6.69385718
Si       0.65786616       4.83078523       7.07075098
O       19.73643836       5.07585416       5.74952885
O        1.88543721       8.19677161       9.25464931
O        1.17702804      10.73818340       9.26853422
Si       2.38605178       7.09219298       8.19539958
Si       3.22821410       7.94724018       5.37424694
O        0.03662656       9.12437492       6.32243546
O       18.46418937       8.59564089       8.33986037
Si      18.54980362       8.64548243       6.73348039
O       18.22028575       7.20073214       6.10824929
Si      18.72514416       6.11127638       5.06186979
O       13.94734923      12.44000859      13.85040498
Si      15.30626732      13.01974097      13.18590040
O       15.08037790      14.53782366      12.69764626
O       18.12502005       9.93429434      13.33522263
O       16.47404488      12.92720567      14.26585685
Si      19.48012044      10.49082210      12.64955679
O       19.23724443      12.01747647      12.17116451
Si      19.58399269      13.53231049      12.51596543
O       12.69359073       9.45163934      18.23339796
O       15.60306120       9.49402975      13.90306154
O       14.45019016       9.13432216      16.27042722
Si      16.88231398       8.93524765      13.08832479
Si      14.04847375      10.03547230      17.53631946
O       13.80536469      11.57732695      17.06795886
O       12.56221466       8.56257001       1.41942790
O       15.24215377       9.94522803      18.61785549
O       15.51822863      13.55288862      16.67151812
O       14.26810976      10.56179292       1.02905335
Si      16.79275104      13.00387807      15.84121809
Si      15.54029762      10.00784995       0.19703687
O       17.98966926       9.03542670      16.53175196
O       17.14095188      11.49833299      16.37642779
Si      18.34486518      10.56664622      16.90536942
O       12.29391465      15.47123845      14.78351509
O       11.42246572      18.70524416      15.16992499
Si      11.04289643      19.60817261      16.47753952
Si      15.40567912      16.08185607      13.04091340
O       13.87185068      16.53192246      16.61157041
O       12.20879063      19.54944083      17.54148680
O       15.60906990      16.19519053      14.65366606
Si      15.22127408      17.08831288      15.92940383
O       14.97655273      18.61517292      15.46947511
O       14.11317862       1.10003776      15.31532241
Si       8.44020306      18.04169274      16.91322597
O        9.63495719      14.07747385      17.60946969
O        8.77357748      16.57984285      17.43555423
Si       9.97122192      15.59858996      17.95373903
O       11.04790230      12.47326206      19.17106023
O       11.35580391      16.06843058      17.20557856
O       10.19441424      15.74449761      19.53265155
Si      12.60158360      15.52279359      16.38046224
Si      11.36477304      12.53172165       0.73264572
O       12.96378924      14.04457300      16.92450428
Si      14.17301498      13.08543871      17.42938310
Si      12.91278772      10.11607017       1.77605194
O       12.60801351      13.52880318       0.98622993
O       14.38183362      13.22124143      18.98209180
Si      13.97796671      14.08020684       0.31835026
Si      12.53948824      19.59299178      19.14441559
O       13.73188812      15.62409285      19.81591259
O       12.88316532      18.10802270      19.67482915
Si      14.05521028      17.15930265       0.15263041
O       18.07248748      13.99718007      16.09024523
O       19.80168864      13.67865150      14.10258866
O       19.16858441      16.08916855      14.92167280
O        0.59423501      14.48875846      16.48424967
O        2.47864222      16.04276247      14.25484534
O        2.13686207      15.54368472      18.30563163
O        3.90676389      15.22322635      16.32306946
Si       3.50318515      16.10845247      17.63559667
O       16.81002806      10.99945065       0.44975939
O       19.69996416      11.02348042      16.13679751
O       18.53906574      10.69675929      18.48285761
Si      18.14296364      11.58628423      19.76012597
O       17.91724421      13.07416695      19.29789115
O       19.33974614      11.49451997       0.86553525
O       19.60464687      15.10091616      18.89147422
Si       0.88135135      14.54106133      18.06427646
O        1.23534386      13.04108799      18.61357620
O       16.41637576      16.99349675      17.00781388
O       13.79321640       0.60965632      19.35371050
O       15.52193734       0.25697301      17.38922291
Si      19.52637512      17.60384088      15.29161137
O       17.97163563      18.06908614      18.84268374
O       19.70811402      17.72712504      16.87661968
Si      19.33084702      18.62933044      18.15463622
O       15.16172839      14.02668274       1.37026603
O       15.44283570      17.61893216      19.39586741
O       14.26504689      17.28491851       1.74580277
Si      16.69527654      17.04724711      18.60330508
Si      15.47496509      14.08534770       2.98551853
O       17.06935189      15.59664084      19.14145950
O       15.83101663      12.61640692       3.52672365
Si      18.26833787      14.62132504      19.63614300
O       16.73693139      15.09446475       3.20425161
O       18.47851112      14.77734091       1.23541918
Si      18.08129379      15.65392067       2.51891005
O       17.82957772      17.19507698       2.03580267
O        2.57023140       7.38166377       0.35338836
O        0.75632543       8.26716559       2.06595022
Si       1.02019504       7.46127197       0.68741724
O        0.25089415       8.22894996      19.48096810
O        0.42995461       5.96208944       0.85414360
O       17.69230976       8.14154308      18.67361979
Si      16.72272352       8.18210713      19.97964887
O       18.09587141       6.41172983       3.52769403
O       17.42046488       7.33125225       1.17455185
Si      17.12094131       6.16489885       2.26640702
O        6.49832910       3.63503703       0.71766366
Si       4.89862757       3.71069539       1.06623966
O        4.15247397       4.46567270      19.86904234
O        4.35751087       2.21681969       1.24362814
O        1.60900639       4.38140481      19.06662963
O        5.53899942       0.62904820      19.43008097
Si       0.64871597       4.44542470       0.35719602
Si       4.57771046       0.68060546       0.71301117
O        1.98615538       2.66374078       3.88172318
O        1.32421029       3.57714891       1.54074625
Si       1.02039743       2.43375906       2.62600371
O       19.56772287       9.15248883      17.12734858
Si      19.26345567       8.03606458      18.24455509
O        1.33463888       5.65125641      15.91983322
O       19.52728062       6.55165301      17.63869658
Si      19.78642279       5.74217296      16.25321225
O       19.01574082       6.52667772      15.04730188
O       18.31207370       7.41601355      12.69097715
Si      18.01739572       6.29373895      13.78091577
O        3.46383890       5.38587160      17.48673345
Si       3.15870766       4.27277394      18.60492788
Si       7.07644040       0.51280135      18.97240002
O        5.25272372       1.89869925      16.28841578
O        3.44019116       2.80169053      18.00448980
O        7.33890421      19.04199689      18.37031805
Si       3.66622022       1.97684631      16.61365510
O        2.92068964       2.75653955      15.43610150
O        2.22066667       3.67685021      13.05318332
Si       1.93730468       2.56610580      14.15632688
O       15.30344600       7.57917931      19.57885856
O       19.22448406       3.82781914      19.95405323
O       15.56642492       6.31177503       2.70910929
O       17.39147192       4.72379486       1.65226297
Si      14.59594337       6.35993778       4.00645958
Si      13.74381084       7.66649590      19.89657584
Si      17.63279492       3.91919544       0.29035058
O       16.85058249       4.69144197      19.07706080
O       17.08023525       2.01181928       3.97011196
O       13.14427399       6.18624773       0.06350910
O       17.07293947       2.39270766       0.43856898
O       14.34376802       4.57548309      18.28039371
Si      13.37875191       4.62951277      19.56292287
O       14.03885613       3.76940923       0.74066248
O       15.82500929       0.27447612      19.53572182
O       14.00695196       1.15490825       1.23924493
O        3.11568040       0.09098736       0.32850031
O       19.47442298       2.56594457       3.07095922
O        1.28746117       0.94590021       2.02133354
Si       1.52254330       0.15147737       0.65282751
O        0.77189124       0.94657765      19.46003207
O        0.96535939      18.66415657       0.79237822
O       18.25960042       0.82136114      18.65628264
Si      17.27804102       0.88403928      19.93175579
O       17.93418816       0.02227302       1.12449517
O       15.29262580       8.00014091      16.04376364
O       19.19733538       4.24994079      16.41366926
O       16.47794085       6.43438977      14.25259109
O       16.17653587       5.59847036      16.72119025
Si      15.89293021       4.47323010      17.82077891
O       17.97599605       2.09966865      15.51973890
O       16.16173979       3.01430920      17.22614752
Si      16.38992589       2.19044458      15.83947901
O       15.63495550       2.97985692      14.62533900
O        3.11602359       0.48930350      16.78394778
O        0.39070773       2.66341707      14.63089968
O        4.29425479      18.91559240      14.99392067
Si      19.40970542       2.71996029      15.91400260
Si       3.30822531      18.96115592      16.27573018
O        3.99729968      18.09305562      17.44566533
Si      19.79332270       0.72869312      18.18983078
O        1.88406096      18.34998955      15.88233117
O        0.05234939      19.25395386      17.58384810
O       16.24195271      17.64821169       5.57215306
O       15.02627558      17.24313138       7.85733588
O       16.51653358      18.05348481       2.98271931
Si      16.95451592      17.14127521       4.23174458
O       16.10652684      14.27928159       6.13590375
O       14.26802795      14.30752403       4.25079155
Si      13.06496852      15.20402109       3.73748491
O       13.38285505      16.74768021       4.14154017
O       11.69228507      14.71665527       4.41438501
O       12.95855704      18.08132023       6.40257965
Si      13.42974766      17.17883783       7.63460537
Si      10.10209046      14.62267590       4.19257450
O       12.99977140      15.63861292       7.31413572
O       15.41783827       1.00962951       4.71487802
O       14.86700663       4.37885830       4.81387241
Si      13.68247296       5.28101800       4.28646328
O       13.11600229       1.41558056       5.84053891
O       12.28527243       4.78289194       4.96445583
O       14.46691962       0.63109264       7.95694421
Si      13.27157789       1.52929241       7.44386883
O       13.57556282       3.07365660       7.85038453
Si      12.92251928       4.39520650       8.52295910
Si      13.10870876       1.82016792       1.64789733
O       12.07393775      18.48259950       1.27655366
O       13.36171350       1.83032871       3.27642047
O       10.03099882      19.29435784      19.80699296
O       11.55230378       1.83156816       1.36561218
Si      13.82028961       0.92236146       4.49704477
Si      10.48508138      18.38100350       1.07055497
Si      10.32420831       2.76096359       0.83941823
O       13.40820381      19.38811946       4.16836697
O       10.08461830      16.86399556       0.70768820
O       10.63821224       4.28748546       1.25504153
Si      12.71847373      18.07512367       4.79742304
O        9.77547264      18.89202517       2.39856535
O        8.94893245       2.25624422       1.53309708
O       11.12575350      18.08938538       4.52991448
Si       9.93054628      18.98413861       3.98157459
Si      10.66863554       4.67865556       4.77594831
O       10.24279517       0.51961936       4.38708836
O       10.27809514       3.16644704       4.44363831
Si       9.60013819       1.83975544       5.06842879
O       12.68752665      17.67362274       8.98295094
O       14.06888017      16.86459685      11.09878553
Si      12.85311039      17.77383952      10.60267979
O       13.18434289      19.33400636      11.00855041
O       11.48397409      17.27034963      11.26422997
O       12.76211924       0.62624246      13.27316941
O        9.15583761      17.68200746      12.39204143
Si       9.32170785      17.81413269      14.00097420
O        9.63219043      19.33757417      14.40411579
O        7.94459372      17.30084713      14.67721784
O        9.36056439      15.13740497       5.53741988
Si       9.51811701      15.24466423       7.12016698
O        9.85396656      16.78361904       7.55227465
O        9.44384120      18.11054349       9.81782093
Si       9.89334769      17.19743357      11.05692326
O        6.27575046      16.78120579      10.96978724
O       11.88490971       1.03847594       8.12635964
O       13.22405455       1.93271256      11.04437279
Si      12.49756910       0.62894863      11.65466066
O        9.55583036       1.44973425       9.24502435
O       10.93442203       0.61431190      11.35322728
Si       9.71342922       1.55964290      10.85357027
O        8.53277765      18.50755575       4.67309070
O        9.84441637       1.86029546       6.67647236
Si      10.29403909       0.92907893       7.90352846
Si       6.96054724      18.39180304       4.43440136
O        9.88235507      19.40487035       7.59105015
Si       9.18992057      18.11298523       8.20008212
O        6.23621960      18.91731393       5.79334846
O        7.58223605      18.09395571       7.91686833
Si       6.37798060      19.01258078       7.39194531
O        6.68297569       0.55528024       7.81337442
O        6.35037099      19.41430490      11.00782284
O       17.23961594       9.79415205       3.09772898
O       19.53127867      10.88724631       3.62790182
O        0.16848277       8.29734340       3.87679989
Si       0.71799958       9.75421837       3.50518224
O        1.23671779       9.67155634       1.97016612
O        1.90431364      10.16278430       4.49264685
O        3.56437712       8.91463483       0.94525451
Si       4.01978560       7.53309416       1.64674175
Si      17.94482447      11.04636058       3.80180035
O       17.54151863      11.10486473       5.35002145
Si      18.10201704      10.84034352       6.84394896
O       19.18909252       9.65534974       6.77655857
O       18.77272067      12.16909924       7.43589129
Si      19.35075181      13.64297203       7.04198071
O       19.88287550      13.58144544       5.51837245
O        2.21253834      12.78963695       4.49555570
Si       2.63589565      11.42227908       5.19400563
O        2.22923857      11.48447276       6.76744315
Si       2.78532446      11.19405490       8.25707516
O        0.21995487      12.94144531       0.81573919
O        1.92856367      10.38384497      19.53333424
Si       2.46143753      10.10032676       1.02527188
O        2.55872247      14.01825424       1.36653205
O        3.18737354      11.45061887       1.62168269
Si       3.74065499      12.89474725       1.22601009
O        4.25837717      12.84363730      19.69167730
Si       5.49955315      13.24205026      18.72697933
Si       0.97746553      14.19991047       1.52274257
O        0.55856444      14.26258628       3.07218750
Si       1.10469225      13.97557473       4.58567266
O        1.18117981      17.90133071       4.88744851
O        1.79338715      15.32878588       5.17621611
Si       2.36335673      16.76734541       4.78337559
Si       3.97479432      17.34527795      19.23547005
O        2.90664663      16.72807454       3.26206537
O        3.57401873      17.39722751       0.79156621
Si       4.12818474      17.14492896       2.30126749
O        4.23027832      11.22129191       5.03211012
Si       5.40561954      10.12349609       4.91228223
O        5.94501633      10.06854160       3.37575206
O        6.60146082      10.50785164       5.91716149
O        8.26538646       9.27293489       2.35447516
O        2.86984770      15.10045200       8.59790866
O        3.47291183      12.54884910       8.86388523
Si       4.02133930      13.98578531       8.46098973
O        4.56717657      13.93121203       6.91758212
O        5.22787756      14.39145056       9.47170608
O        6.89336655      13.14586155       5.92507806
O        5.51597179      17.04192177       9.46247617
O        4.91802198      13.30181439       2.23696516
O        5.57870747      17.14337219      19.08742294
O        6.18112856      14.57288446      19.33187553
Si       6.75763087      16.06224888      18.94669342
O        6.61930691      10.74379289       0.92973355
O        7.27802546      16.00014549      17.42282083
Si       7.17469114      10.46898959       2.44322032
O        7.24400876      14.36750406       2.77888488
O        7.94110795      16.47231347      19.96477736
O        7.87642437      11.80960089       3.02810952
Si       8.43107457      13.25310900       2.62262302
O        8.95764931      13.22053011       1.12629695
Si      10.19227630      13.61885704       0.15980723
O        9.62164851      13.67423309       3.64455606
O        3.56019692      17.18929555       5.79106061
O        5.22602411      15.94895220       2.24774308
O        4.80937342      18.47986245       2.89928594
Si       5.64494777      14.55940361       2.93270492
Si       4.27757934      18.43431205       6.45739771
Si       5.39205551      19.92035739       2.50179956
O        5.26214853      14.62028776       4.47942931
Si       5.78339435      14.35559360       5.99081590
O        6.49087717      15.65895365       6.58867108
O        8.23002767      19.09319113      19.95059141
Si       8.65527170      17.69909592       0.66530842
O        7.59454855      17.08295036       4.65806360
O        8.25034748      17.77850794       2.21556604
O        3.17996572       6.32129091      16.73998687
O        2.54090038       4.73591163      13.02543936
O        3.01745624      10.19508712      18.15000679
O        4.21701665       8.73009994      16.29448485
Si       4.51501930       7.24946583      16.86278866
O        5.26222629       6.89560253       0.98402051
O        4.91392875       7.39439617      18.43159186
Si       5.98101437       6.91458678      19.52193652
Si      19.32286516       9.66176434      13.59265286
O       19.05512500       9.49559301      12.01612983
O        0.92671630       9.64866803      13.90473380
O        0.94860699       6.68957304      12.28478957
Si       2.01821704       6.22007452      13.40872126
O        3.44694249       9.85278691      13.18012362
O        3.26087485       7.24134873      13.46241748
Si       3.98576937       8.43946708      12.70013769
O        1.97894693      12.02698569      13.44503783
Si       2.23281662      10.55224861      14.02178819
Si       3.94500308      14.53643898      17.28141361
O        2.63461021      10.68722626      15.58598423
Si       3.71060649      10.20970362      16.68960920
O        5.11597159      13.86112443      16.45143899
O        4.99934423      15.69631726      13.41310790
O        4.94705527      11.21421063      16.74844670
Si       5.71063371      12.43677234      15.96338126
O        5.42108843      12.26851429      14.39018789
O        5.03442755      12.75953657      11.81097085
O        6.74858813      16.74269321      15.09047853
Si       6.13406158      12.26408368      12.92519838
Si       7.80831917      16.26190137      16.21502351
O        5.70302316       6.55465185      16.04155542
O        5.55033531       3.92311425      16.32173067
Si       6.27754995       5.14140506      15.52464960
O        7.96751641       3.25165579      18.88884778
O        7.38629595      10.55244984      19.31498866
O        6.49651761       5.43227358      19.12688602
O        7.24806112       7.92673667      19.57210730
Si       6.77173723       3.95348840      19.72044455
O        7.68483370       8.96865876      17.22703874
O        9.55322040       9.08912773      19.11756074
O       10.59812717      11.49852720      18.66123035
Si      10.86251165      10.01129855      19.24822054
O        9.95151042       5.62917560       0.09189766
O        5.59109640       8.39992683      12.98867135
O        7.27100149      12.38628560      16.25658697
O        6.62054588      10.79698572      12.53211971
O        8.33202024      14.78740968      15.80142087
Si       6.91240118       9.33133158      13.12623130
O        7.31328162       9.46061112      14.67098397
Si       8.40728240       8.98404511      15.78932609
O        9.63585730       9.98881608      15.84656403
Si       7.36842495      13.74860444      13.36068722
O        7.38385037      12.84181926      12.03965975
O        8.76411865      14.58384807      13.47519934
O        9.27917481      11.53542363      10.77627303
Si      10.18835741      10.73104701      11.86630845
Si       9.44626709      15.97593721      13.07345873
O       10.67464905      12.48969829      15.65896541
O       10.33005660      11.66380102      13.16842373
Si      11.42068938      12.23993800      14.26023684
O        8.31017716      10.78000888       7.61974688
O        9.42488836       8.76191262       8.92403644
O        9.51391146       8.82094441       6.32723781
Si      10.25027300       8.58346701       4.89609673
Si       6.85705103      11.08194736       8.25785523
O        7.02944416      12.02946971       9.56416569
O        8.68394294      14.00650065      10.13103969
O        8.78531283      14.06661121       7.49766343
Si       9.51351660      13.82280809       6.08587511
O       11.64628412      10.42002872      11.22085031
O       12.75349794       8.42130786      12.53717777
Si      12.85039312       9.37301550      11.25831577
O       12.83669562       8.46845429       9.90424878
O       14.24112168      10.21694076      11.34845421
O       14.77021125       7.14868867       8.64310114
Si      15.66453662       6.37833517       9.74428503
O       16.14066748       8.13680853      13.52491649
O       15.81948130       7.28869770      11.03741733
Si      16.90462461       7.88381733      12.10787338
O       16.37058228      11.30217615      10.27980792
O       17.50605624       9.30153124      11.60447910
Si      17.60567629      10.26819270      10.33172386
O       17.58965806       9.36766027       8.96752405
O       10.87132396      15.68157493      12.40905269
O       12.57057859      11.18176846      14.39868781
O       12.01747361      13.66102124      13.71035268
Si      12.13576895      14.65596672      12.46955930
O       12.09834142      13.72219922      11.11642056
O       13.48769430      15.46353803      12.53957684
O       14.03060982      12.39981352       9.84568828
Si      14.91869573      11.61837640      10.93970799
O       15.07722559      12.54844234      12.23449393
O       10.90411767      10.57819827       7.72148209
O       11.43521313       7.51016464       5.03085271
O       10.86759408      10.00639103       4.38934913
Si      12.36018492       6.72787430       6.13927681
Si      10.97480274      10.98662999       3.10966414
O       12.52460619       7.66989425       7.45984463
Si      13.57180338       8.23780623       8.52565228
O       13.78556502       6.39843405       5.51157090
O       13.03164907      11.66741101       6.67215195
O       12.33568043      11.78433306       3.19390736
O       14.16132860       9.64257430       7.99810877
Si      14.27103949      10.62416590       6.72091929
O       14.23705982       9.69905592       5.36860373
O       13.95742653       8.88903793       2.88760777
Si      14.99370906       9.45075133       3.95343024
O       15.67315395      11.45228726       6.80162023
O       16.19958885       8.40881999       4.11800660
O       17.23293937       8.53857090       6.50993567
O       10.70360080      12.76173695       6.23421931
Si      11.62705572      11.97723776       7.30702072
O       11.76102398      12.91299104       8.63836362
Si      12.84735748      13.47006997       9.67725894
O       13.44429062      14.88609124       9.18065409
O       15.45765663      13.62590211       5.29157672
Si      16.34018252      12.86024548       6.38554307
O       16.49691743      13.76501480       7.70442553
O        3.57384574      19.24793575      11.80070825
O        3.82067002       1.38907007      13.34099867
Si       3.04541543       0.74161484      12.07142237
O        3.39700344       1.66485329      10.76132576
O        1.47531585       0.70285618      12.34358770
O        4.98194777      17.19533406      10.95771292
Si       4.71433331      18.17642152      12.19548668
O        4.29451569      17.33170957      13.50089518
Si       3.22286374      17.25729259      14.71213658
Si       1.16806433      15.73551998      12.98477961
O        1.51466921      16.63240252      11.68265207
O        0.35539695      18.86447981      10.78806500
Si       0.13603817      19.88974937      12.03833538
Si      18.61736692      18.94533281      14.52745929
Si       5.27576302      19.16483966       7.95995398
O        3.66580835      19.13037139       8.23384170
O        3.58470452      19.94437469       4.94085254
Si       2.70136562       2.37138051       9.47473513
O        1.16255271      19.37536662       7.52987640
O        1.26661010      19.22150813       3.96523879
O        1.40878257       1.51690123       9.06662598
Si       0.65704376       0.86718774       7.79666123
O        0.98209879       1.79096407       6.49592660
Si       0.27116424       2.50480837       5.22202839
Si       2.31233867      18.30434317       7.91181113
O        1.89773722      17.43204109       9.21353411
Si       0.81596458      17.37367732      10.41527305
O       19.27919307      14.35525461       8.46298907
O       19.52578804      16.51848562       9.95971975
Si      18.78850894      15.87332894       8.70326096
Si      19.91461194      18.44847234       3.63876813
O       19.07408580      16.77988570       7.40439222
O       19.47579352      17.56236768       4.91689210
Si      18.39681190      17.49692870       6.12547856
O       18.99239563       0.91942976      11.62309976
O       19.21143547       3.09696277      13.17262833
Si      18.45962192       2.46463704      11.88826921
O       18.77887667       3.35202224      10.60722197
O       16.87093031       2.39761762      12.18293827
O       17.62619212       5.58007252       9.68367777
Si      17.39814852       6.59295498      10.94083317
O       16.96009077       5.71527158      12.22687904
O       14.36107025       2.62949303      11.47668209
O       18.16606212       0.47800318      14.89267921
Si      16.56565487      17.43420817      12.80230471
O       16.89874547      18.34200947      11.51338683
O       15.76181863       0.57132002      10.61935468
Si      15.51372095       1.59158346      11.86888818
O       15.08075637       0.70706831      13.14629988
Si      14.03135225       0.64091025      14.36418513
O       19.05855984       0.82377615       8.08752377
O       18.99111047       1.63879772       4.79725983
O       19.15835284       4.15438427       8.11896807
Si      18.08122897       4.08099152       9.33871283
O       16.56023834       1.07606684       7.34476954
O       16.79642932       3.22533891       8.89105827
Si      16.04172570       2.55260190       7.61287272
O       16.36736919       3.48871308       6.31573395
O       17.19921685      15.80310004       8.99881344
O       17.96463752      19.01288121       6.53113997
O       17.09420388      16.62752743       5.69874745
Si      17.72199177      19.99491480       7.74889145
O       17.26860734      19.14037488       9.02276196
Si      16.21426473      19.04815643      10.24717852
609
Lattice="20.0 0.0 0.0 0.0 20.0 0.0 0.0 0.0 20.0" Properties=species:S:1:pos:R:3 relative_density=0.96 cell_dim_angstroms="_JSON [20.0, 20.0, 20.0]" n_grains=9 grain_size=12.0 crystalline_fraction=1.0 grain_radius=9.537136187179533 pbc="T T T"
O        7.25582278       7.75527070      12.28412793
Si       4.31361066       3.03373252      12.84199128
O        5.03037022       4.06264803      13.64110507
O        5.60047572       2.32585156      11.71949593
O        7.32439916       5.36898131      13.37595418
O        7.26096919       0.09617027      13.03142663
Si       7.30969841       6.19057296      11.82659130
Si       6.65296421       0.95463722      11.74995971
Si       6.52716008       4.13152530      14.12709427
O        6.68739506       1.09807452      16.28146939
O        7.93106363       0.97538502      18.58386625
O        7.26213482       2.69835684      13.87448069
Si       8.07707479       1.84261952      15.10081938
Si       8.90349234       0.14738264      19.44618127
O        9.06422872       2.99361334      15.78753354
O        8.09838791      17.47911641      16.69394465
O        8.33101679       4.85754630      17.46366215
O        9.22517054      18.73936972      18.50211077
Si       9.69495713       3.88729186      16.93372434
Si       8.80193285      18.63856839      15.75066983
O        8.72516882       6.37721192      10.94485742
Si       9.74652728       7.75636950      10.76175153
O       11.19250098       7.12045140      10.58124727
O        8.07595151       1.26738994      10.84617380
Si       7.03411585       3.21138006       9.78446715
O        8.10847383       3.80766680      11.38983811
O       10.96064936       4.52725926      11.11999853
Si      12.05167807       5.74524605      10.68448727
O       12.55603521       5.28778189       9.18444594
O        9.41529741       7.16060433      15.76793337
O       12.79104481       4.92084561      17.67915667
O       11.09746364       7.51381037      18.49944744
Si      12.51061671       6.91983175      18.02971140
O       12.09139965       6.90283537      14.73091603
O       13.62463356       7.13483152      19.08920343
Si      12.97296938       7.30809800      13.36878354
O       14.43656194       8.23163329      13.44145767
O       13.37914231       5.80101220      12.38700619
O        9.17638061       1.03828045      14.24632423
O       10.74334946       4.91747758      16.04864837
O        9.49222219       0.21419759      16.51966845
O       10.76612415       2.89902958      17.96565500
Si      10.56982532       6.18943786      14.98715689
Si      10.76441018       0.82460899      13.63839409
Si      12.43358089       2.96816629      18.32168283
O        9.94427872       5.65721462      13.40579983
Si       9.88803667       4.21159077      12.32147317
O       11.67648193       0.39998407      14.99900525
O       10.88052630       3.09448004      13.34906676
Si      12.67980247       2.87199655      13.35084278
O       13.56065925       2.18638501      14.70666456
Si      14.92013228       4.79847140      12.27714747
O        8.04010963       5.49507474       7.32549323
O        5.13413521       3.45185738       9.52911179
O        7.82858181       2.98812793       8.28550031
Si       7.83633465       3.86326187       6.84923346
O        7.11871414       8.03240335       7.96533244
Si       8.81866656       7.75711151       1.42425682
Si       7.10789232       6.89730826       6.94415541
O        8.97279495       7.13316442       3.11522336
O        7.61203364       7.30399713       5.46407297
Si       7.47877819       6.69313884       3.96555710
O        4.02392220       7.62644224      11.60231041
O        5.95986956       5.79283260      10.80542391
Si       4.28668736       6.03697809      10.80247983
O        3.36315437       4.64402008      11.44857597
Si       1.55076302       4.49163753      11.70906122
O        6.88374334       9.29156111      10.20341633
Si       7.94149098       9.17977538       8.87752981
O        5.49603360      10.11110004       8.25708084
Si       4.31913007      10.28496387       9.31904992
O        3.23264253       9.07879453       9.23018811
Si       1.65744711       9.10388362       8.48066713
O        8.49827764       3.40277211       5.29886687
O        4.20960426       1.00842330       8.86588087
O        5.45421699       6.35769737       6.67388622
O        6.21425822       3.85371437       6.25009220
Si       4.95558674       4.82895223       6.20810813
O        3.78492939       3.94817835       7.17025391
O        6.37942809       1.98170380       4.16641775
O        3.84563686       4.26110843       4.83596800
O        3.75568817       1.60829847       5.54432369
O        7.00192295       5.00829484       3.78902280
O        6.04397378       7.49043106       3.43091529
Si       7.58792466       3.41844023       3.79561215
O        4.21294065       8.83942373       4.89989130
O        3.01159514       6.56462288       5.67083716
O        4.42422480       5.49951653       2.52219891
O        3.42302338       6.23198978       9.34010980
O        0.97877554       5.30224764      10.33857281
Si       0.07518976       8.13315456      11.43251629
Si       2.91189782       3.07099701       5.80838403
O        1.42085188       5.61376349       7.63861122
O       18.85304875       7.17544666      11.09440127
O        1.31190810       3.43646229       6.19176518
Si       0.48187017       4.79635773       6.55415874
O        0.41633039       5.81325023       5.18274358
O        1.04744833       7.77968801       9.18482569
O        1.06889093      10.80136013       8.87628589
Si       1.64585623       6.18873406       9.10068128
Si       2.68847737       7.96498302       5.08681987
O        1.83387056       8.80326397       6.63595555
O       18.50922820       8.48275428       8.97827487
Si      18.30670455       8.14272316       7.31327157
O       18.21451535       6.88226445       6.13043186
Si      19.23564672       6.78898032       4.56622980
O       14.07154719      12.21792770      13.75332130
Si      15.46170521      13.03980502      13.14481785
O       15.12661568      14.68678332      13.15326651
O       18.58078605       9.45385059      14.33131093
O       16.77395003      12.69319017      14.11736540
Si      19.28305678      10.87338610      12.59241402
O       19.54819532      12.57485602      12.40104940
Si       0.31774695      13.67464457      13.51816297
O       13.14712766       8.47262084      16.98314756
O       17.34451798       9.89707056      16.59536612
O       15.33248602       9.08230212      15.75832184
Si      17.55163028       8.46170730      15.35675567
Si      14.62856812       9.71318411      17.14088887
O       14.34087575      11.44888203      16.77843758
O       12.84619643       8.63526418       1.20075438
O       15.69308600       9.67656067      18.73917296
O       15.92898739      14.11110371      16.29015328
O       14.36623144      10.72131012       1.02350061
Si      17.45139186      13.50079178      15.40257648
Si      15.85031642      10.30701673       0.60979912
O       18.96193546       7.97215799      15.88382685
O       17.94795518      12.52617443      16.57292807
Si      18.48683182      11.12966404      16.99377362
O       13.26171584      14.84116409      15.05068611
O       10.61608567      18.17533398      16.10672621
Si      11.22652445      19.71915396      16.48965630
Si      14.02258359      15.68622264      13.77848803
O       13.00830276      16.82000670      16.72267541
O       11.80338948      19.75729080      17.92973773
O       14.77392556      16.99068948      14.63194722
Si      14.33402670      17.76726646      16.11822449
O       13.80799641      19.24055764      15.59954703
O       15.73414723       0.76032073      15.74795623
Si       8.14961535      17.50190309      18.08394178
O        8.88290506      13.74583875      17.94090577
O        8.28329110      15.05156989      15.83612432
Si       9.34881954      14.09889675      16.43926416
O       11.09707047      13.29499541      19.05585841
O       10.82393377      15.05455064      16.45950576
O        9.52090734      16.03146831      18.83302786
Si      12.47546457      15.19861715      16.51230544
Si      12.02976720      12.04683350      19.55598845
O       13.19733845      14.06591287      17.42662105
Si      14.67120890      13.14382691      17.28175800
Si      12.87108598      10.11511759       1.82385687
O       13.20069081      12.79098751       0.65081346
O       15.10497505      13.12648354      18.85023873
Si      14.43366275      13.85777000       0.26803131
Si      13.21573797      19.79110720      18.84746007
O       13.59853587      15.33258084      19.85841216
O       13.43178084      18.02818693      18.92305401
Si      13.56467565      16.89960052       0.40717570
O       18.96422617      14.25590338      14.68486236
O        1.14584747      14.85960359      12.87280191
O       17.17187983      16.43899825      13.04169748
O        1.41814578      14.82403939      15.65926815
O        3.27193239      16.19950979      14.21601081
O        0.73267080      16.28297119      17.69258703
O        3.13236301      15.16835949      17.89736493
Si       1.93649222      16.27448309      18.71455096
O       16.97920449      11.47759136       0.51187883
O       19.80787805      10.82189899      16.05248671
O       18.95783950      11.17785090      18.61207083
Si      18.50472201      12.10327370      19.88428813
O       17.74557698      13.42127593      19.29120090
O       19.98028588      12.73093872       0.74957133
O       18.60592659      14.95336379      17.38551262
Si       0.14275606      14.84512550      16.97638952
O        1.22401185      13.39250087      17.60547335
O       15.52001867      17.79175224      17.30087876
O       13.43452834       1.48007413      17.70316460
O       16.90589220      18.85632463      14.29244187
Si      17.53887974      17.41922871      14.42624711
O       17.78732105      17.60267576      18.74411850
O       18.12250773      17.26276500      16.02182342
Si      18.32672897      18.39669817      17.39325850
O       15.66912267      14.21237051       1.32784249
O       15.27650920      17.29918361       0.45392842
O       12.33982866      16.78747540       2.04009665
Si      16.14995190      17.14211841      18.88993957
Si      16.26444950      13.96051562       2.88316081
O       16.31233891      15.54914523      18.69522408
O       17.16359994      12.56149709       2.77888873
Si      17.75929849      14.85932508      18.99026452
O       17.64497023      15.16531604       3.11049444
O       18.23986908      15.82559831       0.57446015
Si      17.69743586      16.65462761       2.21971836
O       18.65495909      17.97672228       2.48045931
O        2.85250685       6.81373874       0.77909535
O        1.68589683       7.34850916       3.33053701
Si       1.31277206       7.18907085       1.26274128
O        0.74608423       8.35242696       0.01259610
O        0.42969287       5.89181812       0.78205335
O       18.22985542       8.63903204      18.91898641
Si      16.94965715       7.60141329      19.48486807
O       18.84539269       6.00385344       3.12200374
O       17.83325950       6.63276167       0.56504698
Si      17.66510115       5.77891071       2.03052979
O        6.51415019       4.44015328       1.08486763
Si       4.95629849       4.01714216       1.65097805
O        3.98426281       3.99179085       0.35478152
O        4.76079474       2.28487662       2.10818053
O        2.10469937       4.60226155      18.71942398
O        5.75529306       1.20855671      19.70315846
Si       0.85138151       4.46593872       0.02194043
Si       4.99661626       0.79822850       1.23668942
O        1.09859879       2.57132805       3.91371670
O        1.51272345       3.71393093       1.42065379
Si       1.03919450       2.52734944       2.35154633
O        0.61171978       8.84476943      17.25482477
Si      19.86084221       8.18889163      18.59122573
O        0.93655865       6.28749332      15.60721894
O       19.68572402       6.56128802      18.11489787
Si      19.62454684       5.78032102      16.55865087
O       18.12137979       5.79467676      15.42540581
O       18.35312480       4.92567953      12.76448389
Si      17.31756184       4.64527084      14.21308822
O        5.25607079       4.84877795      18.19612678
Si       3.86093412       4.01834948      18.74414798
Si       6.37668773       0.44258560      18.14288696
O        2.98073937       1.32576545      15.43652043
O        3.97027615       2.45759308      18.06021060
O        6.57051741      18.70270059      18.44677468
Si       2.99076480       1.62184647      17.11668725
O        1.92161251       3.05728388      16.34783508
O        2.54780959       3.10317575      13.37441027
Si       1.69357287       2.55493030      14.59231016
O       15.60240365       8.05700233       0.56609388
O       19.48128897       3.63558605      19.65925951
O       16.29343897       6.12992659       2.77202090
O       17.65843094       4.17635236       1.65185182
Si      15.79802543       6.31448925       4.35547547
Si      14.00423993       7.59879113       0.62330059
Si      17.84125169       3.48870828       0.27079547
O       17.07085123       4.47915091      19.19667105
O       16.58577922       2.23943094       3.40592348
O       13.79273075       6.20399989       1.45116546
O       16.92493044       1.97388216       0.24481410
O       14.42413073       4.24053738      19.33755533
Si      13.17099731       4.88135856       0.86959455
O       13.14587660       3.73337488       1.93929495
O       17.08928572      19.81402936      17.82887568
O       12.82933042       2.28604882      19.91596972
O        3.60627250       0.18814588       0.54220855
O       19.36574163       2.06072748       1.93680559
O        1.98637619       1.20957828       2.10226300
Si       2.05305867       0.04269310       1.00323813
O        1.16464915       0.64954726      19.72119237
O        1.24976665      18.61661954       1.77228740
O       18.84079333       1.42542594      18.68516521
Si      17.26464921       0.57170277      19.45783423
O       18.62465207      19.72982934       0.16758646
O       16.28686236       6.88797971      18.07675409
O       19.64915755       4.16409510      16.94617157
O       15.74053887       5.16222173      13.77658734
O       17.03067311       4.01255631      16.52823767
Si      16.00086760       4.20017553      18.26511654
O       18.13861885       1.79151943      16.51632868
O       15.85811466       2.43451707      17.92734517
Si      16.57852007       1.76660097      16.30256853
O       16.94087029       2.84354532      14.46611356
O        2.56261888       0.07326746      17.54691722
O       19.82748391       2.78089816      14.61270256
O        4.17093291      17.78249537      16.40881696
Si      18.90190630       2.97601776      16.07945657
Si       2.50134291      18.60509943      16.72704412
O        2.72435028      17.67992848      18.85513925
Si      19.98307942       0.33350928      18.92126338
O        2.67261565      18.70111437      14.85459191
O       19.85613090      19.11135573      17.74351203
O       15.75365925      18.07026510       5.91157053
O       15.28325158      17.94744263       8.55976844
O       16.19271000      17.05724438       3.23470335
Si      16.21327860      16.74346906       5.07948508
O       15.47592715      15.21060101       5.69450756
O       14.58605788      14.15146930       3.83387151
Si      13.48616559      15.32187084       4.99914759
O       13.78996903      16.92213308       4.44906888
O       11.97775721      15.08126311       4.50167156
O       13.24927532      18.46583783       6.68377342
Si      13.71578303      17.34926848       7.86798683
Si      11.05406894      15.70295558       3.20130689
O       13.48920542      15.75164907       6.89010537
O       14.14332582       3.23772007       4.56582080
O       14.32788991       6.02952314       4.29554360
Si      13.27409017       4.98051247       4.82372435
O       12.66756130       1.36775148       5.43185918
O       11.95701496       5.37304142       3.77867339
O       14.68930541       1.93632524       7.14590333
Si      13.14427378       1.85226892       6.96692773
O       12.80679939       3.44433171       7.29295029
Si      13.40667312       4.09884794       8.64902534
Si      12.41097196       2.25532984       1.51694538
O       12.62859128      19.75230304       0.49077423
O       12.95833280       1.28176298       2.65765967
O       10.18769424       0.47418960      19.96601169
O       10.76990389       2.40181078       1.31550476
Si      13.66634687       1.41825574       4.09823563
Si      11.07042085      19.40718252       1.03311683
Si       9.78629618       3.56262435       0.96763570
O       14.29432651      19.78286703       4.37553751
O       10.12258005      17.76911660       0.91278512
O       11.18174405       4.94169755       0.75317495
Si      13.25975394      18.43592442       4.96246817
O       10.70531292      19.94989093       2.44841991
O        8.59639573       3.16196275       2.44341801
O       11.56545809      18.49657106       4.50245110
Si      10.26355088      19.51048033       3.93496502
Si      10.76046166       4.69994721       3.30387735
O        9.99517798       0.78075943       4.77794876
O       10.89003840       3.13349116       3.98433922
Si      10.04433965       2.32147020       5.05843485
O       12.77759887      17.35493977       9.17905239
O       14.53886889      16.74310333      11.31600488
Si      12.90917918      17.78144312      10.81030412
O       13.26008766      19.49115470      10.63882547
O       11.08224307      17.46935334      11.35275077
O       12.74604829       1.50849345      12.30157055
O        8.34262859      17.61785486      12.10840989
Si       8.66503404      18.96964818      12.85489564
O       10.28534418      19.56359155      12.72672828
O        8.76461920      18.42123559      14.37893505
O        9.30113026      14.53520371       5.37334900
Si       9.09036637      15.47520470       6.89804645
O       10.25725895      16.66281345       6.82859232
O       10.27152724      18.14745156       9.01399121
Si       9.70247725      17.06587652      10.13609138
O        7.86230703      17.44578098       9.66683045
O       12.19432927       1.06941153       8.12418672
O       13.29747096       2.68605668       9.86955254
Si      12.52629531       1.08546672      10.68661731
O        9.42176713       0.86217691       8.64001821
O       10.84559783       0.91907045      10.72505102
Si       9.32511906       0.44749856      10.12217600
O        8.68253893      18.82703195       3.96167617
O       10.44352888       2.34527602       6.63582953
Si      10.62517426       1.02457479       7.63069066
Si       8.16569384      17.31185384       3.81133365
O       10.74159338      19.51180331       6.83195453
Si      10.09345568      18.22381827       7.34909474
O        6.71194687      17.02052490       4.70297097
O        8.42112936      18.50860175       7.18606905
Si       7.21184075      18.19343489       8.21171078
O        6.33977210      19.51081896       8.45453014
O        5.88912911      19.74363083      11.09100800
O       16.60202876       9.79378542       2.30012306
O       19.13791820      10.73937997       2.82078419
O       19.46394174       8.41622292       4.13229388
Si       0.33809732       9.74643238       3.47906328
O        1.35546709       9.57246477       2.25472317
O        1.20162717      10.50182973       4.69973701
O        3.90227137       8.68543386       2.20724787
Si       4.25365116       7.07062759       1.65337081
Si      17.59335929      10.98551302       3.22150343
O       17.63321994      10.99714097       4.90658323
Si      18.07222638      10.59471163       6.32048861
O       19.27586896       9.38006430       6.54069724
O       18.61258690      11.79397735       7.27087334
Si      18.82504244      13.38470617       6.85492085
O       19.63522690      13.67324944       5.20996206
O        1.95046195      13.02776243       4.07619561
Si       2.18675273      11.79830910       5.09355559
O        1.66777524      12.38777138       6.65596542
Si       1.99086207      12.24232936       8.25637583
O        1.23414840      15.57225190       0.11275005
O        2.59728784      10.46195377       0.12563126
Si       2.83260823       9.98551324       1.75075672
O        2.94605111      13.59725620       0.80393680
O        3.44822525      11.40225131       2.29563168
Si       4.25374394      12.60744747       1.36139042
O        5.32116022      11.77548432       0.02126083
Si       6.86597963      12.30905516      18.94041090
Si       1.20442304      14.12424277       1.04193040
O        0.68917138      14.72194317       2.62199235
Si       0.96035134      14.34646973       4.23412108
O        1.63755516      17.90596938       6.45627668
O        1.79760380      15.47633674       5.10171877
Si       2.44121436      17.02637635       5.19135171
Si       4.12884491      17.90749857      19.65699082
O        2.85414842      17.84928093       3.74740946
O        3.63391147      17.80863598       1.22120163
Si       4.31651903      17.85173244       2.65527781
O        3.80618185      11.51070695       5.05239833
Si       4.93665004      10.37204093       4.74246562
O        5.75735741      10.53457491       3.20986480
O        6.16889207      10.64772097       5.84160945
O        7.51191960       8.66407067       1.84748416
O        2.72420402      13.71365557       8.93213223
O        3.46934888      11.46432547       8.39385647
Si       4.51370775      14.07514257       8.77705740
O        4.80613156      14.72686825       7.32918457
O        5.04954926      15.09289771       9.97951551
O        7.07197986      13.06796999       6.04420811
O        5.98387867      17.47107658       7.29375081
O        5.28368741      13.43230534       2.31623522
O        4.80674635      16.25991570      19.58108649
O        6.48532089      13.99156468      19.34129772
Si       6.07971018      15.54824945      18.92905656
O        7.96265122      10.85362230       1.52342231
O        6.02739565      15.76905269      17.11589791
Si       7.28224163      10.33408618       2.78249843
O        7.52200520      14.72925245       3.12493665
O        7.41712469      16.48009932      19.67188076
O        8.32145683      12.03819461       3.44019375
Si       8.66963461      13.71503877       2.58234248
O        8.61635978      13.78508676       0.82317489
Si       9.64205693      14.34171011      19.40778681
O       10.27378200      14.26539662       2.67591388
O        4.03552182      16.83747722       5.70554924
O        5.23527441      16.30458625       2.49326796
O        5.34844965      19.39816439       2.35881273
Si       5.78157554      14.85364881       3.12924242
Si       5.49448884      17.68622543       5.69769373
Si       5.39049279       1.03792883       5.42794523
O        5.34673310      14.71405169       4.70746909
Si       6.05895623      14.55148213       6.18653048
O        7.41881941      15.65749322       6.72873183
O        7.96229176      19.25491034       0.69682528
Si       8.24370784      17.53409881       0.94832769
O        9.74555395      16.55851217       3.96644078
O        7.78802107      17.13433016       2.24469327
O        3.39133179       5.95499013      16.37778723
O        1.29666720       5.31461340      13.12219585
O        2.84505764       9.25355604      18.09321243
O        4.18439718       8.56394798      15.97052095
Si       4.57024947       7.12152004      16.52854523
O        5.50868221       7.22215023       0.72072109
O        4.75348252       7.51109887      18.20545230
Si       5.99045164       7.75137420      19.22430026
Si       0.25107384       9.23224673      15.49292588
O       19.45427291       9.77291676      11.32386093
O        0.70799116      10.41198828      13.46863860
O        0.37866946       7.76922858      13.10277695
Si       1.37860895       6.70178211      13.97983827
O        3.27156831      10.08107743      13.08372868
O        2.89499491       7.43401170      14.01806735
Si       3.92966878       8.44285405      13.12617219
O        1.76229847      12.65867759      14.06998564
Si       2.12238926      11.00321128      14.04018970
Si       2.79796484      14.05094221      16.75081087
O        2.30855560      10.46772050      15.64470054
Si       3.40657913       9.84593577      16.70451653
O        4.11956888      13.35845011      16.02123349
O        4.09274125      14.32632486      12.54356209
O        4.52916111      10.96302190      16.96330508
Si       5.28994742      12.11165892      16.04693207
O        5.28854244      11.37625408      14.31098934
O        4.67400625      10.91408246      10.98195178
O        7.06623523      16.57734558      14.34065959
Si       5.82081805      11.35220749      12.39827997
Si       6.77188039      15.39461409      15.57319351
O        6.05884613       6.45498715      16.17143835
O        6.41259249       4.00036170      15.85367703
Si       6.58858120       4.99151358      17.00281384
O        8.81452384       3.82379812      19.74464340
O        8.75324601      11.54355060      19.48602041
O        7.11544543       6.55554843      18.86152773
O        6.50354330       9.37126294      19.32988882
Si       7.61716404       5.18008909      19.94649660
O        7.36357156       8.55187451      16.98081519
O        9.76890158       8.90395164       0.37052654
O       11.93635474      10.29567744      18.87833535
Si      10.60624236       9.13442613      18.76414824
O        8.62878729       6.25044490       0.78258349
O        5.47572733       8.59334153      13.84666632
O        6.68961940      12.29491940      17.16139950
O        6.99978575      10.36719620      12.51158575
O        6.07391836      14.19172579      14.48800472
Si       7.08020405       8.93642728      13.36574496
O        8.27780535       9.27032682      14.59369656
Si       8.76749008       8.68267629      16.11346363
O        9.80000696       9.54846728      17.21538068
Si       5.79955807      14.20248891      12.79959618
O        6.28276221      12.79448682      12.20023282
O        6.84382190      15.32910370      12.05861269
O        9.54675033       9.00256583      12.06635803
Si      10.11588236      10.51940278      12.28182825
Si       7.99089423      16.22772930      12.74153347
O        9.42359830      12.75216665      15.34855386
O        9.31821242      12.01036009      12.72554946
Si      10.33738968      12.35618610      14.25278452
O        7.92660580      10.67797597       8.04503952
O        9.35491291       8.61523085       9.36586088
O       10.17416961       7.25599132       5.71741840
Si      10.46603526       8.98892940       4.96183588
Si       6.48070055      11.25335208       7.47493740
O        5.83588932      12.74913108       8.48336327
O       10.00547037      15.53234443       9.64331896
O        9.18546136      13.89924523       7.61228771
Si       8.79473804      13.05704332       5.96799691
O       11.49344297      10.74192782      11.33756579
O       12.18316177       8.54106926      12.63844116
Si      12.79762962       9.68558531      11.44084934
O       12.95782598       8.66411075      10.23498949
O       14.30194015      10.43639480      11.58506848
O       14.33810354       7.12831690       8.61713673
Si      15.66897493       6.90075134       9.54880176
O       16.79430595       7.59824772      14.01674314
O       15.34888292       7.12821279      11.29545076
Si      15.92440131       8.04941466      12.65112366
O       16.48768670      10.95681760       9.66277223
O       16.85741952       9.23277221      11.82791215
Si      17.26456711       9.46057307      10.04156911
O       16.16230264       8.46607221       9.37183646
O        9.51504488      15.31093070      13.01804892
O       10.82651515      10.73729992      14.00680613
O       11.41614354      13.50887269      13.75110891
Si      11.25188200      14.72858365      12.53324779
O       11.43817526      13.68006494      11.11754809
O       12.57067833      15.82974273      12.79757219
O       13.79423003      12.28521723       9.70453959
Si      15.11007964      11.64162713      10.54549192
O       15.75289523      12.66242612      11.59130680
O       10.42637815       9.87949559       6.55058533
O       12.15600532       8.33023524       5.17654365
O        9.81820837       9.71493906       3.09032256
Si      11.75088457       7.04826509       6.49768342
Si       9.68068931      11.30035931       1.44218078
O       11.91918359       7.94721072       7.86761655
Si      13.23630039       8.46486559       8.72273606
O       12.71052834       5.76713026       6.31320518
O       12.52302538      11.57354339       6.47879365
O       11.32913262      10.91999655       1.25914389
O       13.88882765      10.01462832       8.33980807
Si      14.01474823      11.04030659       7.09482361
O       14.44108887       9.94453359       5.90783401
O       13.32391523      10.03370217       3.45635050
Si      14.82572948       9.98288662       4.42507062
O       15.03549071      12.45276647       7.21251668
O       15.91365216       8.25032559       4.54847768
O       17.00366973       9.32816613       6.94471758
O        9.88195223      12.08203047       5.84028024
Si      11.01478139      11.44974416       6.93557298
O       11.15664396      12.33851307       8.60721723
Si      12.35531647      13.26087835       9.68003169
O       12.99562880      14.69757375       9.21226268
O       15.42168922      11.88495153       4.57477589
Si      15.79646162      13.32803709       5.95520286
O       17.31992502      13.74906510       6.39830703
O        3.44710571      19.15702916      11.80587676
O        4.15890279       1.26803936      13.29243243
Si       2.99552581       0.53277104      12.32298281
O        2.95357765       1.78980947      11.04610477
O        1.50764638       0.36624883      12.83113332
O        4.65078358      17.91764256       9.98415927
Si       4.91448552      18.43125374      11.52185230
O        5.16369368      17.81713493      13.12910445
Si       4.08153805      17.52541809      14.54952451
Si       2.82151806      15.41984258      12.80891675
O        2.67129772      16.49000321      11.57156878
O        0.39708906      18.16101332      11.43809380
Si       0.13034868      19.67037186      12.10928345
Si      17.59352701       0.30314987      13.81568404
Si       4.69270501      19.42475283       8.68919454
O        3.69621923      18.81651702       7.65648738
O        5.26962872      19.32482272       5.14851556
Si       3.54784426       2.28767454       9.58052868
O        1.29944454      19.75542045       8.53793322
O       19.98726941       0.04882123       3.67907299
O        2.01297866       2.47910863       8.60146999
Si       0.97357295       1.22047557       7.86757977
O        1.24328585       0.85275119       6.14649838
Si       0.35928991       1.28924639       4.82261761
Si       2.05650199      18.36210100       7.91343575
O        1.96291840      17.26065602       9.09230189
Si       1.36370073      16.97159497      10.63332749
O       19.23442580      14.21828891       8.28770230
O        0.19038398      15.74091876      10.31468400
Si      18.98281253      15.63152123       9.12294397
Si       0.12410272      18.48942997       3.12273203
O       19.42009234      16.90700711       7.81992925
O        0.17693252      17.50247193       4.56374592
Si      19.08195338      17.50249559       6.07426193
O       19.57919524       0.76175750      10.90855254
O        0.46444755       3.08458295      11.84234447
Si      19.07674381       2.36348753      11.04672342
O       18.96005615       3.11104875       9.61424088
O       17.46716473       2.24126864      11.87671322
O       18.02968116       5.40631503       9.57096913
Si      18.01664834       5.64628202      11.27403077
O       16.18777445       5.11623320      11.21980375
O       14.75944769       3.09706275      12.04835669
O       19.03575229      19.69091568      13.32604149
Si      16.47540082      16.70986154      11.38262579
O       16.77811531      18.29721941      10.90941542
O       15.57750919       0.77519830      10.26984580
Si      15.72598641       1.67172256      11.76664632
O       15.20696765       0.55961391      13.07954746
Si      14.45204393       0.64143090      14.72091879
O       19.33692365       1.36032128       7.83900200
O       18.93281740       1.95436147       5.15689201
O       18.97317108       4.48958317       7.19798259
Si      18.12685738       4.21504593       8.64778374
O       17.01571386       1.47270780       6.51813514
O       16.62598448       3.58239086       8.20893521
Si      16.10036828       2.94268957       6.79035326
O       16.39192889       4.65396405       5.53486886
O       17.35705333      15.74940679      10.03459361
O       18.59357702      19.16791832       6.18473449
O       17.82278832      16.56745608       5.54819406
Si      18.05153453       0.40220832       7.27741157
O       17.48095905      19.61445065       8.64283930
Si      16.21400580      19.22189305       9.57708257
609
Lattice="20.00089468744386 0.0 0.0 0.0 20.00089468744386 0.0 0.0 0.0 20.00089468744386" Properties=species:S:1:pos:R:3:charge:R:1:forces:R:3 relative_density=0.96 cell_dim_angstroms="_JSON [20.0, 20.0, 20.0]" n_grains=9 grain_size=12.0 crystalline_fraction=1.0 grain_radius=9.537136187179533 energy=-43382.18310755351 dipole="-54.573027625538224 -40.18340673380349 13.459224409428955" stress="-0.18631109336545057 0.00020037656964225662 -0.005635141648311875 0.00020037656964225662 -0.18455828767192387 -0.004537835787836825 -0.005635141648311875 -0.004537835787836825 -0.18487488581970377" pbc="T T T"
O        7.22383778       7.76246322      12.26485548      -0.47713492       0.18810306       1.13497329      -2.66473037
Si       4.24707102       3.03203688      12.73645808       0.86911064      -0.45576460      -2.34278476      -1.90054974
O        5.03525405       4.14260705      13.69034602      -0.43143688      -3.99768915       2.86781136       0.26987497
O        5.70881141       2.42292881      11.64725300      -0.45039679      -0.41938619       2.92384944      -1.24549827
O        7.35490361       5.40594177      13.37632323      -0.46201669       2.95646897       3.24938630       0.64336486
O        7.24143930       0.09603531      13.09916929      -0.40580355      -0.50014392      -1.04097098       4.34814791
Si       7.32862690       6.18488672      11.81785780       0.94995216      -1.86052550      -2.58772598       0.71893079
Si       6.63121391       0.96654296      11.79285466       0.91483230      -0.55544307       2.25828084       1.72712934
Si       6.62618790       4.18032252      14.20361679       0.95269903       0.49884186       0.24638466      -0.59355081
O        6.67807006       1.09609486      16.26391072      -0.44426201      -2.19240688      -0.85514146      -0.87738792
O        7.88478934       1.08044310      18.49094680      -0.44032973      -0.38479243       3.93276563      -1.74145284
O        7.27263027       2.67510691      13.82294834      -0.49321693       1.03000041      -3.59186468      -2.94178482
Si       8.06625429       1.82184203      15.17421088       0.91850656      -3.29475414      -1.21209262       3.10446260
Si       8.82287804       0.07165395      19.42708103       0.89491553      -0.79219613      -0.50952166       0.28769451
O        9.03593666       3.01555402      15.77834316      -0.46433501       0.92043280       0.85777498      -1.93219094
O        8.07615322      17.46478041      16.50062453      -0.29954400      -2.34693052      -2.26390219      -2.08934444
O        8.33035683       4.88668551      17.47610942      -0.47838492       0.29825202       2.14976138       1.99758466
O        9.21786967      18.67546374      18.47410736      -0.46859858       2.40379255      -1.66889812      -1.02135130
Si       9.71568802       3.91764984      16.97392586       0.93523095       0.34277034       1.06602306       1.75163465
Si       8.75634452      18.90248168      15.79554113       0.77503830       4.06222812      -1.98372770       2.71856002
O        8.75276515       6.30145432      10.90294433      -0.45594980       1.75266211      -2.68759279      -2.25054669
Si       9.69989059       7.77514053      10.80107290       0.92792679      -1.98497251      -0.23893443       1.78704073
O       11.18476338       7.08399863      10.57458696      -0.41191863       2.67334752       2.57642374      -0.95901082
O        8.02783239       1.34819661      10.84883511      -0.35176550      -1.56863229       5.55344497      -1.45118525
Si       7.02415534       3.21590720       9.82597339       0.72131906      -0.40130413       0.30924839       3.80596825
O        8.10980073       3.81434691      11.38785089      -0.44228340       0.07619618       0.72862565      -0.09159023
O       10.97085633       4.51551342      11.10521476      -0.39760278      -0.30374270      -3.55129674      -1.83484628
Si      12.06841808       5.70816132      10.75989983       0.84271417       3.55485628       0.28365299       3.90740957
O       12.49368541       5.36555448       9.19597149      -0.29920730      -1.61231218       1.92393843      -2.54058720
O        9.44168997       7.15592434      15.75184937      -0.44473940      -1.61916671      -1.88434002       1.43936759
O       12.75430069       4.94813787      17.64472424      -0.46322461      -0.18568595       0.66837448      -0.25589556
O       11.04919268       7.49931914      18.51830481      -0.41666574      -2.56820841      -2.30962177       1.05004186
Si      12.53275693       6.87931002      17.94878711       0.80183751       1.47677350      -2.44776942      -4.66276702
O       12.07142890       6.88734946      14.72848048      -0.38459736       2.94772274       0.63103484       3.24295500
O       13.68138251       7.15984283      19.10292468      -0.46092509       2.61611658      -1.27789300      -1.92931997
Si      12.96023788       7.32586930      13.40042704       0.88465647       3.10335507       0.66614908      -0.65723959
O       14.43855285       8.28403775      13.52072423      -0.39484470      -2.10710938       1.73000389       2.86408770
O       13.35149587       5.78889493      12.35889089      -0.33564246      -2.83703196      -1.14125960      -2.95264892
O        9.22609209       1.06652255      14.22596604      -0.47595480      -1.89567592      -2.25013260      -1.36000166
O       10.76978090       4.92854654      16.03773533      -0.46572964       3.15342390      -2.14940914       1.44687689
O        9.48128874       0.31581823      16.60141156      -0.43149873       1.44640200       2.78568460       0.92964719
O       10.74509334       2.87942973      17.97981529      -0.38577094      -1.41972920      -1.90798434       1.45710944
Si      10.56837022       6.23558061      15.01708661       0.94412648      -1.39371001      -1.90593223      -2.96088907
Si      10.77363374       0.86129768      13.67864556       0.81526375       1.86490269       4.25703258      -3.83317216
Si      12.46558797       3.00512549      18.31301986       0.77620480       2.50443580       3.30752501      -1.17406720
O        9.93702385       5.67404803      13.39279464      -0.52743643      -0.75830591       1.46138691      -1.58277874
Si       9.85288491       4.20355882      12.31716270       0.79138431      -4.60003880      -1.29898433       0.57046949
O       11.71850752       0.41929794      14.97662516      -0.37284579       4.33584417       1.65275106      -1.32343253
O       10.86916984       3.05793434      13.37270515      -0.34764271      -0.87622932      -3.70095765       2.09621321
Si      12.80013575       3.02652084      13.32044034       0.41655575       0.78132220       3.62313434      -0.86815510
O       13.55668241       2.18764154      14.73570619      -0.40624282      -0.49064947       0.49045570       2.52917875
Si      14.95768899       4.81262076      12.26903484       0.86824207       0.69361432       0.75954934       1.17655277
O        8.06800872       5.50353459       7.34541513      -0.45896066       4.25203339      -1.11612061       2.63375961
O        5.11816696       3.47868843       9.47499482      -0.39643958       0.76542052       1.07150130      -0.68483596
O        7.85006592       2.96576759       8.28034195      -0.34962961       1.82677163      -3.34254368       1.73819410
Si       7.82564749       3.87477895       6.86995661       0.90116581      -0.78425248       1.75884304       0.14943986
O        7.08838842       8.07159632       8.00258598      -0.42698184      -2.67383429       0.07730277       0.45898064
Si       8.85774312       7.73462667       1.42017168       0.87246573       1.65420278       1.83235453       1.26995188
Si       7.13934778       6.85092436       6.94300782       0.93190375      -1.92307915      -1.27311325      -0.42398094
O        9.07430365       7.07102622       3.18007982      -0.43803542       2.77283180       0.35113642       0.38270920
O        7.62130584       7.35368197       5.44760998      -0.43156161       2.73480771       3.64031520      -0.63389837
Si       7.47222576       6.68842971       3.92332496       0.84166700      -0.63170634       0.03797415      -2.75696896
O        4.01877407       7.63652033      11.58196459      -0.48656728      -0.54094061       1.13877120      -1.93258254
O        5.95689079       5.77704174      10.78402289      -0.41786377       1.87332819      -2.01431344      -2.37372106
Si       4.29760938       6.05330567      10.81536242       0.89381003      -1.55502230       1.54182473       1.17116486
O        3.38234785       4.60311105      11.46751577      -0.42715506       1.94063444      -3.59016923       1.36937265
Si       1.53137078       4.50938190      11.70194221       0.93049211       0.92086942      -3.24319056       0.05836385
O        6.87811059       9.29502886      10.21712306      -0.48979915      -2.71221284       0.49038253       3.80841171
Si       7.92090084       9.18167161       8.90617640       0.90765420      -0.09181676       2.95490698      -0.18375676
O        5.51830392      10.08077287       8.21605062      -0.42944415       0.72961205      -4.81644079      -0.86189121
Si       4.32693579      10.30849988       9.34817279       0.95581366       0.28555014       1.67120696       3.01204096
O        3.22784765       9.03227064       9.24718435      -0.45686913      -0.18611518      -4.04014712       1.63313363
Si       1.67865385       9.14080632       8.44094459       0.86481618       1.52452391       2.28866240      -3.15609543
O        8.51985264       3.40301847       5.30277804      -0.31193104       1.64896946       0.22725151      -0.06877856
O        4.21875102       1.01373147       8.84205263      -0.45478931       0.73147554       0.04624565      -2.08365791
O        5.44888152       6.42405040       6.69752863      -0.39335537      -1.81573888       2.31917096       0.94964657
O        6.25028882       3.79067449       6.23768242      -0.50130208      -0.21221353      -3.14249301      -1.43462856
Si       4.95083250       4.88759691       6.18202885       0.81986148      -4.30780311      -0.26893226      -1.08157862
O        3.76366205       3.91482270       7.27299415      -0.48324296      -1.72509053      -1.67790547      -1.29327440
O        6.38541232       1.98119412       4.13961273      -0.40151498       0.16348509      -0.51114618      -2.43582771
O        3.84907249       4.26866896       4.73961608      -0.36537815       0.23168566       0.19935125      -0.77998156
O        3.72852448       1.58874468       5.53732442      -0.32269778      -1.05604713      -3.94409093      -1.13591918
O        6.98485382       4.99554710       3.79178416      -0.45492742      -2.60251755       0.84061926       0.29686063
O        5.94010672       7.44475898       3.50790081      -0.41816803      -2.04861343       1.03036034      -1.17235669
Si       7.53297068       3.42398969       3.76542199       0.87104156      -2.15753736      -2.18243774      -1.96653262
O        4.22010865       8.81675517       4.90085860      -0.37601454       0.55815989      -2.40835607       0.16765381
O        3.02359344       6.50101161       5.69585025      -0.37066313       0.32514005      -2.52592507       0.89975887
O        4.41975581       5.49132854       2.55774181      -0.39199442      -0.47981590      -0.77935023       3.43586627
O        3.43667470       6.23636778       9.31332984      -0.41187003       1.66734282       0.30486960      -2.35939431
O        0.96772114       5.29555785      10.35195089      -0.46677254      -4.62869572      -0.16277038      -0.37800164
Si       0.14911342       8.15743261      11.43197636       0.59030321       3.80696285      -0.09121328      -0.69107660
Si       2.84838839       3.00451982       5.78037336       0.82260737       5.18623520       5.59801440       1.60586144
O        1.43559291       5.61764750       7.62065062      -0.43353024       2.68848675       1.14954313      -1.14656411
O       18.80288360       7.17680796      11.10244982      -0.41055213      -2.72849667       0.51799866      -0.42804178
O        1.29837968       3.41550143       6.24869660      -0.39452278      -2.34990220      -4.47864941       0.43133333
Si       0.46482125       4.81515730       6.55901030       0.98162711      -0.79475077       1.24073368      -1.43947677
O        0.43235700       5.81694492       5.16652089      -0.41991864       3.80964404      -1.08930963      -0.98562341
O        1.00735368       7.77003302       9.20400987      -0.38408413      -3.44390164       0.18968621       1.10223429
O        1.03189771      10.79726375       8.89623460      -0.40217309      -3.23991340      -0.18174159       1.72407232
Si       1.66367314       6.17519572       9.13076308       0.92062102       3.16689114       1.07329248       0.51559268
Si       2.66032595       8.01041816       5.06215942       0.79177706      -1.74084934       0.60781366      -1.22786048
O        1.83956127       8.80637167       6.62098804      -0.47668932      -0.38718541       0.52296634      -1.39180370
O       18.60845375       8.48864354       8.98273272      -0.37111650       1.86534940       0.84057006       4.36819623
Si      18.31822388       8.00840165       7.37021158       0.76233112      -2.85882640       6.79840983      -3.02536885
O       18.20184975       6.86256820       6.13374385      -0.40884403      -1.94958068      -3.80774132      -1.25478985
Si      19.24080091       6.80907163       4.55290028       0.93864004      -1.07659785       0.96153523       2.45961978
O       14.04869931      12.20394966      13.76377400      -0.42054984      -2.41526394      -1.46913267       1.01277721
Si      15.45421979      13.04771175      13.17105184       0.90864915      -3.66018598      -2.07417288       1.30917726
O       15.15821518      14.68701777      13.13589837      -0.46472120       3.11218734       3.34534760      -2.26921731
O       18.50196570       9.61509376      14.16347503      -0.42321933       0.67691369       0.82901272      -0.65366611
O       16.78301671      12.67877011      14.10241371      -0.43403173       3.04450526      -4.03686023      -1.37232196
Si      19.25631586      10.84615068      12.63319204       0.77301911      -3.20762553      -1.30561615       5.29526077
O       19.53359903      12.58578075      12.36786927      -0.37241567      -1.39615720       0.84631830      -2.96881245
Si       0.30266598      13.63224323      13.55828666       0.88197035      -0.33479761      -2.04361975       2.31990283
O       13.12730811       8.46548149      16.98956710      -0.41921265      -0.98804799       0.09705236      -0.26432507
O       17.41396130       9.89202744      16.62996700      -0.47043164      -4.42213683      -2.47424658       0.04610824
O       15.23402968       9.02679991      15.69765468      -0.39077129       3.24996753      -1.63128752      -2.46767879
Si      17.40605160       8.47241754      15.32516322       0.88601825      -2.84959134       5.96336326       0.85438361
Si      14.63135006       9.69182440      17.15071043       0.83932004      -0.90629842      -1.06982124       2.89273829
O       14.32595978      11.45183271      16.76470277      -0.43055629      -1.51501378      -0.11577653      -1.46733096
O       12.80071809       8.61632116       1.19694935      -0.43952810      -5.17535811      -1.40079876      -0.09149320
O       15.70405899       9.69967638      18.73175268      -0.50678674       0.84557547      -0.14458136       0.55768950
O       15.92244911      14.13982175      16.28764897      -0.45659639      -0.74847847       2.77756010      -0.41367298
O       14.33143467      10.70915854       1.04432014      -0.50055966      -1.38767476       3.29098722      -0.68932795
Si      17.42625965      13.51663535      15.37259731       0.88086000      -0.79832751       2.38875456       0.28784249
Si      15.87890282      10.19689952       0.59666559       0.88204409       1.23793296      -4.91368766       0.30422885
O       18.89571889       7.93743588      15.99093239      -0.40111171       2.85937183      -1.76239726       1.06024054
O       17.93803180      12.57093151      16.60134539      -0.46714017      -0.27603357       2.05075228       2.85868649
Si      18.52489034      11.09334250      17.02607797       0.97058104      -0.18577571      -1.73898892      -0.76040647
O       13.25229609      14.82240011      15.04974410      -0.51031814       1.01561014      -3.68002373      -1.77301387
O       10.64650066      18.09239999      16.08196197      -0.45048239      -2.69443336       0.63612094      -0.73515384
Si      11.34708272      19.78612495      16.47368325       0.83172051      -4.27938216      -1.93471030      -0.18944768
Si      14.00716130      15.68561080      13.78654254       0.93549672      -2.10216078       0.82557074       0.79980558
O       12.98903179      16.84080408      16.74599311      -0.45527017      -2.07903091       1.70383260       2.11696016
O       11.75164846      19.68380606      18.05824256      -0.32055832      -2.44451091      -0.36468586       2.52061896
O       14.81191087      17.00384656      14.61016267      -0.47664904       3.38272680       1.19174472      -1.97761515
Si      14.33479799      17.73270966      16.13291251       0.93469792      -1.25894563      -2.57325158      -0.43800540
O       13.68058794      19.19647356      15.59015662      -0.43723821      -3.03450447       2.14290278      -0.18347002
O       15.69654373       0.64340790      15.64062397      -0.39899215       1.63711207      -2.76200757       1.24030282
Si       8.12018750      17.33803809      18.20799996       0.81862449       0.79963311      -0.12353930       2.75701243
O        8.83373347      13.70784088      18.01923003      -0.44352962      -3.11493645      -2.06077423       2.21207946
O        8.30022232      15.10229653      15.80888405      -0.47468354       1.63602224       1.96822503      -1.46552829
Si       9.42360295      14.11192192      16.49516144       0.93744319       2.39680158      -1.04575459       0.10924630
O       11.09990804      13.30693070      19.04388946      -0.36545361       0.06044435       1.41042394      -1.45754763
O       10.82896249      15.07442232      16.45912998      -0.43490064      -1.87981726       2.06368243      -0.19229876
O        9.66929506      16.03331748      18.76500041      -0.48754974      -0.47344334       3.14417118      -0.87222122
Si      12.47877156      15.19770826      16.47615783       0.96414951       0.52197353       1.62955082       0.07998436
Si      12.02828478      12.02472508      19.56972712       0.80472203      -0.36832285      -2.44460322       1.87991904
O       13.19029710      14.04284282      17.47679069      -0.46862245      -0.38982094      -2.27684706       3.40860696
Si      14.67839270      13.13801295      17.24982256       0.88225096       0.90777851      -0.62921458      -2.25387834
Si      12.89096829      10.13347750       1.85536697       0.91541312       1.12482094       1.83459569       0.10964917
O       13.15896065      12.84078673       0.66289893      -0.39472315      -2.53627690      -2.48386861       2.78737446
O       15.13677347      13.11118046      18.88079677      -0.45407970       2.89595827      -1.83062233       1.77579498
Si      14.45800400      13.86777591       0.28402768       0.94197446      -0.16538436       1.19850824      -2.41624478
Si      13.24347114      19.82737115      18.82814511       0.69512084       3.63703195       3.38786349      -0.96337531
O       13.58313911      15.32926881      19.83846963      -0.43865544      -1.74858196      -0.92793605      -2.39617629
O       13.43825441      17.99206619      18.90360494      -0.40260206       0.19947758      -2.49675018      -1.10959396
Si      13.52397197      16.90334312       0.44181194       0.79899570      -3.62733759       1.21152755       3.79757839
O       18.97351674      14.28276886      14.69255025      -0.45353435       0.78117792       2.54136108       0.76137158
O        1.15003021      14.90481666      12.84353266      -0.42558088      -1.40350364       2.16589453      -1.76824116
O       17.18062243      16.40885480      13.04516516      -0.29863699       0.71779195      -3.00391192       0.03934588
O        1.45122558      14.84525984      15.61269096      -0.42750866       2.14242634      -0.51929744      -1.19994420
O        3.24969059      16.16229129      14.22836367      -0.43146407      -0.55594824      -1.23282330       4.31655683
O        0.68196946      16.31977920      17.65690611      -0.49918904      -2.85402951       3.08972157      -1.78514216
O        3.16849403      15.18560131      17.91725084      -0.44851763       3.43162339       1.20918606       1.49928077
Si       1.94382982      16.23125542      18.75924269       0.91386542       1.86784000      -3.26345761      -0.49931429
O       16.97781816      11.47422330       0.52772024      -0.43250538       0.26042956       2.22967108       1.12653058
O       19.83270660      10.86094342      16.01491399      -0.46058023       3.43260184       1.77234781      -2.93134175
O       18.98149710      11.15385253      18.61337092      -0.42514035       3.66297721      -3.25300953       1.81486465
Si      18.52979439      12.07677997      19.90834239       0.94335567       1.28498739       0.29116158       2.76244666
O       17.77347169      13.37249591      19.21916683      -0.44383051      -2.74530029      -0.50631369      -1.16728208
O       19.99447004      12.72083255       0.76622683      -0.46431954       1.20026092      -1.19573709       1.55056092
O       18.49553080      14.96906696      17.39354276      -0.38093602      -1.69939742       0.88663887      -4.08121840
Si       0.11493830      14.80636232      16.93332667       0.77048156       3.42059763      -2.93070380      -0.46611460
O        1.21862996      13.38423463      17.63197354      -0.43379901      -0.67255692      -0.25199300       0.29447583
O       15.54075725      17.80722248      17.29423905      -0.45548245       3.10762798       1.64575126       0.17059152
O       13.43603122       1.49859400      17.63358469      -0.36658517       0.27248078      -0.79168566      -0.71929414
O       16.86955778      18.88646693      14.29695592      -0.31598158      -3.30598298       0.18294640       0.80903861
Si      17.55494792      17.38958466      14.41387925       0.72505886       1.02681533      -0.93006346      -1.17062136
O       17.80224001      17.59043628      18.77245320      -0.40711480       1.07990423      -1.51568142       3.21338049
O       18.13537296      17.23607248      16.03471788      -0.28364458       1.02378583      -2.60971780       0.83845997
Si      18.30607485      18.41996212      17.38387803       0.83663509      -1.46188502       2.37455232      -1.31941655
O       15.67102633      14.20944028       1.32895189      -0.41418193       2.52617455       1.96444005      -1.44685042
O       15.30095054      17.31441009       0.48936943      -0.38826215       1.72816632       1.27637631       3.42997813
O       12.34129522      16.79140420       2.03925367      -0.45704799       0.14038704       0.20542723      -0.20497534
Si      16.04528427      17.26970182      18.88107943       0.84891905      -0.82899577      -0.40537479      -0.18059924
Si      16.24906052      13.94836673       2.87465185       0.84304078      -1.87739133       2.56785285       4.19023828
O       16.28547516      15.53059571      18.68774907      -0.47099087      -4.48442975      -1.14879889      -1.16542087
O       17.16317082      12.56378147       2.77991926      -0.41582949       1.45177043       1.36613281      -1.88634804
Si      17.85918714      14.98976472      18.96581804       0.91167926       1.09234146       2.70875111       3.72506255
O       17.71279175      15.08203019       3.12248565      -0.43125635       1.36161440      -1.26177163       1.58034224
O       18.25821119      15.83397643       0.58592822      -0.47858183       1.93777735       0.73658331       1.15091647
Si      17.68603234      16.65864036       2.20816291       0.81804639      -2.74560748      -2.25415859      -1.34685774
O       18.65564939      17.98033609       2.47512319      -0.36543189      -2.06642802       1.66990560      -1.69257868
O        2.84967096       6.80465126       0.75972647      -0.43077234       0.05573679      -2.05605502      -4.41355350
O        1.68337997       7.34352594       3.32353611      -0.46490747      -0.24253343      -0.57333178      -0.73350241
Si       1.31677784       7.20606152       1.29870783       0.82264518      -0.34159566       3.08444892       5.16502170
O        0.75611246       8.37419219       0.02540446      -0.41862668       1.84409090       2.47842805       2.63479043
O        0.38951039       5.90759410       0.77324787      -0.43045586      -4.55611483       1.17874006       0.96206056
O       18.21421112       8.67755991      18.92068217      -0.45530730      -1.47503781       3.60115375       0.13721835
Si      16.95942022       7.58026645      19.47831281       0.89509657      -0.58321113      -0.59304087      -2.72826324
O       18.87825627       6.00950574       3.15127476      -0.43013157       3.07603446      -1.63902365      -0.39518626
O       17.85308021       6.64108757       0.55045282      -0.47195944       3.42994210      -0.35530838      -0.35365819
Si      17.69549123       5.80386391       2.01854716       0.94582526      -0.05501452       1.31134043      -2.10227090
O        6.54209405       4.43429572       1.08969923      -0.47893073       2.19493056      -0.80793327       0.82883821
Si       4.96442543       4.02083324       1.66905836       0.90839353       0.65842441       0.35386465       1.18842057
O        3.95344343       3.98728553       0.36273575      -0.47005340      -2.82864057      -0.42030309       0.65180551
O        4.75706820       2.28613643       2.14025507      -0.39637392      -0.38113611       0.09297146       3.04180731
O        2.09658011       4.61295393      18.69396619      -0.41479433      -0.80237685       1.09101662      -2.74451368
O        5.74736683       1.23600198      19.70592505      -0.41232082       1.14795753       2.16515030      -0.91877766
Si       0.90187849       4.48742434       0.04766472       0.93035272       2.20896935       0.03984265      -2.46784470
Si       4.99938779       0.79076385       1.23906552       0.87652833       2.05958036       0.07026713       1.20614110
O        1.11188090       2.64687046       3.97111442      -0.43567003       2.38474269       2.32165729       3.60691576
O        1.57194155       3.76189067       1.38515492      -0.45035918       4.95600490       1.71810282       1.56781077
Si       1.01158097       2.51071108       2.29078690       0.89910092      -3.93983948      -0.37816007      -0.76890621
O        0.67661687       8.97366337      17.38426065      -0.41195523       3.38900781       2.16162846      -1.47747174
Si      19.85492033       8.17529284      18.61795169       0.92488749      -1.00813614      -0.93963741      -0.29620197
O        0.95731858       6.28571119      15.61246607      -0.41074423       3.47723812       0.30681910       0.01761285
O       19.68451284       6.52071859      18.12132041      -0.42442699      -0.11547957      -2.82736571       2.74193366
Si      19.60962139       5.91330338      16.54827179       0.91592787      -6.15421752       1.29567498      -5.03503204
O       18.18147284       5.71925368      15.18506241      -0.49307902       3.30141285       2.82604094       3.58696302
O       18.38366116       4.91910429      12.75164694      -0.43981645       3.25704031      -1.99051796       1.55212602
Si      17.31175181       4.60749583      14.21691776       0.86827689       0.02543517      -2.35912109       0.67295377
O        5.27050181       4.86122046      18.20922383      -0.48026099       1.10367909       1.15163806       1.42921086
Si       3.83986666       4.03686941      18.71878404       0.93230635      -1.67755872       1.52499072      -2.16225308
Si       6.20833418       0.45997347      18.03927948       0.74158206       1.36016400      -0.37010736      -0.85298166
O        2.99662358       1.23696099      15.36945330      -0.39723936      -0.31477946      -0.51114226      -3.63189315
O        4.01203036       2.44086337      18.07923668      -0.38331994       3.35830789      -2.01206350       1.10256487
O        6.57002994      18.67926268      18.44840296      -0.51692368       0.05154300      -2.24381953      -0.00309766
Si       2.93047043       1.63713284      17.08527682       0.77531841      -4.41839385       3.67703633      -2.05223694
O        1.87476369       3.17008437      16.43401231      -0.44903334       1.10301273      -2.19541467       1.71359811
O        2.53038241       3.16373655      13.32771564      -0.39646422      -1.48044272       2.17374019      -1.92739199
Si       1.71713900       2.50952637      14.66197472       0.76159363       1.05035524      -1.74848862       3.04776024
O       15.64224610       8.07247646       0.62126224      -0.36945772       3.36410753       3.63600535       3.00559339
O       19.48792268       3.70271764      19.66823138      -0.45062692       0.21451402      -2.20703630      -3.35742381
O       16.24858149       6.14352907       2.75437941      -0.39021474      -3.81792871       0.84981584      -1.46714643
O       17.64662400       4.17236313       1.72703386      -0.43309323      -0.79757359      -3.37950974       4.00373280
Si      15.96945156       6.35104680       4.40395880       0.75331715       2.01691533       0.15697222       4.86777700
Si      14.02485604       7.67827651       0.61248386       0.94330650       0.02527212      -0.16569627       0.03366293
Si      17.91662339       3.42541878       0.26671932       0.95978243       1.77915059      -2.62397351       0.23589546
O       17.11931123       4.48840591      19.24180646      -0.43855358       0.51340612       3.64459609      -0.30548337
O       16.58050945       2.23766794       3.40826611      -0.13070650      -0.59109897      -0.19117248       0.24395672
O       13.81251518       6.25361690       1.47875034      -0.37959716       0.72262461      -1.69400605       4.57096090
O       16.90244940       1.99370989       0.30310994      -0.31582014      -3.55861345       0.49710038       2.83939679
O       14.42575763       4.22701835      19.39963119      -0.40432489      -3.04081766       0.11659442       2.52168068
Si      13.14469305       4.87730188       0.77225386       0.79611803      -1.20186298      -1.32274563      -5.31096634
O       13.16291314       3.71142966       2.00746299      -0.45595064       1.42907641      -0.39303800       3.33359515
O       17.07053921      19.81788307      17.79218467      -0.40317588      -2.11132610       0.44834809      -2.99745440
O       12.86118649       2.28055097      19.88689035      -0.45243239       1.88201084      -1.39441834      -3.32368795
O        3.63656529       0.17327649       0.48606432      -0.42361002       0.19968438      -0.91788382      -4.17006729
O       19.33977658       2.05595054       1.92517018      -0.42416203      -2.61285335      -0.51016489      -1.16440387
O        2.02844222       1.20274401       2.12696231      -0.50531792       3.67500199      -0.36840523       3.64786878
Si       2.06904119      -0.02217552       1.02348129       0.93706271      -1.88843332      -3.31250560       2.05686248
O        1.27109883       0.71152131      19.75502165      -0.38577374       1.84956371       3.51891875      -1.76655459
O        1.25761524      18.58659895       1.75474107      -0.44107478       0.37158462      -3.19558171      -1.51266604
O       18.84000229       1.49200885      18.67515832      -0.52051586      -4.91293189       2.54042193      -0.15146077
Si      17.18628243       0.55330136      19.47824057       0.73280947       5.36410658      -0.41457855      -1.21219182
O       18.61546246      19.58667354       0.28154030      -0.43262231       2.19160710       0.08473186      -1.46185506
O       16.27297726       6.86751577      18.05478686      -0.46193578      -1.43482030      -2.02678409      -2.16829098
O       19.63312667       4.20990208      17.00309515      -0.30446607       1.60775097       0.11837394       3.96789438
O       15.71104267       5.18638652      13.79676237      -0.44445223      -2.46151000       2.20041950       2.03265369
O       16.98745832       4.02796262      16.63551418      -0.46394077      -0.85289025      -1.48293822      -1.92770543
Si      15.88880705       4.22377485      18.15450034       0.77466211      -2.45705422       0.35489208      -1.23588992
O       18.09974315       1.73307060      16.34682937      -0.33978451       2.85508933      -5.67914274       0.59887538
O       15.78177881       2.29221341      18.08784778      -0.43251216      -1.22530384       0.66268512       1.91287709
Si      16.43229366       1.84176021      16.51885993       0.83711439      -1.48123258       6.10409629      -0.58476810
O       16.93240565       2.79329460      14.38438803      -0.55295084      -0.53081666      -0.21107537       0.96585260
O        2.54128462       0.01509942      17.69060184      -0.37611130       0.10970249       0.82353732       2.51744111
O       19.85505888       2.76551078      14.54495600      -0.35507456       1.55312587      -1.16483732      -4.01379324
O        4.23742368      17.74298355      16.48078733      -0.35674528       0.02861966       0.41754782      -0.18111375
Si      19.10833851       2.99092443      16.04268519       0.83874395      -1.09720648       1.41158582      -0.13076045
Si       2.50803267      18.58795192      16.70682181       0.52916705       0.39364580      -3.39780867      -2.45012192
O        2.71787153      17.69598478      18.85864640      -0.35069600      -2.43008581       4.20021785      -1.69553413
Si      19.98021487       0.28524024      18.86141473       0.82382766      -4.35907629      -2.58843261       4.48623503
O        2.59578424      18.75212510      14.78380443      -0.39873793      -0.17717378       0.72650931      -0.23171648
O       19.88586503      19.06570676      17.69473878      -0.36220143       2.90243549      -2.83988320      -3.57094895
O       15.73728569      18.10107707       5.93056694      -0.47026736      -1.56131142       2.84086134       1.90401396
O       15.30766239      17.94394544       8.56237158      -0.46815362       2.05589969      -0.71210498       0.02571819
O       16.13380211      17.13266238       3.22001364      -0.42827426      -0.96527138       0.64975572      -1.83501477
Si      16.24635350      16.75516057       5.05807972       0.85774899      -0.74566842       0.95130520      -2.90976858
O       15.50950316      15.26925045       5.75816147      -0.36650964      -2.66979720      -4.27796685       0.86178886
O       14.51930559      14.08994801       3.71971772      -0.47455188      -1.69275943       1.04086648       1.62607414
Si      13.55523179      15.31902960       5.03546753       0.82389870       4.82449721      -0.86866965       1.45583603
O       13.80384310      16.93607509       4.42238618      -0.44755356       2.00927819      -0.75114397      -3.23555172
O       11.94125448      15.05698668       4.51035528      -0.34860930      -1.85257466      -2.00509372       1.26679482
O       13.23789287      18.48683758       6.70539712      -0.43646340      -1.97557319       3.89392388       0.23478149
Si      13.72799385      17.34923836       7.84207148       0.90382216       2.79060143      -2.17489706      -1.49281305
Si      11.07759858      15.73082076       3.16288961       0.86975874       2.61894881       2.55777073      -3.59869764
O       13.40127632      15.74711650       6.92087538      -0.42470079      -1.08203893      -2.00813399      -0.22667615
O       14.15546904       3.24600167       4.56956111      -0.43138259       2.14337321       0.30821815       0.44751992
O       14.33439034       6.08003211       4.31708877      -0.36362146      -1.67693239       2.28369588      -1.40852183
Si      13.26018392       4.91651677       4.82790789       0.85378239       0.55013952      -4.36300746       0.63265932
O       12.63459530       1.35548582       5.40632083      -0.47584249      -4.15957792      -1.50806333      -1.77744351
O       12.01934562       5.43598654       3.82456376      -0.29555001      -0.20719158       2.82736239      -1.76005296
O       14.82285194       1.93294725       7.28038088      -0.39354886       2.31964195      -1.88601621       2.16263747
Si      13.21184567       1.83576689       6.90300708       0.88109127      -1.36951125       0.56739831       1.17704468
O       12.72842297       3.50181523       7.30075444      -0.41197426      -3.03543634       1.18160134      -2.86890722
Si      13.53212802       4.12215513       8.67615808       0.49930249       5.50233531      -1.80677037       1.22989095
Si      12.39827308       2.17472884       1.47212847       0.93840117       1.52517789       2.70739640       0.38260846
O       12.70190958      19.77994410       0.51540618      -0.40624619       3.75049330       0.96536254       2.63440004
O       12.94179698       1.16458091       2.64255597      -0.37543104      -0.33011928      -4.64291415       0.08965112
O       10.34567475       0.48041126      19.98319308      -0.47338349       2.45530245       2.60161033      -0.00424131
O       10.75445016       2.35671805       1.43687558      -0.36877328      -3.00116815      -3.89254233       1.47171622
Si      13.77227240       1.43451460       4.06158421       0.84310115       2.27091696       2.63811221       1.44988857
Si      11.18757853      19.28361368       1.06827154       0.86097388      -2.65350781      -2.47712150      -2.75187454
Si       9.77529756       3.55647839       0.90850284       0.86039495       1.59871062       5.30428520       2.54773725
O       14.32923006      19.76687434       4.36740511      -0.39204564       3.35867422      -1.17720353      -0.87864758
O       10.14836179      17.74384764       0.91235311      -0.45743009       2.01545985      -2.88761631      -0.07838382
O       11.18184758       4.93407707       0.75020269      -0.49437930      -0.31882172      -0.45850759      -0.33134138
Si      13.26709614      18.44063072       4.96333141       0.92580790      -0.02624434       2.26053631       0.57317689
O       10.69701547      20.03146788       2.46512603      -0.43221086       0.18932918       3.49003495      -0.53187531
O        8.61469229       3.14805040       2.41377550      -0.53217934       0.67828333      -1.52579187      -1.65528965
O       11.56725288      18.47061845       4.50916166      -0.48262938       0.19198027      -2.79301476       0.61219264
Si      10.27469972      19.40178049       3.93930459       0.96442313       0.78619752      -2.07473904       0.65548590
Si      10.59627260       4.74314400       3.34151133       0.38107528      -3.91620840       3.42162807      -2.32130457
O        9.95188010       0.77095284       4.80371465      -0.44133229      -2.11646996      -0.87851858       2.14292502
O       10.93285381       3.17255691       3.93778996      -0.40804326       4.27432867      -0.94204976      -1.69779358
Si      10.01860580       2.36279600       5.01801206       0.92821585       0.10834154       0.10244060      -0.58944540
O       12.75372355      17.35070589       9.19471294      -0.37655068      -3.48550864      -1.38148760      -0.82158944
O       14.52269926      16.74325535      11.32159614      -0.45540320      -1.27831268      -0.37080915       0.61696484
Si      12.91821919      17.75450732      10.81126732       0.84323531       0.76016049      -1.25356892       3.03642363
O       13.28594197      19.49360433      10.63685669      -0.46502263       2.47517792       0.09790010      -0.21733294
O       11.09668260      17.47291402      11.37414463      -0.44328466       0.56818206       0.00444299       1.68321413
O       12.74192695       1.49298720      12.32592178      -0.42063070      -0.53819939      -1.21624062       4.23041476
O        8.31007839      17.53356063      11.90126780      -0.35015345       0.18878343       0.96856208      -3.95080042
Si       8.61258482      19.02530066      12.72112429       0.80699798       0.55742858       2.39074245      -1.71748414
O       10.38097662      19.50025063      12.64024757      -0.37854622       2.44666191      -1.66425848      -1.61556911
O        8.80719572      18.35879056      14.23887171      -0.36591308      -0.03909457      -3.12941608      -0.08191366
O        9.29119660      14.52256043       5.28550712      -0.49488159       0.09015455       1.12965756      -0.31647879
Si       9.06729029      15.43295855       6.97351696       0.82034343       2.09015001      -2.25374704      -0.96611446
O       10.29442907      16.65198690       6.80465764      -0.36670902       2.78523456      -2.75129409      -2.44940738
O       10.29590581      18.17764665       9.04411138      -0.46585964       3.06362090       3.88039318       2.12748078
Si       9.67570646      17.06340717      10.13448015       0.81948496      -1.51505151      -0.71352974       2.16435575
O        7.85619579      17.40620816       9.57594803      -0.52065897       0.01965698      -2.04408428       3.35839825
O       12.22276078       1.07507553       8.15719596      -0.41959594       1.44402583      -1.45156029       3.33652916
O       13.29543558       2.67530215       9.88948919      -0.50692995       0.22791739       0.05831546       1.41508121
Si      12.52379166       1.10868597      10.66385003       0.90154594       1.36461837       0.77651958      -3.80212408
O        9.26759987       0.85983456       8.68522690      -0.38449262      -4.45716996       1.32724194      -1.71494819
O       10.85898776       0.95917769      10.71147523      -0.45316967      -1.75370032       2.29349155       0.87012659
Si       9.29376929       0.31796940      10.29255099       0.50355285       0.74118705      -6.52820597       1.36290060
O        8.65269972      18.87801269       3.96672531      -0.45829516      -2.41020115       3.47255305       0.42798042
O       10.44302646       2.44935880       6.62246828      -0.45599008       0.58179230       4.72051593       2.78530521
Si      10.52129940       1.15700000       7.67435473       0.87971127       2.25302200      -2.60895844      -0.08649583
Si       8.17155897      17.27651533       4.00501325       0.96065118       1.84211214      -1.58863584       1.31058068
O       10.78945627      19.59653416       6.75278804      -0.46664052       2.31745151       1.87902975      -3.30512252
Si      10.14719181      18.20408667       7.40228798       0.91754013      -1.23759080       0.29981303      -0.92176048
O        6.69406675      16.99569342       4.70684930      -0.45541105      -1.95288159      -2.70535085       0.02765341
O        8.44642373      18.53803406       7.12041576      -0.53727486      -0.12699968       1.83817745      -4.12766745
Si       7.23438014      18.14362736       8.19812772       0.90158279      -0.39597777      -0.45023776       0.19856873
O        6.34419565      19.63355737       8.50591790      -0.47062929       2.95130280       3.23753053      -0.49631453
O        5.82802179      19.75679572      10.99669433      -0.48528466       0.22532757       0.24462167      -3.76732156
O       16.56064712       9.70157259       2.37064857      -0.48992039      -2.03695543      -0.82939013      -1.68876343
O       19.17337504      10.73594262       2.80113369      -0.46779482       1.33839179       2.70488699      -4.18009302
O       19.44932052       8.40107578       4.14224682      -0.47035200      -1.19951809       3.05482713      -0.18421211
Si       0.32374076       9.78019080       3.51350426       0.98567057      -1.45517670      -2.59804565       1.35514063
O        1.33804477       9.55592249       2.23681354      -0.44516077      -1.77481173      -2.09831827      -2.57523447
O        1.20244210      10.50392160       4.69931148      -0.45868452      -0.52017296      -2.44098963       3.33929876
O        3.91986513       8.69715031       2.23719953      -0.46708297       1.71705576       0.92765624       2.86100096
Si       4.22956871       7.06634964       1.67747414       0.94114581       0.16594319       0.12197118       2.93968998
Si      17.57878048      11.01719133       3.16596718       0.94223108      -2.31361690      -2.58827124      -1.35003865
O       17.64298339      11.01456855       4.81197993      -0.45072054      -1.10291829       1.67497718       1.18314809
Si      18.03629658      10.58763477       6.33718245       0.82713061       0.28709132      -3.03290017       1.65034767
O       19.42486661       9.35391840       6.52527854      -0.47400201       0.36439936      -1.70400292       0.49126849
O       18.68034661      11.78540841       7.34374944      -0.41696194       1.61141846       1.13430139       3.19520827
Si      18.89301427      13.49703211       6.86233928       0.90355972       2.45794645      -1.60645117      -2.46195015
O       19.62190866      13.66788076       5.20399831      -0.47931263      -1.34957528      -0.63264090      -0.86413017
O        1.96068432      13.03636287       4.05518120      -0.48848405       2.65893491      -0.10353527      -4.14064233
Si       2.17550383      11.76083082       5.09014502       0.97761178      -0.61666215       0.53848763       2.60638775
O        1.64642137      12.40624006       6.63697973      -0.49113890      -2.30728548       1.96444857      -1.62333434
Si       2.00215251      12.23482990       8.27340819       0.86506964      -0.73158454       0.09528807       1.96752714
O        1.22514585      15.58728023       0.12087245      -0.41335416      -2.43564947       0.29784781       3.31928021
O        2.56071904      10.50131306       0.14157145      -0.34849878      -0.40768987       1.21631238      -5.05937919
Si       2.85364817       9.99219900       1.72284919       0.88631265       2.40078563      -1.96101728      -1.48328379
O        2.93616726      13.61878849       0.78639213      -0.45522579      -0.48465473       1.80495779      -1.70508947
O        3.46924807      11.42565629       2.38297670      -0.44368426       0.65881332       2.09811382       3.83624801
Si       4.25390614      12.59170768       1.33098862       0.89454451       0.05653101      -1.05465410      -2.56525582
O        5.32905356      11.76405878       0.00760169      -0.40263872       0.30913667      -1.44678125      -1.08973284
Si       6.88004846      12.27295815      18.96629007       0.81924612       1.89932919      -3.23512976       1.91442996
Si       1.20524007      14.10584863       1.04170021       0.89511686       0.08529264      -1.86272469       0.11291480
O        0.67673302      14.74049112       2.62569085      -0.43070331      -1.90991947       2.63723420      -2.88209046
Si       0.97522734      14.36214575       4.23746154       0.95366760      -2.94922512      -0.46576752       0.86498269
O        1.61888032      17.89988149       6.42241562      -0.45813386      -3.76911715       0.20802296      -2.23738251
O        1.80413320      15.48584945       5.10491923      -0.43475042       0.93772037      -1.28739984       3.12068974
Si       2.46503732      16.98763831       5.19898169       0.96181449      -0.90006304       2.68518874      -1.02080760
Si       4.21726096      17.98301064      19.63921455       0.55179343       5.67079490       2.78888425      -2.15128319
O        2.83743436      17.87471937       3.72105748      -0.44783622      -1.33709139       2.10303483      -1.77563785
O        3.58445325      17.78989620       1.21049981      -0.41721713      -4.02961674      -0.87057515       0.00256655
Si       4.33724069      17.85665077       2.69456491       0.84206180       1.28284645       0.39485278       2.17005587
O        3.80034624      11.53407184       5.05851260      -0.45118212       2.11164727       3.34065894       1.12129128
Si       4.93163614      10.37452118       4.75848165       0.93300384      -0.20431852      -1.86076419      -0.56460338
O        5.70289611      10.55214272       3.19345179      -0.30603850      -1.85066489       1.18309428      -2.43808573
O        6.19320573      10.64173575       5.82957555      -0.48951849       3.97360883      -0.44443692       0.10084316
O        7.39544048       8.53528637       1.76525400      -0.38573419      -3.82376501       4.25018038       2.27092588
O        2.68514746      13.78341293       8.95637407      -0.40740848      -2.22931619       2.09395317       1.20888080
O        3.47047703      11.45211510       8.36629512      -0.54153156       3.30481653       0.24732910      -1.91718105
Si       4.51649062      14.04713097       8.80813886       0.84202507      -0.03917813      -3.13881761       0.77667293
O        4.78725109      14.75711282       7.28693846      -0.40194088      -2.38804785       2.31422614      -2.45506369
O        5.05369761      15.10333531       9.99819074      -0.40807904       0.81170746       1.78883670       2.66230206
O        6.97690380      13.03945764       6.06114905      -0.36240381      -3.62340937      -3.62737173       0.79802617
O        5.91071510      17.44271273       7.29654887      -0.44300803      -0.99659504      -2.22056124       3.40890567
O        5.30658160      13.43108952       2.33195278      -0.46434756       1.79883761      -0.92950107       0.87764049
O        4.74079199      16.26402893      19.62229997      -0.38907652      -2.36912996      -2.08676170       1.88897983
O        6.50434397      13.95158987      19.37364064      -0.41713628       0.65698071      -0.82551851       2.26853628
Si       5.98574631      15.43960829      18.90912054       0.90830061       0.13088366      -0.24507774      -2.63551041
O        7.89658844      10.99556462       1.43340661      -0.23853246      -2.26044609       0.63738880      -3.14995840
O        6.00895214      15.78455595      17.12402457      -0.46099377      -1.80561172       1.50231655       0.46738604
Si       7.32609887      10.25621244       2.83710544       0.67300855       3.40114914      -5.63016955       1.87287467
O        7.49769055      14.76466621       3.15724002      -0.45901451       0.46267089       3.09121268       1.71785671
O        7.30883011      16.54632661      19.74669458      -0.35643638       2.95624342       2.28388838       2.46465410
O        8.36165703      12.16207607       3.65492697      -0.48694564       0.15881333       0.09504451       2.25547054
Si       8.68309328      13.72628427       2.61074416       0.86413234      -0.72277667      -2.96991939       0.40935534
O        8.59887772      13.77930055       0.80436019      -0.43817746      -1.76733783      -0.55589211      -1.41384229
Si       9.64226266      14.35527015      19.45683909       0.82122334      -0.26408597       0.99180757       0.92644784
O       10.28668229      14.24709924       2.66691248      -0.44241269       3.47955639      -1.09705910      -0.94139652
O        4.04057192      16.83135626       5.70908115      -0.46005349       1.22634661      -3.77111261       1.60398894
O        5.23847348      16.30874797       2.48018258      -0.44657296      -0.45072925       2.38449335      -2.32503891
O        5.37517115      19.39632345       2.38185549      -0.43869264       2.50758686      -0.17590405       2.07325696
Si       5.77414766      14.86289843       3.12345842       0.96846507       0.40208805      -0.78757147      -1.26450198
Si       5.46238585      17.68933368       5.70666989       0.93791947       1.19003258       3.23032478      -0.29131570
Si       5.41742004       1.05625991       5.46833618       0.57795979       2.57010607       1.67847215       3.74110143
O        5.32172664      14.71399700       4.71781964      -0.44878632      -3.95429408      -0.08065559       1.11489538
Si       6.07404245      14.55761226       6.19432531       0.92858738       2.12050213       0.30881829       2.04683082
O        7.40080438      15.62336135       6.69979770      -0.46872572      -2.43282789       3.30444503       0.39071092
O        7.93303037      19.24951975       0.72475285      -0.44101511      -3.34866880       2.72921191       1.94188192
Si       8.34877311      17.65391425       1.02893661       0.86253067      -0.29748971      -2.29466431      -3.61294566
O        9.78197128      16.60462374       3.94863362      -0.46738420       1.73553159       0.15533601       1.74234635
O        7.68244044      17.06227430       2.40923322      -0.42643883      -3.32336397      -2.07826641      -1.75938670
O        3.37397350       5.93627462      16.37471731      -0.45725285      -3.21616845      -3.48455151      -0.53363986
O        1.29336099       5.30354085      13.11987323      -0.45632365      -1.37996389      -2.09764407       1.69715096
O        3.04830523       9.24485944      18.17991407      -0.28814614      -1.98567025      -1.82800339       5.28666254
O        4.19208899       8.58017220      15.92298694      -0.45699664       1.40153881       0.84132958      -5.73236539
Si       4.56824521       7.09679869      16.53553232       0.92990251      -0.31308784      -0.81184100       1.38433229
O        5.55433407       7.20626902       0.72158852      -0.47727860       3.17208893      -2.19329399       1.73603886
O        4.74228143       7.46158759      18.20860339      -0.44689370      -4.51221345      -0.03054981       1.07718070
Si       6.01255283       7.77250701      19.23134744       0.93219687       0.48695473       3.23836490      -0.93773469
Si       0.30601176       9.20636834      15.53189685       0.59852083      -1.64038591      -2.10580602      -0.00951711
O       19.43741479       9.79465002      11.29825334      -0.31662520      -1.47793434       0.62425763      -4.01477976
O        0.73360849      10.39731946      13.44604400      -0.46049930      -0.92258661      -2.77725754      -0.62769528
O        0.35824897       7.78739046      13.12942340      -0.42996257      -2.15114399       1.84972366       2.24343646
Si       1.41076378       6.70435788      13.98004860       0.93982038      -2.19727979       0.75834189       1.42333756
O        3.28842782      10.09275525      13.05663695      -0.46130887       1.54291696       1.19097227      -2.76553717
O        2.89459002       7.43166419      14.01959293      -0.45544779       2.19133376      -0.90438966       3.22017968
Si       3.90865439       8.42211521      13.14829732       0.94015462       1.35894339       1.19750919      -1.03435212
O        1.78202939      12.68517939      14.08206811      -0.45511347       1.70952340       3.90035687       1.14330931
Si       2.17225361      11.04863389      14.01564588       0.93044694       1.96719437      -0.24821226      -0.48208358
Si       2.81389425      14.01809070      16.74537577       0.79654918      -6.06185039      -0.46348594      -1.40875194
O        2.26771158      10.48010312      15.63923114      -0.40107096      -3.73879438       1.10828553      -0.34014146
Si       3.42038414       9.84328611      16.65999021       0.92484709      -0.78667385      -0.34581563       1.50246744
O        4.15815044      13.35526446      15.98812176      -0.39858943      -0.64084745       3.01020084      -1.84654205
O        4.05997301      14.31819111      12.53190400      -0.44132150      -0.17846763      -3.89410466      -1.96196048
O        4.56006468      10.98692756      16.99264515      -0.44002256       1.84843025       0.84116004       3.73564344
Si       5.29806959      12.11286344      16.02643300       0.89098863       3.20932140      -0.61156753      -2.68913924
O        5.28429726      11.36662338      14.29096455      -0.53632609      -0.92989594      -1.07758781      -0.45806376
O        4.65708036      10.92141473      10.99010590      -0.48046628      -1.75163689       0.74665396       0.87171567
O        7.04302325      16.63438106      14.30245619      -0.48159973      -0.62319478       2.64857231      -0.77170525
Si       5.71312224      11.31434282      12.40325267       0.91278300      -3.14170382      -0.64210652       1.96399329
Si       6.70010635      15.40984630      15.56252416       0.91250822      -1.31574196       0.23294971      -0.11558346
O        6.08766943       6.46951875      16.14539081      -0.45496229       4.51051459       0.61401786      -3.13384055
O        6.38854219       3.94881663      15.82382600      -0.45412269      -1.03605615      -4.27920322       2.04739607
Si       6.59341561       5.04639967      17.06268474       0.92286887       0.17441761       1.90381955       1.75004282
O        8.72045245       3.83209348      19.62471723      -0.35874480      -1.34183289      -1.38251337      -3.18795121
O        8.82675616      11.61905369      19.28049759      -0.38487809      -1.27616367       0.25491561       1.01177087
O        7.12689457       6.54060507      18.81360684      -0.41647924       2.77491935      -2.28010733      -3.60955966
O        6.51915449       9.40733280      19.33139103      -0.36005648       1.47573124       3.38028893       0.04935621
Si       7.57722162       5.24986156      19.94730061       0.89853591      -2.33507892      -0.96335990      -0.91014266
O        7.34640527       8.54814452      16.99228112      -0.44888510      -3.94849297      -0.53745124       2.39477603
O        9.77443062       8.92962502       0.38142398      -0.41115744       0.40693531       2.54474585       1.18393137
O       11.96629795      10.30336563      18.87184348      -0.38430811       2.66019797       0.29492713      -0.97922256
Si      10.58353461       9.13904220      18.75933076       0.87987997      -1.66109962       0.32571842      -0.49392336
O        8.63935736       6.21749224       0.78711225      -0.45518137       3.22572962      -2.00654237       0.89137094
O        5.45568492       8.59091734      13.88855427      -0.47491748      -0.64912804      -0.68638087       3.00204160
O        6.71358630      12.30502872      17.15179859      -0.40997766       2.37895995       0.96077069      -0.92713615
O        7.05547859      10.33301703      12.51171604      -0.39636000       3.56979329       1.42792652      -2.34457911
O        6.06319240      14.16176614      14.51249335      -0.47916174      -0.92779793      -2.85962295       2.26201992
Si       7.10328332       8.92733852      13.42497246       0.95658226      -0.88765058      -0.54972876       2.75446852
O        8.29905648       9.29668023      14.58300603      -0.43268244       2.21821894       2.48488004      -0.75713682
Si       8.77322658       8.62258292      16.11966993       0.92012631      -0.43403323       1.90649543       0.89442912
O        9.81596037       9.58010150      17.21476378      -0.40697562       1.30022166       3.00294905      -0.38531892
Si       5.74941468      14.26157586      12.80415785       0.92264702      -1.40195672       0.90425341       1.32156678
O        6.33278442      12.83749272      12.16233898      -0.38992982       2.86030489      -0.01341858      -2.79345482
O        6.79539560      15.30099503      12.02237046      -0.38499994      -0.39101256       1.34731186      -5.07535533
O        9.50319239       8.91657745      12.08681981      -0.39007490      -1.87792742      -1.63100944       2.50161122
Si      10.07292569      10.50662825      12.19021282       0.80151708       0.53649489       1.92279135       6.13402898
Si       8.03104512      16.11147902      12.78830034       0.89847471       0.79845590      -0.61304780       3.96668959
O        9.31911244      12.75333082      15.44853310      -0.39380590      -2.35133453      -2.38041893       1.37361641
O        9.25013094      12.09003835      12.68151215      -0.39286356       0.09247280       1.38750370       1.23116756
Si      10.40530049      12.36466245      14.23387485       0.81646807      -2.26660858      -2.06920716      -3.78276504
O        7.96861603      10.73495178       8.00557180      -0.44866948       4.35333735       1.62230997      -0.80333531
O        9.41255621       8.59448494       9.37877165      -0.43725537       4.25208748       0.71189088      -3.23250949
O       10.05955608       7.20554268       5.74268590      -0.40030906      -1.01146594       2.43918239      -1.80032568
Si      10.43273329       9.04611456       4.86890413       0.68239874       1.38499735      -3.21435929      -1.15618325
Si       6.42803678      11.28816319       7.47891396       0.88641848      -1.73672148       3.47702827      -0.98233032
O        5.85264769      12.74593089       8.49360715      -0.49111845       1.43900171       0.02008364       1.27336482
O       10.00670652      15.50515376       9.63760624      -0.42219884       0.32747507      -3.39586670      -0.89541405
O        9.17658895      13.83142691       7.75058294      -0.39901519      -0.33714227      -2.84407885      -0.22427846
Si       8.61583539      12.85382555       5.77860454       0.80177423       1.04328685       3.39670784      -1.36956233
O       11.50187402      10.72878776      11.33742815      -0.41327396      -0.45709452       4.40783570      -3.63688293
O       12.10530324       8.54073795      12.62561012      -0.45104294      -3.54981027       1.31749776      -0.40302639
Si      12.83208858       9.73984958      11.48082850       0.94040160      -0.04577222      -0.70124459       2.08727364
O       13.01506826       8.64623211      10.26550897      -0.50552522      -0.54470834      -3.55027892       1.11284168
O       14.33768297      10.43833396      11.61291840      -0.45070745       3.59001175       0.09713628       2.85250605
O       14.26334022       7.03531060       8.58001989      -0.43636458      -1.60018925      -2.27727714      -2.48700271
Si      15.68102690       6.91619792       9.52833047       0.52148975       2.82852746      -3.90910875       0.61386225
O       16.84487684       7.59494202      13.99835507      -0.37760538       2.16937476      -4.88502089       0.37155579
O       15.27408991       7.24229071      11.34123460      -0.51588841      -3.33193846      -3.30372295      -1.50575976
Si      15.89970929       8.00921813      12.68597272       0.91693356       1.15595513       2.09671449      -2.31464610
O       16.50320037      10.99531344       9.63923342      -0.40271515       1.48314710       1.96377079      -2.44892127
O       16.87738523       9.26279873      11.84070461      -0.48299872       1.67204377       2.71911031       1.22980918
Si      17.31064127       9.45328271      10.05010257       0.83140604       2.59916554      -0.21916873       1.06430371
O       16.13536779       8.51723516       9.33125808      -0.36971582      -2.67038363       1.56322030      -2.94448321
O        9.53440041      15.29564828      13.03071441      -0.45697249       1.48236324      -1.41654990       1.24662206
O       10.89865107      10.64608700      14.04577022      -0.43619339      -0.80799946      -2.50389751      -3.09638852
O       11.48327456      13.55581091      13.75028126      -0.41647078       3.27523061       1.02504598       1.57754792
Si      11.23852954      14.74031611      12.51642668       0.91367487      -0.98996095       0.85492541      -1.47864264
O       11.41847823      13.66441193      11.12544529      -0.40910156      -1.90209394      -1.65132025       0.51408884
O       12.56677567      15.86366119      12.77698124      -0.43162563      -0.51533011       3.19939741      -2.06196728
O       13.80561380      12.27145206       9.69040158      -0.47335584      -1.21159483      -0.22739840      -2.86640417
Si      15.08746064      11.62451611      10.53060144       0.93123168       0.08588584      -2.67542591      -0.11249650
O       15.79199155      12.69180396      11.58612653      -0.45778168       3.98215080       2.47991662      -2.14130800
O       10.44328339       9.73549787       6.60724413      -0.40642140      -1.23477071      -1.73322991       1.30014935
O       12.25182977       8.39292104       5.15134486      -0.41960845      -2.29360548      -1.29871789       0.94979933
O        9.81781016       9.71103591       3.11797337      -0.43906883      -0.17419361      -0.41082512       2.30827902
Si      11.75936487       7.04171820       6.50319414       0.78966662      -0.52106360       3.78043653      -6.30894986
Si       9.68104598      11.26087231       1.40356257       0.55916524      -3.71122222       1.61895165      -0.71366624
O       11.87657694       7.96346122       7.89605487      -0.38122688      -4.27074697       0.67550168       1.63037189
Si      13.27426382       8.46455294       8.65028124       0.93168751       2.44814396       0.43483893      -1.97918504
O       12.76906792       5.70464939       6.33373251      -0.39106500       1.60237410      -2.06201976       3.42210931
O       12.57031717      11.59240583       6.44526035      -0.44547963      -0.13421705       2.73193731      -4.08320957
O       11.37068286      10.93102971       1.23411464      -0.26142060       4.00574784       1.22866118      -2.82411166
O       13.90126467      10.04324376       8.39704646      -0.44949043       1.11879887       0.99585697       3.66554015
Si      14.00916052      11.05264689       7.07165728       0.92898957       1.82254112       1.69991706       0.23205477
O       14.43281158       9.91250801       5.94037071      -0.40406877       0.16621074      -4.41477174       0.54165033
O       13.29994887      10.03836526       3.46552718      -0.36670935      -1.35939194       0.18713425       4.07143574
Si      14.89361631       9.98680461       4.34538458       0.79955819       4.71168349      -0.12438458      -1.66114963
O       15.04273155      12.46699567       7.24554400      -0.38641660       0.86832182       1.62831651       2.83921104
O       15.91310723       8.27971862       4.54953202      -0.43330047      -0.17415943       2.66015094      -0.04990530
O       16.85520553       9.29944309       6.98450680      -0.43071255       1.67000748      -2.89976649       1.08692330
O       10.05832920      12.07417326       5.77899360      -0.32209370       2.02203331      -1.15471007      -3.49825739
Si      11.01589157      11.42857067       6.98856334       0.86223440      -0.54540039      -0.75267754       4.46507869
O       11.13387909      12.32963776       8.61437263      -0.42180733      -2.20546989      -0.62209359       1.10228849
Si      12.34940695      13.26117175       9.67171578       0.89609729      -0.80185508      -0.30720386      -0.66883768
O       13.00998140      14.73173100       9.19938525      -0.38862506       1.39336688       3.37934758      -1.28589442
O       15.35663721      11.90931979       4.56289959      -0.51455458      -0.21069541       0.08701489      -0.09190458
Si      15.79227662      13.33421358       5.91142047       0.81602326      -2.70401008      -1.52641609      -4.62112423
O       17.32352193      13.75239977       6.39310317      -0.42328892      -1.26626485       2.17456109      -0.09887311
O        3.42826486      19.04884209      11.78422742      -0.50139012      -4.24224882      -3.07705892      -1.31336741
O        4.19482456       1.18437857      13.23451408      -0.49817951       3.70831325       1.32042218       2.92859889
Si       2.95686206       0.51397053      12.31591415       0.93683753       1.15140462       1.28501401      -0.95171791
O        2.93748505       1.80873025      11.06082320      -0.50752661      -1.80098915       1.77409970       1.96186342
O        1.41738468       0.37352525      12.88653984      -0.42667715      -0.49715643       2.42671511       4.71613237
O        4.62918999      17.85127976       9.90882072      -0.40788469      -0.51704537      -1.42034637      -3.83513153
Si       4.95359579      18.41882749      11.48960211       0.90275051       0.96114420      -3.17258646       2.54888996
O        5.19536900      17.80679244      13.13924563      -0.42755376       2.96586175      -1.11721965       1.15773476
Si       4.09126521      17.57395126      14.56893298       0.77163216      -0.33860809       3.62591645       1.54611864
Si       2.83804214      15.41503690      12.80325341       0.95084542      -2.13198984      -1.69132786       0.51147208
O        2.67392145      16.50087939      11.56026428      -0.43242075       3.82230267       2.31161370      -1.45901703
O        0.38082603      18.16369390      11.44419301      -0.48738815      -1.32653741      -2.72994138      -0.58342656
Si       0.13805244      19.66075204      12.10205189       0.95174068      -0.20132713       0.93996541      -2.49205983
Si      17.59709944       0.34256835      13.81570233       0.47251835      -0.82727267       5.14805626       0.21708070
Si       4.69522390      19.41959232       8.77105794       0.86480215       0.08019209      -3.34284727       3.87940284
O        3.68531949      18.79550987       7.58921215      -0.47024640       1.15012658      -0.51528520      -4.24965353
O        5.25884348      19.32947193       5.12128545      -0.41121489      -1.05144604       0.77652596      -2.69531899
Si       3.56600458       2.33234282       9.57935011       0.87858905       1.26592524       2.83793784      -1.40322817
O        1.28845851      19.75015604       8.57789451      -0.48976463      -1.12849360      -1.09912588       4.35402062
O       19.97987212       0.05183194       3.66388719      -0.42709737      -1.20506866       2.24823809      -1.06464589
O        1.99975805       2.50706860       8.60021566      -0.45541533      -0.97756695       2.82983747       0.17349352
Si       0.97252297       1.23168648       7.86467970       0.92070467       2.54090751       1.55317455      -0.72386200
O        1.30562376       0.82328735       6.18214898      -0.47636514       3.92979195      -2.24366156       0.56034268
Si       0.37591368       1.22380709       4.83453003       0.88295936      -0.42904225       0.01380770      -1.15122802
Si       2.06449947      18.38570395       7.95572679       0.95291073       0.51657549       1.23713336      -0.43584715
O        1.96835201      17.22645856       9.11643676      -0.42422924       1.88738067      -3.12556798      -1.04750695
Si       1.38391635      16.97393731      10.63718789       0.95348192      -2.85958310       0.76606897       0.74417411
O       19.25163781      14.21196703       8.32201808      -0.37710032       1.79060175      -1.93209164       2.46814811
O        0.19249322      15.71882298      10.33694847      -0.44746299      -0.11129095      -2.32755804       1.86034860
Si      18.96840693      15.66105617       9.11431437       0.88033450      -1.45338986       3.72312795      -0.07738989
Si       0.10455907      18.50050843       3.11452273       0.94795020       2.24850709      -0.41696576       0.30432134
O       19.43370560      16.92124776       7.82438140      -0.50380278       1.31330981       1.40905291       0.43226584
O        0.16719750      17.46196786       4.54380011      -0.49970213       1.85650470      -2.92071799       1.26886496
Si      19.07773497      17.50056977       6.07878488       0.89681242       1.82128847       1.31747676       1.33892233
O       19.57489534       0.76164141      10.87671501      -0.47255916       0.22633232      -2.53127329      -3.55190972
O        0.47493547       3.07842951      11.86334047      -0.46927588       0.67073392      -1.00048255       1.90050387
Si      19.07121484       2.35523293      11.04710024       0.93411064      -1.07057832       0.79811591       2.57875337
O       18.97154339       3.10614768       9.59548005      -0.46239641       3.14010159      -1.73287170      -1.44478624
O       17.46609927       2.25173809      11.89345619      -0.48967891      -0.17338868       1.03913423       1.63429073
O       18.02771473       5.48086663       9.57195432      -0.46209530       0.56320242       3.69939995      -0.94446984
Si      18.00600688       5.64297994      11.29948379       0.85767598      -1.04199593       0.82306294       0.15781952
O       16.25451235       4.92678365      11.20390760      -0.48254581       1.58498678      -0.33783076      -3.52769600
O       14.73958039       3.08275370      12.04300472      -0.38938567      -1.68703694      -0.92925126      -0.68450447
O       19.04256920      19.66613870      13.33664077      -0.42109645       0.11482423      -3.47038693       2.65615224
Si      16.45208683      16.72049003      11.36165397       0.84934583      -2.31295157      -1.02872485      -1.22739561
O       16.80078780      18.31003453      10.93267330      -0.44371950       2.47210498       3.04962556       1.69653001
O       15.56357277       0.78713558      10.25297058      -0.43447964      -1.45699321       1.32194651      -1.68226375
Si      15.74042898       1.67151081      11.76392847       0.91810650       1.14648385      -0.15753456      -0.40942971
O       15.21246301       0.53299353      13.06429766      -0.43147956       0.56363585      -2.56080956      -1.55443190
Si      14.34640482       0.59360290      14.63691322       0.88556347      -2.35835652       0.89480427      -1.63300019
O       19.32129096       1.37413889       7.84817926      -0.46562158      -0.91475785       4.24506543       2.24424185
O       18.93210194       2.04135670       5.09602408      -0.38239671      -4.22123725       2.19911123       1.22383505
O       18.96275974       4.48862096       7.17761361      -0.46558171      -3.11116344      -0.42061207      -1.68619380
Si      18.13623861       4.12113287       8.60644083       0.96601421       0.90946377       0.27141164      -1.49126938
O       17.06315644       1.41921240       6.51135496      -0.41387647      -2.05794972       1.45411818      -3.55707184
O       16.61581670       3.58752123       8.23294970      -0.42693074      -3.81359365      -0.23144458       2.64831483
Si      16.11454765       2.96960747       6.74245331       0.78655388       0.53416352       2.30785621      -5.69366092
O       16.39890853       4.64861083       5.53886098      -0.43667760       0.63711342      -0.70357198       0.41370870
O       17.34273345      15.73319477      10.03284708      -0.42325624      -1.63753210      -1.61649771      -0.12632608
O       18.59959029      19.17506374       6.16307111      -0.45505069       0.48811996       0.63136046      -2.30612256
O       17.82986670      16.54789232       5.54595412      -0.43977883       1.83187674      -4.19186215      -0.09934400
Si      18.09151952       0.38085186       7.31535269       0.97307174      -0.12139912      -1.31092655      -1.99243997
O       17.50078971      19.61217204       8.64838712      -0.43773460       1.98023450      -1.67927657       2.56015310
Si      16.18472687      19.21588505       9.56858852       0.90161008      -3.97537301      -0.82444842       0.18859901
