3068
Lattice="40.0 0.0 0.0 0.0 40.0 0.0 0.0 0.0 40.0" Properties=species:S:1:pos:R:3 relative_density=0.96 cell_dim_angstroms="_JSON [40.0, 40.0, 40.0]" pbc="T T T"
Si       4.68449148      16.38609835      10.06133096
Si       2.88859673       5.74945597       4.08781496
Si      29.83768573      34.84628320      10.31523200
Si      16.56574548      35.97922857      13.55869210
Si      24.94228542      28.82463644      23.94788137
Si      39.54861805       2.50331257       4.30202094
Si      39.46290038      22.62766384      14.88943362
Si      37.66811255      36.39342821      35.30792907
Si       1.14662186      16.31136990      33.29503919
Si      16.87968158      27.64052680      32.90667227
Si      27.03988272      11.23582867      28.73199295
Si      37.70005750      17.08808613      12.37084851
Si      25.67956467       9.73175295      13.41469410
Si      14.92349455      33.52200774      29.80763249
Si      34.27601098       0.13707447       7.26739364
Si      36.52829443      23.91120570      37.85924094
Si      15.53526204       8.11734847      25.77421112
Si       8.27211723      11.26439302      16.44600817
Si      30.22500157      21.70609628      22.63612164
Si      19.47001430      37.99195583      39.88208957
Si      20.03632599      21.57040809       0.30146447
Si      30.52612510      28.00579547       3.07200069
Si       5.20704579       2.28361670      17.19892749
Si      22.70696126       3.16240460      38.00483157
Si       2.11789894       6.22976747      31.55589757
Si      26.16607168      33.97225289      36.29721613
Si      39.33616830      24.32533834      22.97865232
Si       0.59810075      18.94610515      11.25231700
Si       2.47411986      24.80755354       1.81162026
Si      25.20005581      38.52308279      16.67287196
Si      26.22372893       0.37463723      14.22676855
Si       4.41542621      10.15822757       0.99290590
Si      19.66891958      31.09185229      29.26717727
Si      39.35893934      36.06312265      28.27601132
Si      30.40909183      23.30761014       0.70971519
Si      30.60461177      24.56542596      37.33074719
Si       7.45480621      37.27614398       6.50505625
Si       2.57216962      25.31327510      12.96675082
Si      21.30607012      15.08996715       7.22002297
Si      34.27683803      32.09855582      11.45242006
Si      13.35978015      30.62871757      18.23510343
Si      28.01632603      36.68714712      33.47754156
Si      23.90427465      31.51954912       7.41778792
Si      33.71982350       9.95535612      16.91879577
Si      24.35606987      12.98201278      33.07262833
Si      23.77396577      37.98855180      11.15860084
Si      28.01602641       6.16202904       6.86206520
Si      20.62477613      36.03587152      18.89241391
Si      22.31756072      38.03115855       8.14353954
Si      33.65436447      30.58186532      26.66524387
Si      15.17695743      34.64189451      38.79019182
Si      15.41385145      16.68249135      29.44346733
Si      20.97972847       8.26487503      35.60105331
Si      27.02551922      17.64235315      16.48111876
Si      25.21798550      12.36294364      24.77207335
Si       4.67365899      15.65651616      32.30917999
Si       5.55403083      28.02374407      28.55920126
Si      29.64531732       1.29935991      33.05694796
Si      10.40004367       6.94125582       4.15511794
Si      23.86962465      28.71153997      25.50971628
Si      36.92962236      15.44869713       4.14254177
Si      11.66681929       7.90121631      28.83613846
Si      30.94483866      19.20792599      10.50308509
Si      18.23931929      26.76786114       6.79920280
Si      20.95044618       9.47599928      30.65586051
Si      21.03037046      19.45860270      20.61644831
Si      13.75695154      34.17433002       0.88513795
Si      10.70664734      12.51341736       7.27230873
Si      27.47889285       1.02993610      24.41993987
Si      29.64758560      11.03966705      10.98878023
Si      18.23812333      13.54592179      10.78507829
Si      25.87555493      10.97182564      27.79455892
Si      14.72131788      33.70966836      37.89630726
Si      29.52794287      14.03283024      24.08729622
Si      31.11149975      14.47115794      21.81839580
Si       4.99007042      19.45694728      16.46664365
Si      11.08149824       9.08890343       4.78257829
Si       3.55550825       0.86953118       4.50947263
Si      38.94848339       6.95945660      15.53687978
Si      39.62816351      16.10584645      34.65832486
Si      10.54932927      38.29268211      17.73030680
Si      26.56164566      12.82882830       8.28766344
Si       7.91721856       9.48095728      21.95461058
Si      22.53562652      27.92807376      15.99122957
Si       5.41856578      24.83194410       4.44921101
Si      37.76203851      30.40554083      22.92360804
Si       4.41898327      18.82604653       6.13421572
Si      39.19506167      16.66884570      26.28770969
Si       4.62043024      17.14159997       6.55216754
Si      23.05679057      39.26830248      17.45447186
Si      28.34159399       3.55061694      10.00216581
Si       5.01722472       7.17688376       6.52275108
Si      25.81321123      18.52229114      23.12184080
Si      24.48082314      13.40468121      34.09156257
Si      20.80785757      34.97858994      31.65511235
Si      28.09430245      20.25567437      33.32694637
Si      27.31696353      29.85132990       2.48610008
Si      15.90100405      26.27215248       2.83756078
Si      20.26843881      21.59620368      10.39202113
Si      11.68638757      29.14202466       3.24822859
Si       0.41631028      37.25777382      28.47475887
Si      22.26440027      30.89178276      10.66678777
Si      27.37931417      23.84686399      11.97417835
Si      11.64297120      19.42353795       3.51185420
Si      28.67417279      36.58591844      36.26089660
Si      23.56241952       8.48327967       0.34166722
Si      21.76114061       9.90678839      11.55670913
Si      26.60452250       4.91635596      24.07351954
Si      29.85254898       1.37770575      22.42238130
Si      28.86407123      17.32673462      12.05919021
Si       6.25974853      38.21585901      16.29106608
Si       7.81196979       2.03204770       9.38166015
Si      33.13687613       7.40952273      26.82933782
Si      36.66400665      15.38358485      21.20683811
Si       6.21403722       9.12676886      15.46442221
Si      27.31398168      19.41099720      33.97783232
Si      29.91071215      22.71545002      17.35471142
Si      22.36116106      17.37104049      18.69601011
Si      12.18439837       6.84280224      38.57008255
Si       1.89187505       2.02815156       4.37343849
Si      15.98641643      20.38324291      12.21679328
Si      29.74819062      14.40621367       4.91310658
Si      17.13472958      17.77740286      20.36188529
Si      11.91351707      16.48429534      13.91118550
Si       7.24863486      14.27857607      25.78212956
Si      39.03961368      19.70596458      19.48455172
Si      11.14415200      16.02377684      35.89400268
Si       7.96812952      18.62017964      37.77870862
Si      28.17664105      24.40060581      21.82116592
Si       0.63275439      22.33114223      14.04694806
Si       6.00552773      16.26340465      19.43912528
Si      28.73438493      24.04333215       9.76504402
Si      24.01223344      19.61236873      16.47798431
Si      24.70200807      17.93346446      26.34583931
Si      37.05574568      22.17392543      25.46199427
Si      11.18748779      13.32529950       4.87772444
Si      24.48030903      11.89378905       8.94676016
Si      37.98246091      13.90310966      10.22457497
Si      11.10784591      25.60346949      20.51446181
Si      22.81844088      12.75007931      38.02236940
Si      12.96441511       3.04980761      23.97724522
Si      36.77875748       7.52335363       6.19793245
Si       0.70604039      35.72361249      21.36351780
Si      30.26407885      39.69423842      31.56845889
Si      25.42939330      11.41610256       3.23516030
Si      12.57347067       1.39605673      33.90400433
Si      30.13816651      27.00621880      22.81128921
Si      24.90298757      19.37767377       2.76928124
Si      39.46898486       7.56034166       1.76312351
Si      20.61565204       4.74451448      15.12189421
Si      33.25633136      16.75010579       9.96152901
Si      20.93443696       7.38385670      13.82570585
Si      38.28641543       9.00618622      32.50190557
Si      36.86361837      39.77968676       0.02382958
Si       0.13772036       5.44518387      23.97099198
Si      21.14921842      33.72242806       2.56960484
Si      18.22854685      31.57550455      25.78669653
Si      13.68335879       8.04262896      16.50775758
Si       6.20243061       6.60638028      32.80904972
Si       2.30958181      33.75665444       5.51553168
Si       6.71890893       3.73350003      13.05772338
Si      22.00730090      17.60156802      35.18207097
Si      25.50462880      14.15067173      17.74545949
Si       8.78538198      27.96183939      21.08292816
Si      25.16808057       1.24991169      34.97789654
Si      35.72587750      28.92564891       3.36685770
Si      13.87739343      10.97919192      16.90680161
Si       4.08389015       9.13717634      17.89930889
Si      34.64887372      33.47566603      26.08390613
Si       0.88641125      19.91212705      37.24291853
Si       9.83021010       1.38366826      13.15736330
Si      17.71372737      38.33337333      39.46542846
Si       3.32847607      24.98628899      15.95998730
Si      28.11017528      35.98927622      30.14653666
Si      18.16072341       1.49203579      37.01362049
Si      37.39089519      25.67371063      35.42680076
Si      13.20545535      13.96688597      38.65298977
Si      13.44228641      18.16656777      13.00729160
Si       8.63830358      17.47663283      30.11912508
Si      29.53342779       1.88666915      13.09596829
Si      32.28867274      33.25893688      13.07093067
Si      32.00646261      28.85447872      13.97474895
Si      21.30659780       6.90171058       1.18094097
Si       8.87368368      23.00165378      31.11799236
Si      36.53082460      35.63304110       1.86379471
Si      34.39501454       4.17605221       3.32168826
Si      12.48201420      11.66339735      33.79342716
Si      15.32007361      11.67288405      21.54577164
Si      37.72661500      11.26996713      33.09273786
Si      29.14053405      18.76420533      29.79668546
Si      19.88595873      28.06982077      14.11951010
Si      19.00372782       8.42291652      12.61179113
Si      39.71582787      23.88220753      25.08035738
Si      13.04492576      24.56550349      10.28812787
Si      14.97400887      39.16082781      30.61885694
Si      17.27707373      22.38386660      12.40612882
Si      28.13997934      11.67918090      33.68916832
Si      37.85456635      26.78175445       8.04666384
Si      17.50417324      11.56173080      14.71248741
Si       6.48614682      24.18561780      12.97899144
Si       6.65048269      37.56422474       1.17081073
Si      39.94234183       4.15913728      17.75087872
Si      19.42904980      29.65121005      36.57934561
Si      15.42248937      28.23305437       0.99160940
Si       0.97506812      13.43437260      15.41882817
Si      15.42039566      16.79107076      24.83791563
Si       8.68780115      15.20200878      13.26467957
Si      39.70412404       6.75699263       2.09239714
Si       7.49765818      28.98116528       6.75087846
Si      23.59173303      27.13121248      11.06897059
Si      32.98758584      37.96723757      10.23543463
Si      13.72998624      21.85726825      13.36433129
Si      34.97598984      39.55923758      18.91886212
Si      27.55652679       2.19110926      27.50123905
Si       7.33807031      16.49965506      39.94924473
Si       7.82296701      32.59503076       2.64660047
Si      33.61376448       3.66824000       0.41547928
Si       3.75105852      28.76271573      14.16197088
Si       6.21340061      29.98217977      26.34910586
Si       3.65731247      23.12010322      18.79067967
Si      35.27369860      34.88957113      17.05982738
Si      22.17036410      16.00123410       8.49074156
Si      28.58329452      27.16040862       3.57070034
Si      32.55620654      36.54412721      16.44455012
Si      12.70054370       8.54305376      31.52541004
Si       7.84575575      34.16401189      13.47695356
Si       7.96823652      39.86303386      34.29869932
Si      14.07130974       9.13582371      27.25887615
Si      24.30219449      33.18359622      24.47225464
Si      16.29610292      16.98643853      12.23800035
Si       8.80466371      13.91902102      27.51724861
Si      39.85275412      35.01069960       8.24533529
Si      31.49822027       5.13054811      35.31469362
Si      10.74048061      19.38384315       5.94081701
Si      20.07474281      38.35478920      34.63490054
Si      15.51347484       3.79310185      24.45249177
Si      29.01273033      36.23534901      30.26504060
Si      35.61282148      29.61128465      14.78328056
Si      39.01674166      11.15440938      18.72456141
Si      24.95972439      24.21226205      27.39301320
Si      22.96076930       5.11315211      32.45936967
Si      28.04945135       5.76310349      26.17925689
Si       9.16650697      20.62353130      18.33575327
Si       7.26416949      16.22862290      11.95907337
Si      29.63457417       2.12654681      12.73292563
Si       1.11737171      25.46734752      36.72239939
Si      21.43266777      37.08428230      24.22919270
Si      33.01421233      20.17768163      34.53392936
Si       3.99128195      19.39872447      11.52389281
Si      10.40442240      23.13045159       4.74594638
Si      36.36095356      12.97968823       2.96016697
Si       9.32481936      14.50025087      16.12782774
Si       0.49567700       7.51843805      21.37086248
Si      10.73640461      14.24676206      26.99902594
Si      29.83856390      21.51862775      16.78854118
Si      17.01324894      11.86367110      39.62837543
Si       5.10867041      32.00255367      11.94216492
Si      34.48556962      37.41349022      24.95940978
Si      33.43816758      34.46749408      12.89314931
Si       3.68727513      38.42494919      29.52133176
Si      34.91463234       0.32984567      30.98877410
Si      30.99706737      29.68707513      39.80671039
Si      37.06911098      35.58017665      14.55657248
Si       6.99255001      17.84568112       0.57774904
Si      24.39198811      13.18327005       0.21656816
Si      37.68151727      16.85776169      34.45369215
Si      22.01253377      15.27734378       8.65772373
Si      28.73101841       7.88239696      37.41711762
Si      33.34246691      21.91423549      29.18698719
Si       9.24580271      19.70565226      29.75780799
Si      10.59474354      15.78524860      37.81572404
Si      17.52984333       4.75638463      13.61225690
Si       8.72720092       0.06077594      38.46151721
Si      16.48362899      18.13917090       1.49192240
Si      14.46337764       3.70507932       2.41495849
Si      22.34413128      36.01994218      10.10536222
Si      21.22863178      16.96107621      25.24660378
Si      36.79435691       6.17575829      24.08085236
Si      35.01820088      23.69540312      13.10891956
Si       2.63386639      21.58577708      20.69370317
Si      15.69250116      13.64236494       3.20852377
Si      13.98569636      22.41565805      38.23402231
Si      33.54124312      13.38888727      34.03550892
Si      17.15694211      12.37699580      18.98314360
Si      13.62813390      12.16482946      32.54490414
Si      22.97628175      38.93448312      26.29757846
Si      38.84782441      21.11405632      22.80149965
Si      39.60596144      34.74293993      11.95171911
Si      15.19702752      30.69215691      21.32725787
Si       1.59003688      39.30550766      20.57604050
Si       8.86048678      27.68309490      32.43718546
Si      13.84374525      28.42321510      10.61691917
Si      31.97368921      18.81219241      12.13096584
Si       0.53769030      13.61099904       3.10513556
Si      15.26749470      22.91128729      28.02724679
Si      15.59715633      23.96387767      19.62734053
Si      30.65742975      23.50971047      17.51344311
Si      25.54036883      11.63850332      36.35305768
Si      36.13505351       9.33729196      28.24268106
Si       5.23201564      25.45641955      39.87271347
Si      26.68634283      21.04016123      13.78808056
Si      39.64419998      15.10715775      15.33272704
Si      19.96175052      30.39642795       4.28315990
Si      10.75598199      23.12453457       7.50569142
Si      21.10915696      25.87751531       9.54673007
Si      10.95316680      25.97377302      17.24938100
Si      14.97468873      37.15702101      24.97952736
Si       8.85426840       8.76707476      23.70867858
Si      22.86664682       7.00903984       4.11815892
Si      11.68910586      36.37083496      31.66831362
Si      35.98326990      26.50956172      32.41725509
Si      39.10062859      31.61713544      10.31838919
Si       2.33505187      31.61886730      37.92243103
Si      12.80161975      25.54986325       8.83395522
Si      25.44024524       2.85325435       5.17281182
Si      33.15496945      24.61888749      28.77469574
Si      14.81202745      34.65084496      11.86230988
Si       5.49136264       6.57814495       5.61492857
Si      27.94226850      39.72900822      21.13219525
Si      10.71206590       0.94894981      31.36659139
Si       7.20117365      28.01132155      10.93043020
Si      31.04484835      25.02463608      17.60115590
Si      10.56131287      23.55520744      27.76399134
Si       1.43006597      12.24840841      30.28312054
Si      10.71173949      29.08224359      16.27024989
Si      27.38986104      36.92659526       6.67900139
Si      36.96852595      35.59447558      20.38466197
Si       1.81271950      32.33139451      23.63095605
Si      12.53943148       1.69913234      15.46753863
Si       2.94855868      17.91809650       2.59994320
Si      26.52794903      24.93368121       9.26408044
Si      25.19862931       6.99510158       5.10987703
Si      14.35964801       7.23703502      18.63147330
Si      22.67691445      18.52779191      21.55466441
Si      33.91056142      39.55151069       2.93509758
Si      24.50364649       0.85912017      20.85152873
Si      16.07246209       0.34400619      37.34961813
Si      15.66475309      20.35026469      30.55497409
Si      23.60204956      34.47131497       2.57689509
Si       1.13828595       7.36449600      25.10559725
Si      24.78856490       7.31437512       2.21259426
Si      21.47993854      36.10432834       7.39681689
Si      17.12731554      33.43762914      32.62851248
Si      24.69162636      29.87894273      17.28975132
Si      29.98116206       5.19497713       4.60385575
Si      22.22246866      32.37015593      36.37113270
Si      18.40659844      21.75574130      39.63658800
Si      36.08656026      19.91028908      12.46803242
Si      10.55519885      13.81413099       2.16062127
Si       5.63820004      20.23947674      17.41901474
Si      11.83405389      19.37741698      12.56204094
Si      38.90263536       4.35484363      11.14539675
Si      33.75354091      16.49080439       9.82216768
Si      33.04969595      35.63455002       4.72527695
Si      37.23140926      15.15936654      32.82592620
Si      33.41668023      12.20335840      19.80851790
Si      13.92028316      19.58233002      10.44001203
Si      11.78640000       2.45482366       4.71919165
Si      32.12372647      17.86596403      10.84951508
Si       3.21814957      21.97801206      27.54246337
Si      11.18800417      14.64086398      23.85447233
Si      25.73753779       5.77398737      18.35299665
Si      20.97713206      16.23094403      28.98442372
Si      24.77174074      21.44828222      22.44814961
Si      36.18302405       9.89588748      33.12834856
Si      18.20648632      13.20235985      29.77316561
Si      34.04558902      23.85547011      37.12442146
Si       9.94926083       2.62523496      23.22168990
Si      18.33499150       2.82504163      33.54677478
Si      34.98780423      19.57121043      12.77018056
Si       2.80128370      34.57009729      37.95920131
Si      27.25621647      15.98369224       7.40402564
Si      15.90452917       5.88975009      37.37778707
Si       2.71828221       1.21345587       0.89444277
Si      22.64219114      19.30181690      14.36637661
Si      12.54058840       8.57778980      20.02124789
Si       2.08116795      37.05822716      35.64059909
Si      14.58848464      29.95903976      12.26927395
Si       6.98124879       3.64415708      20.98813464
Si       2.91407631      33.20567930      31.33402973
Si      38.06271597      37.74720204      16.47555212
Si      32.30621619      25.61854567       8.07445294
Si      20.85994398      10.44034916       5.65994134
Si      30.36404062      25.24026864      13.87468777
Si      24.39297169       8.69839852      21.29366591
Si      13.88123409       3.63655215      33.91118782
Si      37.59541460      14.95283678      11.21322003
Si       3.52073656      19.62010456      29.95337354
Si      10.52982384      38.89037293      25.06753198
Si      37.18112406      36.84898235      26.41434422
Si       9.17539793      25.75164690      13.50332222
Si      20.23201948      15.67071498       0.63329459
Si      15.78027697       2.80859617      37.13175384
Si      10.86095910       1.12969541      16.79853332
Si      28.92740767      38.11665208      16.26663735
Si      14.66131510       3.34612611      39.69205765
Si       1.63165074       1.48354905       0.59626680
Si      27.38355350      10.71047970      33.94322532
Si      30.10519231      31.80795106       6.60887935
Si      27.31020707      38.69735085      33.52855458
Si       8.12912591       2.33292109      20.02565200
Si       8.58393376       0.74807365       6.85436024
Si      15.07515095      26.72998836       6.57969340
Si       8.70534837       7.46732984      31.84751215
Si       8.28914493       4.62832844      33.75929980
Si      28.18658462       5.52013852      11.79219953
Si      37.77193580       8.05393783      32.27541649
Si      19.75048603      31.17659515      12.59790224
Si      15.91987658       5.00789507      27.54442174
Si      38.40015743      14.37802822      15.26200419
Si      29.68455846      26.78382283      30.79907518
Si       6.27414617      33.21251330      36.50932694
Si      27.15620095       1.43052325      22.80593879
Si      18.65141928      37.57386702      22.00050237
Si      18.65446773      18.93080380      10.91343605
Si      38.54373321      26.38113533      28.29117316
Si      25.05718931       6.77746176      27.49222219
Si       8.19264069       5.50450023      17.73637290
Si      20.47326564      21.69179616      37.50147024
Si      13.97195018      28.94408224      12.53348162
Si      31.43783177      25.55025732      17.53889201
Si      16.36428164      18.17182442      22.53036737
Si      33.17234180       8.89964378      12.45259941
Si      29.26245701      15.70581352      25.58646726
Si      39.36929877      20.69675885      34.19901707
Si       0.84590939      26.08525743      26.05261948
Si      21.43510959       3.26040034       9.92574646
Si      23.86678162       1.38249157      20.56766306
Si      22.20194545      39.53863136      38.87097590
Si      23.29893660      36.39472820      24.60155612
Si      22.78269191      15.49828861      30.96271262
Si       6.44082674       7.41040197      26.09112581
Si      29.80212275       3.39685081      39.69877623
Si      31.73266375       8.69589203      30.53933220
Si       6.32498547      31.26396453      11.73752943
Si       7.93987722      14.93923582      23.32803556
Si      23.48407428      14.07065645      29.63528513
Si      19.08564134      17.56421463      27.23256726
Si      28.54117255      38.99998552       2.60302712
Si      38.48650514       8.66360574       4.88599127
Si      26.63474303       9.68528569      25.99726585
Si      17.98963058      38.90805494      30.77836018
Si      18.07833959      26.86147340       1.84537090
Si      20.90597179      32.74897482      20.19049085
Si      16.86403720      10.26294249      18.40920629
Si      31.20367610      28.54082395       5.35444745
Si      13.09134521      15.83973473      16.30384855
Si      38.48860059      32.39273737      10.43602949
Si      25.67259822       9.51073517      17.69733710
Si      23.64730209      16.46373281      19.73886244
Si      20.84881223       5.21893173      10.58787885
Si      22.93492516      24.00550437      37.45194074
Si       1.37813227      36.87472168       5.58292830
Si      29.31940380      17.28730637      39.74423911
Si       8.10918893       1.99886164      22.50424713
Si      30.00966317      32.80977677      36.37900402
Si      28.10324795      39.79018111       1.52671598
Si      14.18521773       4.33525041      28.66834502
Si      19.03874203      21.47696887      11.50375402
Si      35.18500550      18.89667109       0.30844886
Si       7.10591797      24.12189048      25.57754542
Si      30.92571076       8.39942688       4.58859343
Si      17.63688940       3.11853072      25.89814255
Si      33.72492053      16.95122326       2.12536075
Si      37.22972409      37.72664835      13.73514563
Si      29.77574481       7.96165558      31.45552774
Si       3.81475747      28.38102003      10.87479885
Si      20.22173244      25.33119651      33.72076278
Si      18.59468125      20.16705067       7.33596075
Si      14.42784407      19.87474053      17.01527923
Si      22.31464014      39.41301301       4.02934333
Si      18.97303708       0.18166448       4.80265538
Si      10.55220595      37.75748751      34.23440496
Si       0.06011154      28.87066319       4.11887745
Si      21.21510464      15.01194452      32.72857559
Si      20.08261201      29.83435354      28.89790820
Si      36.26728197      27.05359908      26.11881973
Si      14.66894508      20.89073560       5.18532091
Si      31.45790072       1.63495791       4.92490657
Si      16.88690190      17.41825288      39.15136615
Si      25.96620154      17.65833363      38.07897084
Si      38.40408262      22.72028481      11.46819335
Si      16.60311837      36.93179423      26.33981033
Si      11.15488170      19.89962690      27.98311631
Si      16.67770716      23.74594082      39.87158217
Si       5.40530279      27.17334055      34.88882052
Si      21.47803070      19.71536379      12.94979075
Si      21.06063397      30.10954280      30.66883431
Si      25.46761599      25.12200981      32.17945261
Si       3.56601339      22.08409436      39.31007936
Si      13.49826712      31.12980707      17.61727707
Si      11.70648320      15.44285993      32.78667590
Si      24.80550838      29.99718585      14.21799272
Si      12.04904087       7.47166213      39.03849114
Si      14.76624157      31.81619102      15.55953547
Si      21.92146268      34.57389261       8.31603266
Si      21.78373175       9.77070849      39.32062941
Si      36.83238997      18.47346002      10.98491550
Si      24.55258361      34.62587993      25.86206004
Si      33.56755870      33.44565962       6.20714201
Si      19.22886734       9.93204374       2.26734996
Si       3.87168127      38.63980745      33.99661462
Si      36.05947528       6.53190966      10.72552146
Si      10.73206550      17.34127737      33.25350070
Si      22.00820078      23.61097726      34.01008301
Si      15.23469678      34.84377543      39.64282847
Si      19.65117631      26.29546010      31.76712137
Si       8.14930633      14.68780965       1.96428089
Si      38.01774719      18.42121784      19.46476564
Si       2.91787923      35.38542065      14.51872421
Si       8.83504009      16.84584286      17.20289908
Si      24.61695185      19.88495732      11.19977638
Si       5.14975237       5.47561417      23.84388407
Si      29.00790093       4.37535999      22.46510280
Si      30.95832193       1.72843833      31.76665273
Si       8.02618260      31.84556285      24.25351345
Si      25.21974141       4.57769550      34.86343878
Si      15.87150026      15.37427886      34.32426305
Si      10.94770977      34.23624819       8.67953891
Si      37.07902285      12.17266243      34.44006567
Si       1.27425166      20.17311725      30.50403122
Si      11.98648964       2.75367882      15.15869355
Si      21.84771854       1.99502562       7.12018357
Si      23.42485834      23.38306412      28.52351101
Si      12.06842744      21.80273161      28.45987127
Si      25.30201493      29.66921163       2.77944428
Si      25.93329360       7.55807403      15.79319649
Si      18.52869468       5.00309586       5.82186130
Si       3.87392151      10.45790789      28.72104436
Si      12.38510271      21.75829213      35.74609719
Si       7.70840075      12.41633193      23.38231781
Si       0.53874585      25.21444888       5.44048418
Si      37.91601133      37.61615550      14.72226106
Si      17.42566708      26.55232271      22.03607656
Si      38.37642290      35.33997632      34.15817201
Si      19.11878444      21.34314193       6.84819802
Si      33.71033692      16.77003808      28.56858297
Si      11.43317602      34.49954129      21.69972488
Si      20.61327374      19.83793890       0.80397440
Si      25.52030679      14.44503005      23.80912879
Si      30.65428146      15.14619583       4.66376371
Si      22.21092136      17.97045402       9.42597161
Si      27.71740779      34.93985144      29.79390423
Si      31.70051445      21.58911814      33.53961841
Si      38.06361807      20.03998581      27.15270675
Si       5.29930904      26.40586139      28.84345700
Si      31.59554369      39.99530005      36.19843551
Si       5.11839180      20.59078642      23.89758139
Si       2.29971142      35.41783738      39.55011178
Si      11.42570953       6.43312197      37.92718630
Si      16.69500395      11.85050727       4.50812767
Si      36.17373671       4.10231523      26.63658339
Si       7.48501367      11.62270175      29.34633719
Si      31.83532518      10.43919265      10.11688531
Si      11.92612249      21.17461809      22.90525981
Si      29.07521997       4.19079479      25.10116324
Si       7.93606719       9.77186539       1.10730953
Si       1.44295955      16.56563786      16.32238029
Si       8.34616399      39.26043995      36.25644856
Si      26.22446207       7.59041242      14.66942747
Si      23.35361337       1.27984851      11.49266970
Si       9.46675742       1.84402506      17.99264903
Si      35.15505849      15.43274972      31.51959580
Si      27.74571696      22.59894920      17.10564236
Si      12.50872924      31.80527962      11.45194575
Si       1.24759002      24.96260444      39.68085310
Si      29.02960176      17.98598165      34.41036172
Si      34.55078739      20.29073720      14.55363980
Si       7.78861374      29.16986711       6.49512609
Si      10.36480368      24.69528158      24.80403183
Si      39.71040946       3.94653278      25.22922123
Si      25.36973396      19.68945941      23.71995310
Si      26.44270945      38.18356108      16.12452522
Si      12.73271976      10.12464150       2.89047662
Si      31.32575391      13.07139225      21.50296679
Si      26.52214441      13.16673340      22.84886156
Si      18.92706043       8.67031997       9.94742726
Si      33.45081892      21.97997216      16.17851044
Si       3.96369646       4.24129398      14.23758821
Si      25.62201074       4.90044589      27.16646171
Si       1.46839560      23.61801068      14.25285732
Si       1.58957031      34.19303644      13.12885468
Si      38.21180358       0.89299420      31.02186297
Si      39.47591990      18.53841540      23.15517481
Si      24.61464430       8.56178397      29.89448661
Si      32.68526983      35.84842170      27.55439194
Si       5.68381390       4.25345446      15.23165000
Si      26.28371878       9.29597970      27.13453643
Si      21.66639266      23.19439472      24.39474361
Si      34.13445702      39.95456965       3.26509724
Si      35.11203826      39.16988384      10.35434796
Si       2.99664979       8.13102962      14.90118338
Si      25.06924795      21.23003450       8.23397475
Si       3.17958164       0.97809468      28.25487847
Si      20.10193544      11.32132832      20.30407286
Si       7.73832606      27.02711951      14.56734357
Si      21.64854230      12.90787364      30.10271001
Si      36.48178687      16.55003248      29.16776984
Si      13.32359242       8.49465753       4.62822831
Si      26.80653200      35.77318250      12.46528946
Si      17.89030237      19.45820492       9.56388690
Si      34.93043874      24.73216925      30.52789854
Si      22.89570080      23.65866945      28.18874025
Si      38.54050738      32.07852250      26.72706972
Si      31.65956033      18.18562878      36.94609029
Si       8.22179600      22.67967862      36.53680909
Si       4.35724770       8.46321632      17.91263500
Si      36.30751005      15.30942585      17.78484796
Si       4.04505187      39.03344286      30.86028505
Si      24.75474765      26.44933124      25.50928183
Si      32.92692844      17.88627159      36.84385922
Si       9.90418987       8.16310078      34.00930769
Si      14.79904722      11.91742772       5.57570820
Si      33.05068779      33.77429270      27.26006015
Si      32.59449587      34.22128518       1.56025968
Si      22.11097012      31.78119064      34.18952329
Si      26.25721970      15.57171193      28.81995714
Si      28.41733316       6.88970360      10.09704392
Si      18.05648369      35.90671974      13.98401768
Si      18.21247647      25.44120200      27.49093273
Si      11.55387386       2.94802959      34.82202127
Si       2.41583564      37.95174968      12.36772237
Si      11.80253847      14.23592891       2.49480019
Si      29.00750061      26.22449695       6.50609565
Si       6.12869810      27.56722885      37.26933018
Si      13.55635097      31.91372921      21.22097616
Si       3.50750002       0.76404233      31.11671840
Si      33.64310947      21.02223916      22.98407564
Si      18.97178532       8.59459661      25.41720661
Si      15.20030573       7.08430839      15.09855526
Si      24.05862720       1.27037148      38.47458985
Si      17.02449389      19.50539228      19.49335324
Si       8.67625022      19.27324128      15.45071656
Si      13.06446162      24.95415438      25.20530100
Si      18.71643271      34.39521053      21.11987498
Si      31.93848293      21.26398866      18.10169547
Si      31.47282457      21.82100181      37.37653781
Si      29.18075035      34.91956756      27.08750038
Si      27.04845766      15.61441264      32.36252380
Si      35.77529095      13.09789392       4.55759425
Si       0.87381846       6.57617067      14.51473678
Si       5.51708927      11.51180350      25.02699446
Si       4.84450500      21.09110887      34.84140396
Si       6.57255844       0.42117155      27.09013210
Si       1.38063326      28.17397914      25.25903550
Si       2.45034971      28.20572728      29.14107498
Si      20.66801908      39.88172988       7.68832207
Si      32.63001320      26.04280608       2.32325537
Si      32.26758409      22.38094197      10.09573852
Si      37.51275865      25.54526267      16.08771905
Si      31.69882831      22.00553913      27.94797209
Si      36.02250391      37.23694903       5.54875910
Si      23.42140001      15.46266085      18.48225494
Si       1.75883160       5.24770054      33.15496960
Si      31.14365680       6.53888473      28.31261642
Si      20.01154601      35.92969565      15.66398830
Si      12.31626002       1.04963560       9.84753607
Si       0.33509366      19.02059860      11.94643386
Si      16.63891153       6.89825288      21.16990668
Si      25.86876505      14.11494771      10.25340079
Si      27.87223044      32.37883134      15.38739474
Si      28.32231411      38.08349556      26.09437814
Si      33.07695114      39.45505345      19.94307686
Si      39.01858077       6.42415913      22.35101117
Si      19.13409651      19.76630047       1.03447052
Si      39.28278781       5.13324317       4.43420024
Si      31.84505326      33.56382156      15.76610246
Si      23.57358559      31.92923048      37.21440493
Si       5.98666209      28.60484698      19.72160483
Si      36.99036732      21.14066126       2.71916882
Si      38.79901067      37.76677727       3.95544930
Si       7.50544406       3.67190292      19.49341745
Si       4.92796485      34.13436834      14.52790298
Si      26.35430613      22.88695383      37.79960679
Si      33.91088486      31.19301273       0.60365237
Si      16.53484733      26.50467065      17.53608001
Si       4.24174045       7.90502403      26.13760314
Si       0.82405266      20.69294859      15.79747726
Si       4.20588749      31.47073071      26.04297958
Si      36.46523992      28.54582821      33.97619977
Si      30.15868781      12.06088819      24.82112664
Si      30.53471947      26.81849779       5.16708368
Si      28.89482770      39.35122966      19.13526892
Si      27.89405207       7.60400660      11.09374802
Si      32.97678895      11.49148261      18.32579540
Si       5.21501722      23.32702986      21.10075665
Si      24.85815004      12.74599302      19.59308190
Si       4.53369257      34.93848344      17.75486428
Si       5.54022178      24.63895327      30.93599277
Si      21.01441659      32.00859717       4.73977171
Si      37.72264624       5.26311753      19.26824002
Si      28.50662489      22.44635705      16.03187929
Si      35.60118464       5.12188878      29.95833516
Si       6.97915679       4.21169527       6.65034290
Si      27.54865787       1.91141622      23.41090410
Si      26.32381336      23.21196884      11.82871784
Si       6.88108410      15.65219467      39.23486538
Si      10.35081830      24.33927018       6.30290207
Si       4.06915485      18.54354546      24.59545912
Si      11.37876145      36.78577600      36.78659554
Si       3.54274851      32.55559798       6.04438107
Si      14.89005147      29.07278990      15.86250555
Si      29.68495030      23.99871526      35.42287071
Si       4.51271331      36.84618591      32.91028761
Si      27.06002103      30.31346549      25.80978404
Si       0.25467808       7.75339851      19.36325648
Si       8.58503267      13.53129447       4.43967797
Si      21.84156964      16.99513724      28.73920762
Si       6.96439951       6.25281767       4.65398817
Si      35.99207842      28.10911410      35.05248319
Si       6.98681674      11.83187948      29.84130370
Si      11.17123931      13.51127213      16.57180544
Si      19.02690429       5.58577429      37.60437254
Si      24.24764769      35.96160797      24.11421359
Si       5.68379353      39.23748533      29.90804639
Si      34.20084604      27.24096946       0.88254391
Si      38.22247328       2.24558413       2.29879799
Si      14.41401077      13.66411903      21.16575248
Si      24.46324030      32.91226526      39.33023490
Si      31.43908470      36.74544425      38.10757930
Si      25.20016339      11.67726039       6.42846443
Si       3.07357385      25.97485583      36.90948560
Si      28.28735837      23.19349433      35.78326016
Si      26.82633685      19.15608966      33.01295704
Si      30.98070374      37.11401008      32.34793398
Si      12.96996258      37.76506900      20.00952798
Si       1.20881655      28.43089481      17.93858899
Si      19.94243639      31.52121868      22.93207416
Si      14.85788948       7.44435430      25.44749744
Si      23.99944284       0.81030462      13.52773200
Si      31.36032627      36.39567613      27.22937291
Si      31.43033145      18.14666847       9.09238456
Si      15.81238550      14.00511686      28.74729895
Si      20.07249775      27.46497572      30.60376608
Si      17.00878301       4.43734611      33.43955292
Si      34.56867648      11.86101449      16.66063769
Si      23.46950676       2.29605290      12.87409607
Si      34.43799014      17.62083302      28.86122559
Si       8.88373514      39.70813544      34.07547480
Si      23.99312866      37.05543741      36.87623582
Si      25.50759240      31.10156548      34.94902022
Si      31.57485931      30.13333598      20.62681942
Si      25.01049908      18.32871396      16.36530661
Si      19.01230939       9.24558012       1.37113995
Si      21.60396551      24.16440950      32.25377686
Si      29.19680526      13.61691810      23.59127462
Si       8.37317765       7.90132553      19.94388926
Si      34.73915873      21.65685149       1.18995226
Si      35.59025509      14.18996428      11.95144408
Si      31.77657444      29.84240612       4.22757779
Si      24.12218620      27.06148634      36.55467681
Si      22.22531778      13.23857648      14.46489354
Si      12.67603820       3.48321825      11.81971992
Si      10.22626359      29.92405576      34.51587426
Si      35.89537326      12.92815352      17.56670788
Si       7.74422523      39.90651433      27.42790861
Si      33.93449845      37.06256942      18.52971779
Si      21.44409448      17.12493302      37.35036066
Si      27.52230888       5.43004853      24.75094083
Si       3.94658982      10.44075995      34.26477140
Si      26.42852358      35.35849227       4.46435951
Si      37.26220349      17.09132528      12.22292419
Si      39.46163662       4.10239414       1.49344274
Si       9.05065515      32.72966651      25.64099362
Si      34.82997643      28.46934128      38.68022521
Si      35.76225944      20.70824188      32.13682296
Si      32.64587990       5.07100983      28.21489307
Si      18.93394652       4.41519365      17.21444845
Si       0.72123386      18.59342364       0.27886747
Si      32.36503122       7.94444196       9.65607464
Si      35.51260172      17.38048704      12.24779740
Si       2.64142731      24.23962273      30.90773209
Si       1.18800107      35.93558216       7.16678785
Si      20.86441821       2.61370399      29.85633126
Si      34.47003761       8.92660758      27.23184060
Si      26.13544115      37.84032208      23.39260005
Si      18.82458971       7.14415723       6.85727761
Si       6.57285064       0.85918882      22.64782935
Si      34.31916902      33.45680720      10.68548399
Si      19.15147880      34.63056391       6.54193911
Si      18.30581872      16.50861277      37.39386921
Si      25.76305052      30.02776816      36.26810981
Si      11.24409960       3.37037069      34.68970247
Si      24.39264684      25.98381740      14.33180706
Si      33.39747463      34.35694740      27.15016850
Si      16.21979207       9.04095035      33.73101572
Si       3.56040506      20.55660145      18.30708726
Si       1.16739579       7.00369359      25.86192662
Si      30.33198601      23.62654463      31.73417111
Si       7.03513172       0.22446219       7.99356503
Si       4.50467234      16.11022610      11.45816444
Si      38.92172807       3.66340519       0.89085032
Si      34.49782611       6.82416788       4.50006327
Si       0.58620089      33.14316089      13.20467570
Si       4.29613269      28.10866937      26.33378598
Si      15.84965595       3.28229022      12.57674139
Si      27.97973582      27.62617446      25.55981095
Si       9.60086464      13.78891028      28.34322878
Si      32.58823806      33.50460347      18.16771411
Si      35.00319785      33.56365013      38.83148025
Si       3.20710992      12.76029031      25.84183485
Si      26.62672913      18.37921556       4.22891414
Si      34.56868372      15.91371793       6.99556851
Si       3.86236497      24.78542503      11.32193428
Si      29.07642919       6.55510193      10.03111802
Si      15.87609773      15.48912267      16.14653920
Si      20.49176566      26.69067532       9.16414531
Si      10.74007627      39.98264587      25.72551309
Si       6.26398796      20.96077056      13.01376679
Si      31.80095754       0.97745967      33.33122076
Si       9.90137224      11.08175539      17.86480966
Si      29.51493899      21.05412755      15.72832932
Si      31.61015665      28.57310519      19.49543871
Si      29.88122935      30.90023194      26.20776668
Si      11.41178306      37.31228584      28.45150092
Si       0.58329012      27.38715510      27.20879833
Si      31.84468612       7.85090376       7.10885062
Si      27.78639735      17.59085891      21.41370298
Si      39.33363301      17.31645012       5.45417297
Si       8.54471857      39.42214338       1.12554034
Si      35.03760045      11.55736335      31.20278787
Si      19.45667557      21.43413460       1.73012998
Si      24.51237836      28.21293745      12.83576400
Si       8.23392964      27.98481495       9.15250984
Si      27.44703922      18.03805644      20.51144130
Si       1.33450577      16.32564902       9.09050245
Si       0.54679745      20.21399994       1.03874595
Si      12.04809026       4.03693429      26.85249572
Si       3.37292380      32.77665651      17.92256378
Si      18.60472371      31.83328349       2.90408902
Si      15.15789466       9.95994051      19.33360118
Si      33.21634482      32.11929412       9.78322112
Si      21.24665058      31.00961991      21.27041967
Si      28.10457327       6.65591983      24.78263552
Si       7.69411359      16.17941359      11.89250222
Si      13.32698267      24.74174807      38.20373096
Si      36.97426642      15.10549207       8.87080337
Si      24.88656159      29.38757732      26.70288525
Si      17.97225315      23.59131719      39.38169631
Si       2.96879677      32.79863099      10.26260754
Si      24.68003972      36.79352675      35.12875172
Si       1.79362012      36.56476483      19.28809087
Si       1.81837630       7.98857765      20.81364791
Si       5.53399203       6.94759262      34.52750035
Si       5.94974335      33.48423789      21.03588480
Si       6.27678295      33.47271229       7.83868613
Si       3.15684145      38.60756044      16.93992118
Si      31.01205693      26.19233163      28.96392362
Si      13.87975846       8.73667770      19.57532880
Si      23.52565139      30.06918253      25.57748606
Si      20.30114661      38.32501574      13.82280122
Si       3.83998243      39.36029848      27.34902980
Si      25.65277620       4.29122776      31.37592544
Si      23.51296104      21.78082408      22.41937267
Si      11.65097861      12.68636650      22.87407432
Si      11.56577833      33.29399456      30.50798917
Si       0.59879515       7.14025680      37.94895760
Si       1.62963258      32.75184084      23.89180102
Si      36.61636351      19.22908970       4.21287508
Si      19.07326493      30.18746524       6.54145823
Si      11.96843233      12.09794221      35.73729236
Si      12.92804762       0.96861102      35.45962613
Si      38.81337296      29.41570388       4.97999532
Si      23.91677371      35.86386678      31.15538142
Si      34.60277824      15.19983393      39.68433986
Si       4.47496322      20.44844787      36.57134948
Si      32.88211573      19.99276762      21.32424048
Si      22.52922749      24.10803282       3.05050255
Si      23.59605490      27.02535850      29.54241843
Si       8.04591322      17.90768217      19.64684426
Si      28.32754910      13.92273220      35.26699404
Si      21.52521967      21.26276960       1.19805796
Si      32.76015547      16.98510424       6.21961299
Si       7.92470642      28.14235612      22.23412533
Si      37.18416218       8.88896460      35.63907058
Si      12.12310096      32.05767088       3.64349561
Si      26.90325528      21.56762177      12.34989256
Si      35.56756545      17.49528311      38.25993561
Si      11.02141267       1.63139910      28.99760683
Si      12.64723591      20.68392560       7.58923615
Si      31.35128222      18.32574407      20.04034127
Si      32.17324812      38.86858239       3.77567725
Si       9.32862555      35.00459815      23.66379259
Si      27.60949826      21.75528146      12.44654270
Si      29.11484828      27.67513506      26.69342779
Si      17.48323868      12.36794270      25.42895628
Si      27.05335121      35.98728660       7.54706385
Si      29.09701774      10.88860888      17.90409194
Si      13.44576017      37.57675972      12.13777352
Si      10.89174876      15.18709981      11.28727214
Si      25.78969320      36.62126379      30.08784913
Si      35.16210594       6.01580871      16.02463968
Si       8.90409525      31.75372440      11.70433094
Si       8.34299510      19.40359344      32.23518996
Si       2.95641523      13.09445972      13.65007540
Si       6.48660669      10.82405226      15.08929189
Si      37.77650847      32.54628666      22.66780111
Si      36.20007656      21.52859285      18.43182114
Si      34.18087439      36.08323378      22.20892806
Si       7.44387063      22.89750727       2.64257591
Si      39.83778746      16.24966379      25.94894861
Si      11.20306262      19.87933632      37.87794561
Si      34.19813147      24.81948978      38.78452674
Si      18.78332875      26.99885573      22.17335526
Si      22.19947365      10.39958691       0.63904401
Si       8.37754511      16.72128205       6.25774568
Si      31.35179976      35.80841254      16.57838702
Si      31.35003004      33.50348773      22.18175413
Si      36.91824772      35.45843437       3.70738629
Si      22.76530707      37.22392594      29.78327617
Si       8.05277371      25.48900096      15.85595745
Si      10.53714583      30.10187534       6.60060386
Si      28.73471681      16.88451146      19.73527206
Si       9.14899052      17.21497134      39.60946653
Si      26.03297235      35.39285898      34.64036873
Si      28.61899101       4.71805354      29.67844692
Si      18.11813336      31.80107410      21.40380505
Si       4.26332043      18.07382701       5.47944933
Si      31.15376623      18.47745799      36.48821406
Si       5.95187562      15.46558193       6.49760847
Si       3.33917382       8.08825760       1.18996552
Si       8.53738468      22.89264944      17.74697969
Si       1.03344157       6.88354534       1.36138078
Si      28.16153227      10.96312773      33.26517936
Si      15.55036459      26.96767720      27.25388334
Si      31.85993031      22.82157486      13.97887656
Si       2.91767330       1.93142989      20.33539195
Si      34.02873040       9.84117775      33.61611769
Si      14.03331189      38.85276969      33.99307401
Si       3.72676390      26.43199435      36.27222183
Si      12.59421485      20.67469897      32.32913410
Si      22.29762030      31.27303050       5.57917640
Si      36.97096942       4.96585670      12.43446010
Si      27.56224919      13.81110958      36.98732900
Si      12.80613221      10.93637858      32.30818213
Si      27.10850619      11.48672552       2.47596746
Si      16.54064627      13.98473371      35.29314291
Si      36.21413407      21.69185835      38.67010869
Si      13.00700599      24.65086542      11.81246698
Si       2.01765746       3.87205071       0.57685558
Si       3.78156080      39.83797850       3.46366111
Si      35.02966927      35.94489989      21.13399084
Si      20.72459221      27.84663245       9.93286833
Si      11.48355971       0.43369956       6.85909687
Si      22.00942601      12.27302243      33.21152998
Si      32.39754740      15.88260330      28.59292334
Si      32.96763264      31.23181711      37.85170400
Si       8.43135341      23.93609078      18.68941282
Si       0.13987805      28.70281467       3.50261379
Si       7.39084515      29.97467075      37.26876835
Si      29.07387984      35.33060553      20.55247574
Si      19.46660599      11.37524410       2.75340591
Si       6.72288627       8.93149483      34.92991551
Si       0.09408677      16.88430062      38.86924877
Si      36.27032094       4.44111241      29.76550190
Si      34.88134527       7.50647426      10.06768772
Si      27.34659550      30.30664574      35.02322675
Si      15.91595575       1.91444551      39.06211421
Si      10.35198793      30.79795087      36.77265354
Si      21.64747572      20.94372338       9.61318087
Si       2.43815904       4.42196540      28.94165312
Si       7.95958170      19.82415812      20.73715554
Si      37.07294758      21.61627596      24.62076136
Si      32.44854242      12.05079479      27.50535945
Si       3.92197621       2.84019096      38.76117696
Si      12.63448657      18.32174375       6.11145046
Si      12.16207003      36.07599558      37.29252066
Si      24.95627625       8.15203566      38.23843557
Si      31.30226718       3.94096513      27.33559720
Si      16.53892300       1.41871800       9.88699553
Si      21.88519276      22.95211871      38.60151544
Si      18.67346049      13.81256467      35.50886303
Si      20.44139426      21.81301053       7.84936739
Si      31.36945797      31.26289395      22.28708551
Si      14.82487718      23.11335611      32.89376249
Si      27.07998370      35.82177347      17.36857858
Si      26.12063818      22.85777491      26.13648245
Si      19.77000497      22.25978489      16.50136573
Si      21.37712333      11.04453937      36.01981268
Si      13.12089726      34.89000596      32.94994020
Si      28.41381242      24.68159809      31.95905208
Si      29.52949746      21.51634786       1.20126987
Si      18.13979167      13.31274974      38.95110686
Si      14.26081966      26.72740600      10.55564556
Si      38.71497812      39.01412850      22.75828156
Si      39.77957546      15.58150266       0.90672976
Si      37.11244144      10.36747165      22.16148165
Si      36.95357724       9.57009188      21.39003843
Si      21.91519083      21.94317054      24.83788427
Si      17.05384399      18.11229033      27.24225153
Si      37.69766842      36.74667947      14.04657731
Si      12.11351248      20.39779383      32.40163847
Si      29.94705737       5.37237416      37.84241279
Si      17.20473154      10.79465073      24.23773124
Si      15.23483873      29.80123766      30.49808306
Si      34.47985122      32.00538791      39.85770450
Si       9.31561340      22.20319830      17.14707559
Si      32.51370178      27.79356477      19.41265102
Si      28.57269346      18.89362446      37.33728672
Si      18.15864207      13.75667853      19.72777004
Si      17.36303697      19.25614250      29.02868903
Si      17.68411573      20.08796732       2.87525549
Si      30.45227194      38.58027676      28.04733560
Si      34.82606196      12.85319297      36.47399794
Si       3.52230215      39.55418027      35.95366213
Si      39.86829541      14.24625889       1.44438149
Si      31.06291590       5.31069548      29.93888324
Si      15.06203595       5.95147959      12.63398389
Si       3.88914938      19.82786168      11.18095210
Si      10.22118383       0.16213318      30.46680617
Si      31.72373968      22.08729544      23.21297000
Si      29.97296698      38.73662098      33.28921310
Si      22.11744210      37.78695971      26.50150948
Si      14.46435058      28.31843945      27.87476587
Si      38.40069088      20.77530121      18.41245690
Si       0.67440457      21.74916826      10.95512703
Si      31.23427836      36.20892906      35.54383382
Si       3.57937988      24.86169895      26.50414377
Si      10.50488788      20.72204716      23.83803124
Si      10.61300525      16.88373230      33.73999596
Si       7.89544511      39.94018190      25.67797627
Si      39.92011037      22.03364827      30.79576770
Si      33.32839766      11.99446012      36.45142907
Si       4.56464802      30.50742175      20.07571900
Si      37.75012434      20.99601032      29.58393727
Si      14.60750624      13.76919937      28.24914206
Si       9.21677011      11.72466116      21.62242733
Si      30.88072896      25.50390175       7.86009187
Si      36.41981542      17.69074297       5.68293795
Si      29.67560413      30.54467692       1.81225920
Si      31.87321603      17.88912458      12.59212588
Si      26.06688570      20.08303995      28.02955685
Si      38.72221279       7.23027229      10.62804601
Si      29.82472019      29.15017838       5.05615561
Si      12.50809945      23.35165784      36.40955519
Si      31.52818597      38.81823027      18.32538868
Si      32.02832118      36.18175097      17.39999283
Si      37.08769603      15.17377247      17.90375309
Si      10.59859573       3.17100062      22.94707839
Si      32.66700861      33.89771970      35.20826977
Si       3.52656049      33.27006680      29.36423299
Si      35.81803332       4.51813244      16.80263736
Si       9.87136467       4.27491569      25.76809048
Si      26.16958987      33.41605953      39.16510473
Si      12.17111035       4.53414842      20.25307749
Si      38.93912105      38.27674709      11.46570757
Si      10.69811467      20.18480276      33.98174952
Si      31.88101727      11.52981825      16.48345728
Si      11.39721806      39.56011533       0.27876994
Si      14.39355015      38.05160822      26.03802767
Si       5.67020857       1.29907158      36.77318827
Si      26.24899996      38.18943077      34.43522818
Si       6.31009662      14.36972422      24.42021941
Si      12.07583444      15.16173144      38.24090057
Si      27.67240316      36.49892887      12.50164331
Si      35.72057038      12.52875795      25.91093713
Si      28.03543282       8.74704813      21.91960458
Si      37.94725157      30.51418045       9.82140985
Si       7.00415777       0.57974297      34.67666147
Si       4.79145917       2.61510027      10.06927492
Si       0.39331619      11.09559846       1.40136090
Si      15.19444527      31.17690103      31.60852398
Si      24.93614387       7.45173455      38.33191744
Si      22.54595145       2.87441012      26.72418226
Si      39.31453621      36.92966367      13.16574108
Si       5.44389920      37.10759188      20.26209147
Si      35.47599408      30.28358959      28.35462472
Si      36.65747780      36.39838630      39.78269560
Si      10.31623689      32.82352060       1.44548225
Si      36.15115344      26.30434890      25.11839132
Si       4.17793706      14.49386395       6.64600980
Si      37.18416260      25.58533326       2.81827198
Si      15.64887800       2.79467445      28.51156366
Si      28.05181016       0.97166235      15.67012439
Si       2.76669438      26.69639300      15.47688576
Si       9.62049113       5.68250093      31.74463653
Si      39.92417277       9.12969411      35.01359263
Si      20.69664659      26.43439856      32.54770715
Si       5.57758462       3.87847518      10.77793384
Si      32.23892269       7.62643350      31.75602914
Si      25.14690391      24.18289803       3.41613843
Si      28.27449450      23.45149289      29.64459713
Si      13.64952361      25.79474919       0.59846606
Si      19.13812336      12.69613280      37.77786693
Si      31.64468340      39.58374272      16.83688466
Si      11.40760688      24.58176507      25.46186442
Si      11.21165586      22.31646944       3.77715701
Si      37.43969412       3.16258510      37.68380841
Si      21.49742919      27.93515287      23.92611957
Si       5.57092732      27.59160715      24.79486756
Si       9.51191366      30.71764376      38.85191963
Si      17.50741511      32.22548644       7.49734306
Si      14.07043595      36.51524634      13.38242433
Si      23.92559918       4.04647314      36.05422407
Si      23.38752822       6.93350644      25.16512416
Si      38.61506853       9.43463448       9.82496639
Si       3.76591487      11.64935411      29.35291468
Si      30.96441163       8.03418802      37.60385544
Si      18.94581869      37.95947705      38.18044627
Si      14.66492724      23.79679057       5.06446567
Si      37.83505918      35.21776289       9.46165738
Si      34.85024028      12.58038844      29.01419552
Si      26.28208448       9.63050279      23.93395628
Si      32.50297357      37.98829599      32.47601396
Si      37.58877253       8.75013563      15.70201502
Si      30.96065805      33.26016458      16.61745847
Si      17.18395812       5.36829996      28.14695411
Si       6.41798824      24.10173474      28.48372473
Si      21.13054050      16.62125929       9.32705968
Si      32.97342469      29.35860892      17.55843965
Si      19.17683411      26.77036694       9.43389265
Si       4.08042362       5.36571177      33.27679140
Si      33.41863995      18.01428358       3.60306460
Si      32.65908148      27.48448697      26.81010940
Si      28.89484516      27.35137704       4.29282496
Si      13.60044728      15.79942061      36.25403424
Si       9.58787176      25.22390066       0.27774754
Si      13.11315344      16.28924821      21.00234361
Si      39.34718470       0.60801016      25.23255222
Si      37.13646149      29.48714850      14.88808541
Si      29.43318780      28.50348884      13.65355360
Si      10.84155535      25.23722015      28.96227023
Si      14.27593860      35.38778055      23.06068683
Si      16.88896717      25.66138869      19.26615662
Si      10.38158871      35.50170724       7.75292073
Si      25.80285798      38.00255243       1.82013861
Si      10.53230092      37.82051895       5.37532966
Si      20.14383974      38.62762486       6.10653617
Si       2.78416881      11.18299466       5.86122900
Si       0.11764554      19.52256621      19.11865082
Si      39.30843615      36.76492850       0.09693919
Si      17.78102815       7.80742503      14.97806652
Si      13.99774244      21.20249020       4.44137903
Si      37.75754376      21.67056606       7.44172304
Si      16.93379584      33.55550235      16.82261381
Si      21.10580186      34.07965340       6.30163483
Si      38.14348275      38.40822655      10.28884462
Si      12.26889937      24.96047649      36.13346026
Si       9.08932300      16.73833390      39.14582321
Si      38.76006576      28.27004769      17.87510774
Si      12.13123922      38.12159985      20.23636415
Si      35.31755289      32.60853990      17.88195078
Si       4.82187006      17.05885102      31.32069492
Si      39.27077742      18.10550261      34.51586386
Si      10.46853917      36.26098456      11.65390616
Si      15.78179746      29.24851400      34.31759334
Si       8.15012517      21.38066770      21.32388527
Si      35.17666823      22.90042185      11.97991105
Si       4.95627549      18.97284843       2.34386779
Si      34.74156937      19.31573504      21.46630496
Si      10.32689614      33.22033202      30.82824229
Si       6.47714487      37.38768025      15.32893033
Si       6.12559948       4.01068220      28.34396040
Si       9.90324127      28.10912812      29.83271317
Si       0.36181983      33.95279315      32.07067075
Si      16.52469105      29.41493235      20.12845529
Si      22.23449352       6.73705557      20.00058402
Si       7.13619285      32.74937645       5.76039286
Si      21.20497886      32.32860600      36.87119580
Si      25.03737658      17.06743609      19.32877827
Si      36.53365232      33.44469936      20.40510662
Si      36.89776200      11.38028163       3.26558086
Si      39.19752748      34.28282738      22.85970086
Si       1.54693792      27.00020393      26.20927354
Si       5.94988750       8.90525421      11.21857330
Si      36.86137806       2.90591492       3.22369648
Si      10.78012944      18.35657610      15.53695814
Si      14.66595465      25.20396035      13.82727159
Si      22.64751891      20.52087928      15.56516597
Si       7.33869215       5.42335838      11.68498725
Si      35.61690413      39.30508832       4.22275739
Si      36.80996941      12.05894051       9.06443691
Si       3.75460448       7.76143344       4.54892388
Si      11.92757426      39.01701549      36.34023080
Si      31.98079490      30.28724666      18.91651464
Si      11.46098649      16.83793028      24.52824814
Si      20.79813238      21.60806818      12.87408344
Si       6.18004444      24.72904731      28.39003824
Si      39.67997007      34.11028161      25.31241821
Si      21.91024116       6.66797061      24.29487360
Si       1.25389718      13.67316344       3.94427689
Si      39.53107746      30.56175757      10.12070640
Si      33.03774571      15.86690899      13.57916937
Si      25.75034006       9.69153008       2.40288970
Si      20.61449927      34.86819758       9.87881273
Si      18.47347800       2.60896350      39.31088200
Si       4.98602903      29.93157006      14.43102004
Si       3.34052096      36.14300430       4.25809997
Si       2.64165687      15.09005418       6.30448633
Si      28.13029255      36.55754699       7.03277442
Si      30.93778576      20.18494234       4.37853311
Si      17.45400899      22.65163611      11.21539439
Si       4.79351359      22.91565859      33.78203368
Si      14.34253267       2.53147348      24.54504761
Si      37.61437451      39.04650623      33.75886655
Si       4.05897301      19.93878522      20.44281664
Si       5.84805551       3.04968524      25.23541523
Si       2.64447379      35.59200584      18.88924464
Si       4.48479771      14.73024639      26.54997358
Si       9.24691188       8.91851600      14.13461162
Si       7.25939164       0.98804621      39.32679335
Si      26.77650925      33.83614609      26.18704193
Si       9.39431697      25.97225879      19.85910608
Si       9.50580393      16.68562008      15.35753020
Si      39.40322693      34.39482162       9.38412639
Si       1.33009005      24.20741439       0.74107975
Si      37.16743968      39.68699596      18.53052980
Si       5.21103689      26.20291090      35.04295788
Si      23.93835811      32.22886126      30.35411529
Si       4.78274050      23.93668175      13.56016146
Si      38.00384266      30.36685036       4.01264208
Si      13.01688831      17.39463225      38.81805582
Si      29.76821038      33.28110263       7.26668133
Si      22.82994215      29.11500096      11.89321642
Si      37.84583455       9.41477764      34.18906137
Si      31.51405375      37.67301366      32.57931818
Si      26.54933216      25.05442141       7.47507838
Si       3.63180957      16.65628661      16.32049997
Si      12.81175096      16.69735421      14.30691633
Si       7.10358487      27.63434095      10.45070547
Si      18.03974387      32.57468682       4.35199414
Si      34.77296236      38.38336647      23.25003775
Si      21.86936401      12.42589608       0.67345571
Si      25.35588676       0.30310227      39.09437737
Si       4.47370890      31.09767504       0.59401666
Si      37.13744934       0.55225940      16.70092102
Si       3.96838417      18.91422046      31.92546656
Si      11.88824805      10.67508549      20.02634326
Si      31.42715953      27.03285963      30.21670595
Si      30.86389980      33.27684592      21.40054132
Si      22.38171347      27.54043034      23.45772544
Si      13.59422788      13.33055092       0.13465232
Si      37.37641207      20.38689801       3.11417867
Si      36.00044883      26.66822870      38.84646138
Si       6.16531774      15.74953722       9.50450952
Si      14.42205550       8.51999854       6.47214319
Si      24.96695128       3.66280911      13.63937394
Si      17.66946577      39.01418506      23.17289614
Si      11.53779802      11.52804686      32.97115847
Si      31.08484253      22.27240543      26.22141768
Si      20.88702502      39.76248474      39.52334732
Si      35.32950170      24.94403701       4.22788889
Si      24.50377030      28.03752481      15.99571098
Si      27.25890904       1.84214652      15.17171658
Si       1.35044598      21.46872425       7.91870176
Si       4.97908002      32.04359435      32.59837577
Si      32.49848083      24.36113354      12.50564167
Si       1.09297686       9.41124585      37.97482284
Si      17.75458147      27.29078497      24.11860766
Si      33.15257092      24.97005303      27.76336410
Si      19.64771732       1.16865221      24.18008834
Si      24.83760604      35.20184876      27.03793589
Si      21.59303492      23.03432870      20.60041178
Si      30.81149211      28.09011554      23.65068218
Si      15.95155846      30.48575758      21.27779339
Si       9.99602483      13.49273518       3.11684478
Si       4.88755589      35.61448064      31.12447826
Si       9.11694430       1.05044824       2.30131473
Si       7.77020776      33.05035674       4.90661090
Si       6.76778362      29.04282488      33.56935857
Si      34.17491679      38.64964276      25.29469394
Si      28.69762169      36.93908970      37.58507039
Si       0.22718800      29.53362607      26.54253699
Si      34.09120002       8.74679510      29.75851219
Si      35.79234358       2.44749742       9.95394858
Si      18.95166748      35.01539141      36.04803256
Si      14.03306680      38.21107903      34.95700787
Si      12.30889769      37.22500199       5.35937872
Si      11.32030927      24.19393931       4.93980458
Si      18.22029818      31.28130348       4.59816074
Si      28.70839383      35.32338233      36.06858320
Si      31.26204940      27.19024295      31.44296058
Si       4.88218542      22.46157541      38.34893639
Si      38.26948172      23.86947319      24.55779474
Si      23.81757261      17.66062803      11.59781789
Si       9.75650093      18.71489092       8.59868121
Si       9.36941465       3.50313319      17.89744639
Si      23.79068695      20.77445347       5.80939121
Si      33.37944285      27.06877475      24.91098267
Si       7.96226672      29.44059257      28.21546637
Si      17.35646331      27.53589770       9.98132724
Si      22.75491697      16.47620959      19.38197305
Si      19.50638909      16.10272797       9.53976447
Si      17.68933963      29.54224387      24.52559150
Si      23.53333046      17.74916433      35.81875309
Si       8.79557192      29.33485408      17.01368570
Si       0.26946419      15.81062477      25.06788950
Si      39.07820792      34.47758025      32.24291617
Si      38.67063056      23.60273146       0.62214307
Si       9.49982221      32.79427986      14.54163487
Si      32.31620485      14.22321165       8.96595721
Si      14.34613933       7.48811230       5.88872863
Si      18.02393292      39.07675610      37.36826126
Si      30.46817547      30.03798307      25.80957565
Si      29.03671970      13.89528741      34.99103584
Si      31.33560347      31.39958295      17.48196437
Si      16.33372476      34.80487407      37.33539210
Si      35.30251293      21.78226784       6.16934437
Si      23.30217943       9.20314811      34.97727104
Si      37.68097489      23.33071590      26.21609541
Si       5.96313427       9.57919118      35.72146547
Si      32.24154581      31.33276244       2.69529796
Si       6.77810020      27.15800918      28.02860745
Si      15.27182788      12.81034454      23.55421369
Si       3.85555042      14.16270829      20.52780664
Si       9.44355150       1.97538991      21.54039129
Si       8.83896832      16.87190718       6.11416975
Si      24.37288510      10.77313054       8.36434358
Si      39.29095911       5.30140617      37.22376368
Si      18.41360316      25.01818242      34.72678329
Si      17.37527658      23.46555972       2.24952446
Si      39.36942240       0.01820659      37.37609225
Si      19.09487124      31.52758420      26.81101593
Si      28.05598783      29.40919862       8.98356428
Si      23.99658058       9.12184631       1.82909919
Si      12.22487647      13.01232182      39.07411351
Si       8.62052843       1.25548354      35.42697701
Si      19.78585138       3.63380760       8.81109908
Si      38.97561418       7.37823522      15.36730605
Si      35.95937888      38.81090678      39.17645489
Si       3.01251627       1.34902439      34.67564034
Si      32.54040338      10.73148077       8.86660366
Si       1.15890186      25.11409164      18.54205918
Si      35.84553637      16.22328987      21.75444468
Si      19.97796174      15.43917978      16.02684018
Si      20.28751923      38.23482956      39.39024482
Si      15.56137378      26.36177070      33.08125634
Si       2.79437476      22.67395016      35.78697755
Si      24.33497327      24.75001959      22.70014761
Si      14.68946221       9.78666766      25.94638884
Si      21.71936785      30.62257562       6.11749268
Si      33.21057095       7.35003835       3.56565511
Si      23.48776743      25.26184981      19.04079779
Si       5.32627256      17.50119856      34.02184003
Si       1.61361768       9.48315473      12.06966118
Si       2.88192414      27.55597893      20.22834898
Si      21.84902768      19.36272264      22.24910284
Si      24.74483256       2.06359799      26.45613360
Si      34.70960348       7.64053429       8.50052237
Si       3.07419447       5.11273740       8.89072424
Si      14.01652949      14.36814747       3.55063608
Si      31.65744541      16.75845840      24.13618256
Si      16.26135107      16.64034780       5.54250952
Si      17.94215547      18.24645656      12.27905517
Si      22.52894128       2.61376673      28.74530352
Si       4.99283078      19.17244997      11.64692028
Si      18.74236802       4.62657499      28.93142484
Si       4.69354090      28.13772556      15.26558118
Si       6.42869991       0.41500433      15.03958691
Si      28.74299571      18.59563152      12.94079194
Si      30.56181511       6.86828274      36.13242166
Si       3.54293214      28.39471582      24.64377709
Si      12.03120449      28.84844667      21.90418399
Si      32.48880735      18.26352294      21.66309910
Si      25.13737926       2.71662482       4.83677577
Si       5.39059984      26.72554418      33.63844322
Si      11.60023169      28.74951808       9.91676663
Si      22.35803378      31.25056012      25.60531638
Si      32.88707644       2.38512387      17.17671803
Si      35.08386293      12.28657453      34.24778551
Si       9.95967119      21.29424395      22.89858233
Si      17.19914161      25.46740511       1.27715555
Si       7.79140359      28.88188278       7.28961784
Si      18.69462545      24.49098077      35.83225585
Si      25.72108676      17.39359293      37.15260325
Si      13.16201732      37.10473013      10.40849052
Si      18.27086748      22.58834036      31.06490363
Si      28.01631509       5.06300339       3.94725476
Si      26.42583731       0.57256569       4.96690306
Si      13.43311445      32.48499659      11.10601165
Si      15.66215817      25.05268622      35.01517449
Si      33.52341705      25.46466392      33.16144196
Si       7.10703194      11.43254521      21.95673330
Si       5.94107109      19.93300937      38.52032275
Si      19.11707212       2.85921359      29.09946735
Si      19.34984105      21.77860245      28.91519172
Si       6.93070601       6.60750110      27.22693150
Si      14.02754354      23.44550837      36.58735243
Si       5.00368489      31.18021778      27.87688665
Si      31.49314581       7.66794605       8.66587171
Si      15.68849908      37.97159070       2.64972758
Si       6.97604487       0.00737666      12.74455995
Si       8.81454578      25.92694325      19.77635123
Si      15.89623351       8.20635237       8.48531519
Si      18.56793039       8.25751789      10.32455344
Si      22.23705331      23.76917739      29.66119628
Si      22.89762904      26.44367969      29.66457772
Si       4.04657041       2.99675362      23.67761924
Si       1.86176729       2.03219321       6.70321033
Si      28.91080824      12.64944240       0.03039387
Si      22.16862824      10.09755426      10.94188224
Si      26.69545974      18.81442516       1.62400009
Si      15.53558861      14.93435941      31.78471641
Si       4.47708271      22.79885982       0.99932513
Si      35.95618357       8.37555776      31.24823174
Si      28.59323766      35.16176676      15.03916774
Si      17.21854388      33.40068291      13.29957684
Si       5.90039818      24.70508292      11.36404487
Si      13.51604489      20.70306473      18.20267609
Si      29.30044358      37.51602706      33.43887968
Si      14.58425223      28.26563024      10.11279328
Si      20.33974123       7.07738025      36.02756921
Si      11.65466347      13.55535992      35.97032368
Si      22.65153272      30.27025493      34.52155372
Si       2.52471135      23.02670821      37.25337055
Si       0.27432967      20.23324717       8.12609028
Si      18.92511511      13.69455882       8.87581204
Si      12.78517269      20.55371863      11.96315498
Si       9.35718242       5.02239785       6.86508971
Si      27.97985764      36.74577018      27.47399167
Si      33.19021560       6.61105758      27.44737766
Si      38.94873650      38.07047366       0.44807519
Si       6.17481288      14.28952758       2.90282464
Si      39.03582918       2.47659476      19.08191533
Si      38.81800178      38.15463930      21.67906607
Si      12.82671682      22.35677518       9.03620061
Si       3.45044987      27.67113546       5.63167318
Si       8.51365912      37.67260320       1.20661189
Si      30.06642348       9.29471934      23.70928718
Si       9.71013384      19.59077991      21.60397870
Si      34.41081901       4.31051036      28.60474713
Si      25.06942659      27.28685390      37.55585186
Si      29.57053921      21.03142169       2.09978562
Si      19.12289068      38.09398886      32.23240373
Si      17.12005917      24.58321803      32.38806962
Si      32.52630809       7.85085101       6.48483305
Si      25.17707566      37.56619835       2.66773901
Si      21.66509898      37.88908584      19.43472503
Si       6.41218797      16.87962509       3.25573788
Si      33.41499129      18.33923725      26.88845703
Si       9.57802220      29.68366535      14.13027225
Si      27.77839605      15.92924356      35.05050650
Si      28.32239628       3.59504196      30.43675980
Si      11.71351375       8.00592509      22.93077523
Si      17.57155866      15.40111170       0.44423091
Si      32.63279827       5.85405679       2.54051119
Si      18.93781288       3.31416242      27.24956523
Si      16.03214647      11.35889347       5.80267311
Si      35.49295685      32.74711083       5.16881069
Si      36.74769131      33.91682261       6.24357897
Si      33.53471938      26.57649448      12.42080602
Si      17.77912547      28.55243965       1.80064778
Si      10.39040716      20.40852092       5.67547107
Si      32.66255710       6.79972840       3.37766160
Si      34.64319642       5.97761943      31.71386100
Si      22.74198370      19.43355505      19.60250553
Si      33.13842838      35.82015204      23.37117759
Si      33.27910857      37.40987331      33.29776791
Si      23.11255220       3.54400058       9.94109206
Si      14.52284709       2.04283711      20.42902538
Si       9.73589546      16.70853049       7.66437901
Si      18.61425852      12.15171421      21.33027139
Si       7.00341194      38.05541718      17.55693319
Si       3.40263017      16.69946799       5.45127019
Si      23.83785878       7.56937564      35.65916172
Si       1.23345133      21.86728050      13.55649670
Si      11.06725337      36.52976478       6.12851421
Si      35.57544532      18.70944545      28.78273947
Si       8.19725265      28.54943103      24.41659080
Si      10.46587917      38.31021796      29.63149518
Si      33.12074884       1.95361190      26.18737236
Si      23.09591139      14.69998264       5.71801219
Si       9.70449552      36.68134486       7.78410692
Si       2.36470636       4.26958724      15.50400662
Si       2.82750199       1.42159892       3.59844080
Si      21.92352790      35.22561772      38.01990220
Si       4.28201386      21.51704403      29.44117833
Si       1.61051444      34.96385550      37.57681313
Si      11.70393753      38.36022520      21.54427276
Si      12.98768776       6.06144699      29.47469586
Si      17.61147136      10.68635607      29.19275930
Si      24.88478198      32.47574274      14.41111854
Si      12.12588832       5.18868615      33.59674336
Si      29.20870524       3.86868697       1.99444439
Si      13.82195321       8.10153852      14.71384635
Si      22.36132107      15.45330713      12.74607911
Si      21.16553383      30.62082131      26.30363434
Si      29.82397508      38.77725620      30.11542392
Si      10.18476991      38.24075611      26.41295544
Si      28.96530708      35.48922631      36.81608584
Si      16.54408247       5.62098467      26.05859968
Si      31.90351591       8.92055638      11.92340232
Si       2.96578563      18.83095964      39.85501887
Si       5.48681601      33.92139686      24.35640125
Si      16.14267296      32.33226738      39.59379418
Si      37.85835953      27.24175067      12.10387738
Si      39.78275910      28.30629780      38.02484318
Si       6.22990736      28.09574221      38.88293928
Si       1.92251356      19.62390811       0.80603053
Si       9.64854064      11.16006572      25.09052521
Si      21.32994281      24.80004773      16.35182244
Si      23.04795484      10.77097610      18.24431997
Si      36.14839558      17.11421556      39.88671513
Si      30.77993056      36.35041104      25.73716320
Si      34.43463446      20.24060731      17.95791050
Si      12.56513043      34.27233978      10.21101438
Si      35.68281788      33.43546913      31.20476310
Si       8.91239480      37.26230212      23.48577692
Si      21.52491018      31.69453926       1.47170406
Si      19.51519645      19.74175472       5.78904361
Si      32.97025730      16.47119114       1.34349320
Si      10.95755269      38.18555652       9.50591104
Si      20.30623093       4.74916995       3.67923207
Si      32.70525756      27.28996648      25.71602397
Si      39.47000604      28.85352838       7.42735787
Si      22.69254115      28.03019678      17.46033993
Si      39.12722335      37.89019885      22.62223620
Si      13.14272962      26.67142506      19.10189353
Si       9.75563591      19.58481259      32.14251151
Si      26.42596359      24.25676173       8.54518181
Si      34.24417343      10.33079830       8.87738725
Si      29.54229921      29.81095812       6.98246991
Si      32.74017674      28.75008954      14.10596926
Si       6.44269093       7.69878973      18.01160197
Si      14.70024594       6.30979582      20.54024174
Si      12.31500688      31.70088810      33.39713651
Si      31.50725792       1.24993872       4.08532851
Si      19.43114485      14.33290395      24.46045944
Si      22.78532565      22.72048142      11.39534235
Si       7.49295386      16.66872439       4.71901594
Si      30.82872483       4.57898710      16.71650675
Si      14.53364793       8.33781814      13.09802244
Si      28.33648772      18.34072044      13.98304882
Si      32.84334576      18.16089621       0.56257222
Si      20.17657542      37.24224891      20.13150827
Si       1.97168308      29.85536058      23.68007068
Si       5.39021444      24.92853671      27.14163442
Si      33.11851199      16.96060740      36.05246335
Si      19.56692267      28.95150239      34.03296630
Si      38.15290326      30.79172082      36.68393257
Si       7.30362607      11.73518204      20.48198642
Si      29.60388482      14.86971455      31.01100029
Si       4.43840785      25.61363414       7.46361635
Si      19.47753134      39.08065753      10.24563180
Si      22.90640070      39.69690698      28.52277264
Si       0.04067811      14.17593480      35.89753492
Si       1.51274529       6.60351490      34.38892689
Si      37.22820854      11.26359636       0.37375899
Si       0.79565026      29.26194647      15.62895606
Si       4.01746141       9.96106472      11.77186540
Si      38.01176263      33.12010369      22.10131229
Si      28.22801952      37.13989695      21.74504184
Si      18.14158171       9.12255921       4.38708729
Si       2.45271516      21.99381610      30.00687801
Si      20.58597301      25.67934208      32.97481950
Si      27.35081023      37.26726353      22.23549532
Si      20.88462046       4.37484004      28.64804140
Si      39.69280932       7.70567227       8.05389936
Si      19.02732756      34.98721269      36.79294344
Si      33.68150005       2.04800472      18.69400769
Si       8.71723987      36.93580354      20.86110414
Si       6.37819483      33.31951950      21.64437891
Si      32.67173065      30.27586830       0.31809060
Si      22.34075257      12.78467930       7.17181036
Si       9.44566472      30.71804097      37.13849484
Si      37.33022890      30.87033471      25.92185897
Si       1.35519125      20.57951395      17.08447039
Si      28.61551562      19.36133052       5.78043448
Si      23.64167401       2.93321048       7.26840774
Si      11.20555532      37.44243059       1.64993695
Si      39.36702158      33.77028859      37.30849828
Si      29.34721138      19.25785811      31.86356878
Si      39.93163939      30.74810250       1.25885752
Si      17.53611974      36.80647034      13.41373786
Si       2.12666546      22.96501079       0.05415579
Si      18.45807945       9.97615783      23.40388537
Si      12.25655450      21.94165105      29.55343868
Si       3.24401141      10.04248200       3.55317326
Si      38.86999469       5.13209229      37.63067405
Si       0.58971093      19.55223425      27.86892505
Si       3.46328831       6.87146325      28.74017959
Si       9.31984079       4.83153633      27.62082122
Si       0.89515559      16.00774595       6.66576735
Si      18.48145983      35.37096405      11.88332509
Si      15.97390077      13.27047658      16.64588066
Si      17.23277515      38.30525786      30.85545439
Si      35.13749766      27.88700880       9.37173004
Si      34.63064554      13.46961632      36.82368585
Si       8.05466510      36.81967896       8.10556549
Si      32.30604171      36.63508589      23.02220984
Si      27.23508625       1.50782505      15.90262823
Si      17.37720200      39.26584847      25.68774045
Si       5.47606955      22.13018172       2.60199448
Si      35.89334109      15.95665486      32.09253221
Si      22.44205173      25.00733015      36.93769694
Si      12.12842877       6.93947270       7.67611398
Si      33.33194735       7.87322129       1.73765739
Si       3.57442465      36.21146529      14.74439570
Si       5.03791911       4.89500273      32.15363329
Si      25.37413986      17.68891629       8.04001887
Si       7.50550903      13.90410978      38.61302334
Si       7.33554269      12.03891007      21.56686248
Si      22.29601277      12.83651286      20.48727920
Si      31.61547798      30.47844680      27.44986859
Si      36.96483483       1.30841623       6.69881465
Si       4.67011897       8.59606405      29.72704365
Si      38.37478938      15.37988293      36.84869584
Si      30.87290427       1.05372637       4.83219924
Si       5.54101794      34.80976308      10.79312604
Si      16.83081337       9.85287140      15.93785961
Si      11.66101127       5.99333756      19.91989846
Si      29.09394860      39.59824865       5.88602514
Si      12.80923813      10.97098299      34.92720497
Si       9.15413074      12.71074604      20.81144690
Si       4.08769906      39.72841242      15.44780670
Si      23.65325799      12.10582337       2.82032519
Si      25.42094129      26.01820223      32.82713222
Si      14.24927001      24.63148408      30.11182950
Si      28.79429242      35.36557883       4.49783079
Si      26.57290214       4.01399947      21.51849604
Si       3.73102513      14.33986834      23.95149799
Si      17.58302244       2.29377378      17.73753751
Si      31.19583186       3.12893810      27.40611205
Si      14.10025094       2.87846044      20.26871991
Si       3.28081808      31.48353639       8.95392698
Si      20.44371495      10.59734482      27.52216574
Si       5.38448775      37.86851454       6.08473706
Si      25.39112569      13.82798163      22.69083584
Si      33.43976354       6.50460539       1.16889999
Si      38.35027144       0.18579350      28.45998684
Si      22.91874342      29.77539455       5.44222896
Si      33.25320105      32.08554616      16.92777974
Si       6.41332762       5.01913546       1.26325258
Si       7.62900703      36.74168719      27.40136379
Si      18.90637819      14.35028837       2.72961332
Si      28.30931121      17.40224601      16.71619432
Si      12.51592749      29.80127855      11.69868568
Si      12.17644131      14.48900482       4.09151722
Si      36.67339952      29.41854012      33.04242493
Si       4.12735922      23.43898057       0.54969581
Si       2.74368329       3.54042452      18.71634461
Si      33.22469372      26.83161715      14.56078755
Si      22.48156155      36.35400764       7.85069215
Si      13.08792766      35.40480845      13.28878109
Si      12.39982499       9.53906906      21.08462488
Si      28.76468600       4.00197327       1.71147118
Si      33.61232194      30.37506990       6.01219076
Si      37.37447575      11.11892147      11.90041134
Si      27.72548466      36.53681175      23.54229558
Si      28.79549006      21.15836629      18.81647561
Si      36.60518704       9.27230947      38.13982514
Si      15.55452784      33.57540219      33.62236769
Si      24.44490827       2.42811929      35.15129863
Si      23.56508380       0.67111190       4.89505550
Si      36.48301676      39.33743955       5.64804328
Si      33.49308025       8.55517866      36.86260067
Si      12.51328657      32.40257115       7.40490609
Si      36.27391143      24.59862874      11.68205787
Si      23.61678087      39.54733102      14.84574395
Si      34.21202965      24.44112989       0.61376760
Si      23.25968247      29.47542470      23.17529147
Si      34.87953179      14.70856141      28.17767431
Si      37.38753617       8.85691427       5.27150408
Si      22.71491296      33.96072079       8.51684734
Si      37.35402666      27.81172983      28.00301379
Si      35.26305882      38.44089036       7.55190152
Si      35.20602838      24.12263039      38.22666907
Si       2.99955531      33.69882055       9.65209807
Si       6.51345741      38.13984842       0.04100105
Si      22.63032127      31.64554868      11.80784380
Si      10.70155166      14.64717643      22.24905180
Si      27.47431008       6.08337376      15.39233457
Si      16.51652782      32.46050106      36.83861773
Si      32.47967443      18.43754942      32.80369224
Si      12.68192034      33.77379165      18.19563538
Si      19.75795699       6.16288727       8.59836671
Si      24.72252022      23.46335625      17.94332000
Si      30.74233021      39.84377107      25.77789766
Si       9.29171063      22.65936365      11.16527911
Si      31.61717432       7.01114669      19.80518514
Si      20.39004241      21.17174352      29.34162145
Si       8.58393788      24.57891235      13.95581104
Si      32.27112205      25.72752099      39.00484869
Si      10.93052365       1.91176557      25.80222402
Si       9.69851885      10.35431774      37.19491059
Si       6.00385787      22.73569624       6.93568112
Si      22.52253336       2.78568726      33.58364617
Si      29.38751528      21.71859034      26.04703854
Si      38.05563608       0.72471201      21.90539270
Si       7.23696090       5.35462539      26.86061128
Si       7.89492150       2.32415471      34.21931980
Si      12.76186762      15.57185280      37.88905534
Si      32.87428224       9.53504343      24.15396817
Si      23.81029465      36.61075908      31.76251503
Si      18.84301758      36.90374823      17.51674600
Si      13.25930464      17.42715004       8.67399485
Si      19.69864565      26.50392249       4.44299800
Si      39.80799586       0.70405865       8.81771525
Si       1.58327149      39.88065432      30.17159358
Si       7.24728857      19.65066055      23.35790634
Si      36.54217667       7.35691997      22.16690162
Si      20.96237493      14.95621038      21.90076970
Si      36.87909242      27.97358680      21.12008591
Si       7.95825726       8.78631959      23.19116668
Si      20.10429964      35.10536560      26.13086449
Si      12.13886747      32.48960449      13.92689211
Si      18.62847933       7.67933432      15.23919368
Si       2.97922872      38.56307508      12.78808703
Si      15.29857794      21.08992864       8.82555581
Si      19.24084198      39.87511314      22.55968677
Si      18.41483367       3.53666472       7.34305878
Si       2.96777258      11.54684168      16.08088173
Si      28.27716950      35.24668299      18.71303924
Si      18.99374458       6.78278497      37.68545971
Si      14.37449391       9.30004707       5.86459859
Si      28.01561146      21.10148725      10.06664386
Si      23.09321437       9.36296729      35.15170654
Si       5.20335291      18.17869900      32.77745046
Si       7.98952194      33.92682064      33.93943621
Si      13.73493070      16.55039195       9.38438051
Si      11.06031526      18.57624068      17.63118243
Si       6.14978582      33.24713062      28.07947953
Si       9.38770219      29.26963235       3.53798337
Si       3.77042487      26.94417990      29.76866517
Si      14.20304905      22.85851936      32.45952764
Si      23.86606037      39.30032794       1.31151001
Si      29.79354419      16.76771482      16.92321605
Si      28.20017452      39.31680330      10.53307275
Si       2.81163340      33.52717004       9.92182216
Si      14.39392101      10.10972101       1.31941880
Si       4.20304657       3.04941160       0.52263493
Si       6.65857864      26.69496994      19.03099869
Si       1.21330406      34.31492239      38.42825739
Si      35.82195917      10.92617012      11.33326161
Si      24.88006782      29.97563368      25.61449420
Si      13.68744968      36.85059940      29.35952440
Si      28.44264665      17.55497288       9.23365720
Si      28.01739507       2.48393363      10.44342784
Si       0.74461311       4.19365969      34.82714148
Si      33.98332515       6.95975134       9.77880922
Si      14.90138252       1.26690260      11.38086181
Si       1.01453871      11.52678887       8.44573438
Si      35.34830812       9.59489418      11.96176755
Si      21.09165456      23.30763480      20.41662719
Si      16.58685041      10.37944582       7.89782751
Si      24.10582735      29.99699656       9.94768049
Si      38.42657852      39.66421697       2.47686034
Si      16.65656824      38.97702750      16.75450773
Si      32.11070787       8.72965387      11.30846086
Si      29.18280685      13.70071291      15.62621585
Si       9.10491031       0.62016235      28.03615575
Si      19.92635987       7.31878144      37.03681743
Si       1.15564216      30.19390693      16.57821585
Si      37.02468580      32.49261992       4.25513809
Si      38.84390682      11.78497138       1.18190574
Si       5.69542181      17.93979990      27.40360566
Si      15.91586922      19.89202200       7.24337371
Si      36.08228855      16.22911358      11.29709195
Si      24.81048033      21.61474064      12.45243483
Si       8.17695364      21.81704984      22.59184839
Si      37.24604842       8.43539641      14.32564646
Si      23.29213332      22.01176122      15.11041651
Si      36.23684867       2.15686957      13.18545370
Si      27.55575890       9.38226074      36.90920264
Si      10.10682277       2.23025383       8.11120437
Si      30.69751738      38.12822743      39.29380945
Si      32.08754903      21.85900539      15.11114461
Si       7.57762847      17.86217807      19.30979501
Si       2.39376620       9.77203371      38.50876977
Si      13.82558865       4.29703801       2.29800580
Si      26.51600724       5.99752699      21.74519889
Si      39.49008603      30.92930280      29.27884297
Si      39.22500028       8.22453962      12.30287492
Si      28.51876787      34.69254988      23.82490206
Si      14.44517038      17.78109478      27.24441610
Si      37.82294710       4.27207397      38.36251911
Si       4.46084703       6.95351497      17.92958786
Si       5.89428029      22.15644496      16.92975701
Si      10.94668083      34.46879048      15.66220295
Si      31.78706705      10.09593280      30.44076879
Si       2.31520628      25.94592614      28.50310924
Si      15.34049229      33.36602903      25.05550914
Si      12.09153726      31.44039131      14.13806720
Si      12.70751577      15.46587005      31.18729173
Si      29.30083744      22.37420151      38.52406556
Si      25.85556015      16.45092573      32.75704714
Si      24.98363596      31.72604437      26.91292962
Si      35.70397152      37.88504390      38.87427858
Si      30.94507653      35.45368122      11.61614990
Si      32.49454213      37.34984783      17.50666035
Si       6.75113950       9.77462656      18.61496880
Si       4.73333616      30.08727822       9.75133153
Si       3.57461615      18.78303941      14.40146481
Si       2.39143028      18.28341076       8.63762865
Si       4.44004857       3.70697360      25.92089489
Si      31.69443926       5.47171797      28.34192824
Si      26.32363070      22.04196659      21.92768244
Si      28.29727959       8.57684522      11.37800423
Si      19.89488663      28.50220882       9.33810351
Si       8.07987511      20.33722185      15.66030330
Si      38.79156441      19.10672304      29.35208439
Si       3.82340029      11.56152495      39.73075815
Si      31.61986525      32.82207812       5.28121688
Si      32.25147517      16.83252173       1.73565824
Si      15.59476650      27.29909294      17.35215276
Si      22.16371991      37.94266121       3.91570488
Si      21.59640474       7.93416058      29.47226435
Si      15.07061944      33.53140013      22.24820515
Si      22.90570597      37.94376392      29.93507260
Si       8.09055263      35.47500872      10.92288436
Si      19.22610189       9.84543377      13.75805393
Si       7.28607133      27.05050977      39.87422339
Si      31.53210296       9.22944864      23.99661779
Si      20.27100342       8.24839673      28.18760660
Si      35.75696414       2.84853811      30.03140939
Si      16.26676800      12.93635798      39.76124773
Si      12.03639463      20.92392364      24.90835674
Si      32.88907357      14.70734761      31.69041112
Si       8.80374450      38.74570090      20.41857405
Si       6.36122303      39.95152236      31.90981236
Si      24.33373138      27.32484033      29.82699488
Si       3.33255622      34.25362707       1.88314624
Si       1.72326730       0.16968869      39.53837789
Si       4.95085391      10.18795145      17.23411312
Si      21.40755042      31.11744734      27.99478344
Si      31.53834412      36.60414578       6.83655012
Si      35.14461282      18.38231830      23.13725137
Si       2.00682894      16.64532836      33.80775451
Si      15.82328889      18.81311414      38.81681707
Si      37.34025313       2.74959573      14.20119613
Si       4.76627308       4.77417562       5.39411880
Si      32.38119434      28.49863583      10.45444294
Si       4.97940769      12.34976785      16.05799649
Si      12.22592214       9.50799348      39.16387931
Si       7.77023195       3.66265718      28.58165542
Si       4.86072191       5.47691439       7.43816152
Si      23.37874517       4.34939216      21.45261200
Si      18.94803858      17.38590742       0.14348983
Si      17.81077905      28.65744623      38.74407777
Si       3.36786512      25.39572490      24.71247520
Si      36.80774299      25.23861621      21.72360787
Si      12.00383215      17.14150201      32.74844217
Si       7.28000587      37.75407033      19.98660899
Si      15.03865116      38.50477023      32.97913193
Si       3.31055024      18.96608040       0.38136004
Si      37.49088954      12.61046189      35.06099153
Si      23.85546717      19.30930954      29.20580015
Si       4.96176284      34.35595862      14.04441356
Si      18.66644916      31.63894852      18.65835743
Si      29.54123404      38.65215982      21.51238024
Si       4.85447509      11.58971119      30.01556490
Si      26.21100719       5.30050669      16.64058996
Si      13.08497286      14.61281057      15.77930524
Si      36.57795152      10.45406013      14.14250997
Si       8.21512688      21.00277647      37.52429903
Si      18.55667241       2.27423702      25.38389629
Si       4.35942953      11.43005151       1.00365647
Si      11.00315064       3.13981669      36.73114126
Si      17.16030527      30.37824254      17.39349292
Si      18.40714190      25.05410038      20.66949645
Si       1.61388674      25.63341682       4.71934354
Si      13.81924554      34.73549566      15.26630645
Si      35.50846238       7.44770820      30.43894602
Si      16.63791033      39.45099486      38.10592728
Si       9.69396251       2.96738774      22.60404095
Si      10.24342677      17.54932816      22.69826818
Si      19.97188985      15.27756078      15.17099247
Si      13.94909607      35.02633864      39.80122726
Si      15.59177860      25.17382126      22.00455743
Si      18.97713180      20.62987853      11.45538827
Si      12.21655658      21.81242830       6.35476966
Si      13.41045206      11.17841376      23.94810435
Si      26.27381021      20.06006222      38.26666068
Si      14.60239049      28.85902581       8.58308410
Si      31.41860281      32.26237824       8.74589938
Si      36.35462040      37.36639396      33.86147900
Si      18.06748663       1.19402518      16.51214041
Si      22.78042216       3.16411726      11.71075386
Si       4.48870414      13.35131258      11.58208406
Si       7.42950381       1.66411941      13.45067197
Si       1.46572337      39.52064318      37.92329522
Si      26.39073771      10.08262373      26.19433401
Si      29.05168287      24.51326637      29.93872987
Si      16.02947569      26.85885834      18.88625958
Si      16.10070849      26.50779414       7.60521736
Si      34.34613506      28.02816953      19.39938311
Si      14.37231224       8.47000319      38.63642010
Si      17.76700306      11.21214316      22.82613178
Si      18.82578488       1.84563503      14.19537988
Si      34.61315876      27.16933171      36.41799391
Si      21.18909523      23.80320537      16.56084088
Si      31.78823673      18.36566216      37.52329434
Si      28.81374384      12.11280546       3.25577057
Si      13.44460777      21.57302415      24.89598680
Si       8.66793902      34.54819866      13.85710058
Si      28.19612567       5.92629052       6.18885034
Si      13.97409597       6.83100808      35.87503685
Si      23.99805186      39.54935621      28.48534223
Si      14.41414535      18.67384819      21.09618534
Si      39.90703470      24.28639408      31.65773192
Si      14.77472936      25.23641776       9.39546057
Si      16.65133577       9.00806785      15.50227875
Si      15.39684747      14.67455321       1.15988579
Si      21.77885505      23.33638365      31.34879624
Si      22.93748841      29.44888042      33.80377514
Si       6.76410192      28.16782683      19.79252796
Si      27.48134367      17.00783762       2.96028633
Si      15.61060341      13.00711743      10.02193585
Si       1.20170684       7.91299011      38.58259490
Si       6.49715320      15.68162747      13.39441244
Si      20.05428319      19.34666099      18.75441717
Si      10.60304802       0.92854408      27.65633080
Si      10.13940526      25.18029924       2.73540890
Si      18.41616441      11.01508803      38.12931640
Si      32.16962511       6.85290556      25.98677342
Si       5.85904089      18.45331196       8.40845355
Si      17.78160565       2.21137613       4.23154535
Si      23.72090912      16.88352376      21.81488173
Si      37.09428249      11.07191521       3.03174717
Si      15.53983011      13.20462390      16.96817267
Si       2.47548445      29.85111633       6.22305892
Si      12.52308352       4.12290034      24.73638972
Si      31.50942818      25.90825036       7.60460010
Si       3.05580883       5.63589437       3.32063032
Si       6.76528252      32.34250656      18.01421036
Si       3.02568207       4.38888260      21.32396790
Si      39.07701825      34.67516201       4.47463030
Si      26.33724943      32.96237385      30.54420740
Si      10.73437003      39.93709218      10.97361592
Si      38.53431666      15.83419095      15.81222248
Si      29.22735432      26.69947568      35.32701783
Si      37.08334018      11.90070747      10.42822119
Si      33.36937659       7.58941444      12.00067905
Si      32.15560727      35.17395096       8.76520106
Si      32.10920092      22.15832589      33.07117183
Si       6.45426178       4.19219885      33.54337221
Si      17.44647134       5.88001086      31.04863678
Si      35.64863931      30.76747755       3.33246251
Si      22.47280802      28.27860105       4.81862974
Si      38.09266814       8.73574148      26.52224717
Si      14.17265743      38.45260929      20.30171661
Si      32.71314901       0.91817722      23.30018126
Si      12.52181596      25.28562223      15.63652741
Si      15.07878912      18.51912925      18.94377995
Si      29.93976123      30.66479257       9.37601625
Si      36.57278093      37.38581330      26.07766248
Si      39.78875125       7.79738719      38.48255150
Si      16.80048272       4.97888032      17.42392422
Si      31.81084870      23.71295270      39.29055469
Si      23.10575727      27.99853303      32.64532624
Si      27.12046651      10.85203790      23.53802926
Si      37.16592108      14.05251972      10.87431656
Si       1.16597514       3.17400790       7.80869029
Si       2.07892164      20.22465086      27.03188270
Si      15.63580622      28.41867684      31.65432605
Si       6.07913001      26.62981245       4.03283274
Si      15.62884042      30.92952697      14.06169713
Si      13.27404831      14.89781026      37.34309889
Si      26.35867068      26.75001644      31.92758254
Si      29.26605413      28.00549291      24.35634580
Si       9.14706341      33.85126683       4.83206040
Si      31.77811406       5.56855168      18.59910196
Si       5.93872355      30.42168835      26.06701043
Si      36.30211060      11.81059407      22.91645753
Si       9.52952288      17.55834298      22.51682104
Si      38.46379826       3.55497718      13.32638003
Si       5.09165607      13.59519185       0.37964666
Si       6.14927533      39.29904040       4.85562644
Si       1.01661970      19.30352782      35.67316891
Si      17.67870557      35.64828444      21.09038265
Si      13.10901998      32.31416745      12.95245418
Si       1.38714331      15.78783648       8.98299251
Si       3.52271282       8.45114369       3.34600268
Si      10.53331456      21.87834950      26.12431391
Si      36.29601671       4.17206173       9.98649518
Si      16.52846443      37.26536749      10.77222293
Si      19.27515809       8.71707348      38.89410591
Si      26.20195688      20.07379923      16.16162690
Si      35.54432791      39.83477488      29.13088642
Si      23.45756703      37.93819659      39.06096585
Si       4.94839587      34.85980831      29.65016366
Si      31.58170657      22.14252849      38.42608681
Si      25.69043485      22.27632669      32.69587351
Si       2.15607710      15.27596777      30.37434461
Si       1.89386205      11.11018231      19.75321775
Si      30.97900245      26.97660525      31.92462738
Si      39.43031057      24.72051698      26.08078560
Si      10.26350402      34.41441751       0.32353360
Si      26.87952354       2.43227241      23.28499014
Si      32.60226086      38.11585444      12.79851198
Si      30.03561612       2.18875704      33.77379354
Si      37.86824333      35.47559911      27.28570293
Si      20.86871336      11.68264738      10.64154867
Si       9.24552367      11.25719530      18.98277877
Si      30.18051310      29.39159745      32.07684019
Si      27.02142103      30.32242698      23.82633377
Si      11.61313025      28.12327435      39.36611169
Si      34.46664399      11.62379717      25.63274044
Si       9.32968212      13.31818546      22.44216555
Si      39.81884575      37.93087560       0.43899243
Si      35.10373197      38.19213896      32.27791910
Si      10.85174991      24.04433739      24.96594861
Si      23.36219946       8.38775435      13.76572305
Si      32.69626281      11.37683046       7.74892481
Si       8.10231958      28.74290591      38.52770069
Si       8.25090100      17.97611028      11.73481275
Si      10.19662768       0.27780965      35.59600666
Si      12.04108456      28.41597279      36.58779831
Si      17.98169345       3.03416955      38.01622846
Si      36.38774292       4.43143501      14.81442077
Si      32.89778420       6.28432376      19.89467689
Si      23.00338920      12.66219513      33.43160075
Si      22.84011173      34.02989274      28.12527711
Si      16.75764091       6.33857809      26.10823714
Si      14.36138964      19.19381441       5.08508634
Si      31.23186069      33.03267580      39.04642816
Si      24.31307674       8.85063939      36.33088916
Si       0.52724231      16.60870665      15.42846636
Si      22.28694820      13.77235417      18.15676662
Si      26.96439950      21.57108435       0.54532753
Si       6.31717165       1.06710015      38.32438296
Si      11.82382375      34.75571296      21.61167960
Si      22.43148715       7.66465072       3.42521270
Si      20.44783746       9.13941064      38.88666327
Si      29.99078773       4.02346977      13.32241660
Si      28.22966095      27.47945871      24.64765262
Si      37.93015012       2.26645832      35.22877692
Si      23.43907591      32.64469546       3.20628281
Si       4.61005557      32.41556053      28.34174979
Si      11.75668826      16.38840932      30.90036871
Si      29.93983315      29.39743081      38.41546928
Si      34.72848101      23.84639784      32.91089863
Si      30.20705626      23.17869116       7.12257978
Si      25.64164392      24.78715932       7.28869376
Si      31.56608679      31.55306170      33.12729689
Si      23.68856647      38.13913053       7.40696319
Si      36.81622676       8.43838065      14.56220194
Si       3.50948135      12.32062944       1.75607153
Si      21.78271180      17.96694612      23.68002942
Si      30.66921472       6.82630611      36.39111215
Si      10.13217450      22.17054372      38.39935782
Si      10.97112510      34.14407824      38.69250253
Si      31.23347607      37.15637326      39.25193902
Si       8.30134224      33.20915842       2.41358966
Si       9.83000444       3.49246868      31.91206560
Si       9.46366958      15.35914878       0.25351023
Si      25.68752925      23.86797938      28.07929854
Si      28.84019064       2.58033989      21.26599407
Si      31.46307828      31.36232987      28.32439297
Si      38.34362751      25.82708855      32.28487871
Si      18.13879372      20.92816095       1.31616442
Si      18.76408567       4.68662457      20.03884726
Si       8.74807199       0.33671195      21.36076744
Si      23.70194692      39.99034688      38.52145653
Si      23.46480647      26.11396874      32.85795741
Si      26.66284689       0.14934016      19.30008298
Si      27.75788901      19.39475586      23.34436516
Si      39.48831154      13.82307259       4.41932627
Si      13.93156552       4.93815710       6.19743235
Si      30.72940873      27.96643939      13.77211980
Si      29.24696727      39.63405443      38.40505859
Si      22.28043030      18.05656859      22.99414105
Si      21.84657856      10.75395141      30.97002517
Si      31.88419793      23.46112859      22.79252811
Si      34.30579640       4.92113127       6.47090850
Si      18.82481767      26.75329261      37.38218601
Si      27.55293184      15.94227314       4.35025480
Si       9.27680311      12.74464724      38.71743114
Si      37.01275963      26.90204870      35.20251225
Si      38.09329392      31.82875026      22.15999073
Si      35.86750035      21.35471469       1.14349684
Si      19.90603588      31.21729689      23.34927604
Si      28.53054588      35.54075177       3.19532224
Si       2.65793608      22.76549642      16.73802866
Si      15.31252533      10.25186900      35.22970790
Si      38.33447978      17.55203785      19.65453470
Si      15.07141001       4.93486838      23.86041335
Si      16.58019155      34.97588461       3.37765760
Si      26.30021300       2.55823856      24.38905469
Si      26.51514439      10.90843718       6.20249873
Si      12.48259249      14.27646041      34.12335704
Si       9.26429269      19.69643294      38.18080212
Si      26.19722050      31.25690384       0.22426440
Si      16.54272282       1.96997846      27.63287078
Si      38.99358363       2.11941059      26.55119104
Si      24.61736961       7.03647727      36.94226272
Si      37.28519337       7.49250128      16.69581093
Si      23.87031782      35.88348100      24.10045359
Si       2.04768964       0.23826175      37.58042908
Si      39.52026022      31.81076475      23.99504831
Si      14.02171802       0.63684336      16.27849969
Si      26.38006821      11.31433079      23.11337193
Si       0.58906113       1.91266155       2.42345975
Si      26.41714869      21.38051343       6.37803271
Si      33.72306559      28.31704426       7.90903154
Si      10.44867241      33.16600261       6.34117843
Si       1.36409396      12.16570176       4.81769130
Si      25.76943129      12.68524711      23.95826992
Si      30.76728860      12.94943890      36.96782527
Si      39.25325981      23.23502632      20.00626350
Si       3.17096186      26.15889191      39.95333462
Si      21.89365554      10.10958268       6.16170292
Si      23.35259052       0.13694804       6.38780284
Si       5.90743040      36.63475263      28.59173709
Si      31.03609588      20.05654726      28.40265313
Si      20.03751347      16.01841416       5.75520754
Si      24.36393108      18.82358264      19.64393559
Si      36.27975339      36.67807042      16.13440015
Si      14.93004783      19.21412585      14.61649077
Si      17.51028479       4.76227693       0.60377942
Si      26.63038524      19.68859177      17.87023244
Si      24.80917317       5.86616365      35.13304765
Si       2.83394333      24.92636317       5.86628221
Si      35.06985678      38.89719013      14.71837215
Si      10.66032888      36.46199644      39.43531062
Si      31.55833284      13.84139981       8.41461583
Si      29.23086135      30.17802997       3.80436233
Si      22.17232144      18.68493499      20.26291721
Si      22.42894407      22.14238344      22.28435661
Si      23.65837883       4.71043196      18.70260294
Si      27.44545786      25.81462895      33.15749560
Si      16.25354420      21.94357153       2.48511864
Si      14.44198989      25.05253756      32.85517534
Si      15.81029201      19.70963028       4.36983864
Si       2.54705387       2.83003288       8.90210278
Si       3.32359585      16.83822459       9.43140536
Si       4.27019616      11.85831081      20.75252984
Si      16.67078578      33.28428803       7.99476570
Si       1.16470069      25.34022915      35.38444353
Si      11.85537712      12.56675118      23.41143528
Si       2.76659288      22.92800984      37.42305234
Si      26.68543897      13.90448541       7.66049546
Si      18.84390267      25.18695908       0.31817902
Si      27.43914976      12.15134520       3.79623124
Si      34.44900585      12.33788932      20.69261089
Si      15.31000335      39.26221981      29.75618294
Si       7.63186944       2.46528457      22.81809525
Si      25.37698935      29.85701269      23.78045834
Si      25.01818271      31.12523961       4.11645557
Si       1.94746253      37.91910665      30.22594778
Si       4.90453928      28.75592357       7.21996926
Si       0.87804870      18.71662361      11.44354813
Si      37.99667719       0.78621717      15.52812475
Si       3.38805163       9.29378063       1.49971543
Si       4.53493632      36.16545342      11.52578192
Si      36.08253219      12.14474245      20.21506742
Si      11.79882918      36.66961677      39.28439044
Si       3.93466174      35.53879344      16.30065175
Si       9.85379513      21.34276394       9.52007823
Si       4.43132771       4.36788417       4.77873350
Si       6.19018107      28.01255919       1.66033119
Si      27.12493771       3.47409261      12.14601077
Si      16.57826053      36.13761067       8.78197801
Si      37.07285224      33.75276636      18.61432270
Si      19.58740013      11.91906288      10.46588786
Si       3.12944545       1.39907492      14.38285538
Si      33.83170592       8.24952293      30.27284262
Si       1.74109920      22.25098150      24.06652968
Si      26.10347997      14.85799775      24.83223865
Si      10.15849735      28.58264285      22.62772504
Si      17.07866530      19.69327355      36.69286892
Si      13.08190024      13.53483383      13.02066344
Si       1.49118413       2.47225753       1.07879228
Si      25.37286043      11.35514767      17.53430560
Si      34.93949150      16.25383079      32.15664413
Si      18.73632546      16.60428177      11.42592145
Si      32.94386694      15.12900785      28.76202628
Si       3.47146600       8.05009823      37.27644579
Si      39.93829913      17.69272478      36.75988616
Si      23.48344347      36.42539501      33.06843597
Si      39.04408311      21.57108571      37.69092403
Si      12.86078475      33.95559415      23.10772497
Si      34.16976002      26.90645044      11.90976820
Si      29.43476471      17.71290838       0.00947171
Si      38.35440597      38.76898777       1.55378216
Si       1.44875143       5.59498166      26.10430579
Si      14.07990452      18.55506689       4.70194138
Si      12.10716120      39.10156084      17.60733504
Si      30.37636762      24.51246588      37.85070305
Si       3.98749116       2.61570205      31.73884395
Si       7.34737453       5.74747236      19.08236931
Si      20.21614932      11.53377099      26.55422705
Si      31.70173155       1.95618295      32.76048571
Si      33.44364286      27.55885074      27.80677697
Si       7.24896941      38.60303953      38.92372355
Si      16.53756217      21.68680962      31.70132021
Si      31.34783434      27.37879409      10.32899809
Si       0.58633848      35.97109543      11.07528658
Si       9.14503917      19.07032727      18.79773725
Si      30.99213079       7.75119848      32.46920571
Si      32.17285597      10.27105473      20.53116414
Si      35.67819010      18.84242433      12.56293662
Si      19.65033698      33.79251867       7.83058780
Si      23.83136148      31.56962169      28.50217389
Si       0.75722599       7.49015154      22.26223329
Si      21.84953584       0.23148801      20.72466914
Si      13.10483733      10.90125679       0.51713237
Si      24.10491599       3.28297846      29.68115824
Si       4.05327453       4.52678816      36.49817501
Si      26.04344353      20.21267705      22.39897219
Si      12.42333393      15.21120039      28.93723068
Si      14.09908354      23.40395655      27.54262143
Si      13.61288717      25.42707861      14.19282719
Si       0.37215366       7.12313361      36.26374915
Si      13.84305240      20.86590107      32.36005453
Si      31.73564134      31.07959613      12.05657881
Si      24.91487739      30.10767434      24.27558676
Si      15.09667530      26.94267668      11.81869484
Si      23.38884728      28.62004394      21.19569589
Si      31.47761821      15.35084089      22.95420523
Si      16.80551381      38.49956844       7.68597109
Si      15.52365479      28.00273736      33.10052468
Si      32.82379785       9.63366264      27.88799448
Si       1.36256423      28.05366216      18.96259617
Si      30.42449055       5.16501646      14.89582796
Si      30.61343360       3.16104051      31.70704004
Si      10.09075665      39.83516037      32.03354451
Si      30.47292471       2.52341654      13.46706584
Si      28.44705886       6.92101029      35.39822603
Si      38.17285210       2.67051330      26.89000648
Si      37.21749597       7.21261013      12.89366232
Si      25.79426101      28.32234735      29.99288641
Si      16.60769617      11.79792748      38.85384325
Si       4.69026835      20.68588769      23.29137192
Si      26.59692710      39.63087920      26.95067066
Si      35.15462220      25.73336070      10.18853362
Si       8.89458171      38.80421642      26.25412524
Si       8.48392131      15.98105699      31.86923523
Si      23.16088791      10.55678310      31.44942301
Si       9.23543918      15.62149313       6.12184614
Si      12.99802362      31.81853862      29.61363554
Si      33.49137455       4.75872807      18.76132348
Si       7.24455607       7.61988196      15.72299831
Si       4.41575217       3.88660170      22.16449450
Si      16.22101650      28.67381597      17.85172036
Si      17.74789600      24.76521187      35.44767436
Si      27.79330819      39.45021709      30.54689059
Si      22.80364550      15.22059616      12.27686845
Si      12.17420040       6.49210998      23.25454306
Si       2.01593570      18.08392242       5.94996982
Si       6.05502766       4.86001082      32.87774249
Si       8.24150341      34.22220669      35.45843005
Si      12.16852946      16.83271163      22.12108140
Si       9.36018260      21.69861698      35.77947908
Si      16.01606857      37.17131739      12.29533727
Si      39.17928752      30.17679899      36.65230116
Si       1.57117951      18.94202445      21.66653357
Si      35.48013514      32.23795564      24.18146130
Si      35.35770604      31.06904052       6.42428832
Si      32.63800892       6.36565672      15.18354542
Si      26.92115733      28.85213294      32.14459038
Si      31.63355987      36.44071480      19.97211700
Si      27.21592834      38.81354432      13.07184565
Si       9.92709480      10.87057039      28.42299068
Si       7.64700057      30.26631167      15.91303658
Si      38.66059675      18.05193818       2.41093568
Si       8.96821277      28.48029683       9.14242364
Si      13.07427318       8.22722400      33.53710168
Si      21.97513970      30.04719831      37.75244484
Si      27.89651437      33.08536318       6.66309679
Si      20.89639049      37.39217739      12.89012410
Si       7.01116324      23.99265938      37.09790320
Si       2.58804538      29.58277481      35.16401075
Si      33.43130685      16.75996436      39.17825913
Si      37.09592552       6.08735449      25.79781100
Si      13.03287773      12.34431108      11.94790957
Si       9.27400709      28.70011853      14.69378637
Si      19.96310084      27.22420348      10.60505800
Si       1.24555644      26.92369530      15.22021947
Si       0.83827798       9.52820120       9.09828401
Si      32.69129717       4.02782695      20.75441598
Si      33.22874280      30.85789822      15.25119122
Si      37.10972751      31.32233762       3.31259532
Si      36.75877650      36.10967717      32.75474857
Si      29.56993436       5.82511128      20.05216421
Si       5.66492797      10.01818108      25.29528272
Si      31.00562111      13.26611273       6.13255422
Si      39.02556656       8.07656382       2.10277227
Si       8.60843458       6.92821875      25.71999954
Si      34.26333009      22.98404901      34.44546770
Si      24.57481021       4.29322963      14.82681804
Si      39.00702426      19.35247076       5.50491155
Si       3.40895402      24.95573450      34.65103124
Si      26.96274531      36.17828882      16.20652975
Si       7.36850722      17.05094368      23.39960040
Si      16.75893887      37.58636272      15.97408352
Si      10.24948337       8.73940642      33.63339735
Si      23.08799005      23.64584871      13.73865582
Si      23.29510354      11.45271223       0.37847894
Si      32.36771913      26.53599840      17.43805240
Si      13.83069205      18.87024140      37.78151490
Si       7.94880798      29.60243979      27.96461908
Si      29.22179653      15.21224241       3.39185023
Si      28.94094761      27.01751956      37.64249068
Si      33.96447568      27.60168018      16.08988837
Si      26.32828051      19.13687602      19.31198395
Si      17.44069022      25.23378679      15.57914538
Si       3.34513763      18.63769955      11.11781018
Si      16.95897694      15.54384571      30.68655517
Si      39.27316431       7.93777864      10.62924340
Si       2.86396930      32.61528177      16.32725761
Si       2.76511564      35.39903786      19.66863276
Si      36.85826232       7.95408834      18.62940754
Si       8.78994739      23.26555385      37.65821017
Si      29.34569410      14.22910102      21.88939102
Si       6.89465896      18.51580932      22.60630138
Si      37.52018351      30.52966817      31.70193566
Si      19.34191956      17.48433311      13.35835451
Si       2.05502804      11.61200108       8.11972077
Si      21.00413020      26.80622073      32.38683077
Si      19.08795220      38.03861178      17.96996021
Si      28.34448883       3.58164582       8.60123832
Si      22.60665248       7.76597256      31.23767896
Si      17.22205726       5.39798362      30.79798174
Si      32.70586285       2.94793689      11.09668740
Si      28.53868044      32.06596200       5.64389310
Si      37.66899141      36.73695909       9.99755212
Si      27.74488243      31.42722210       7.36951698
Si      28.79906716      37.30085596      23.19110393
Si      28.80807835      11.92080042      29.51345835
Si       0.60392938       5.32089031       8.49582494
Si      18.16248840      26.57142036       4.15220493
Si      19.02332716      25.56000783      18.64156766
Si      25.15276457      31.95721467       5.47327155
Si      35.09915311      33.08554654       8.30645759
Si      19.42328823      23.08031421      25.76756212
Si      17.72543764      10.83891662      38.27381393
Si      12.01649110      10.70570805      20.31103613
Si      25.36020983      30.68911882      28.92447043
Si      15.42419018       8.43695659       5.73553106
Si      22.17687352       2.51665285      34.24342413
Si      33.85052188      36.13882363      28.49306075
Si      18.69562009      22.52549045       8.51870271
Si      11.96239836      13.40360206      20.71549114
Si      32.67016659      37.53816692      30.44289456
Si      30.70878409      36.02208347      13.80822413
Si      21.26508634      36.85771036      34.30323871
Si      15.23555109      32.56463215      13.05752210
Si      18.13749531      39.38248270      36.89117090
Si      39.60828506      24.67932856       7.93421779
Si      16.69101522      34.29195713       9.15331827
Si       6.80562121      27.22500853       9.87079307
Si       1.11918496       4.53057224      38.64164757
Si      14.75336179      13.24975595      23.65653524
Si      24.62638754      39.90818736      12.74613565
Si      24.10349621      12.12055199      39.55895086
Si      22.29582128      11.85530331      39.67229760
Si      27.71587006      25.62029785      22.22058967
Si      32.93571601      38.14421385      25.64854124
Si      39.73506421      38.35942832       6.74269272
Si      30.55282519      36.22979682       4.64273903
Si       7.69789001       6.83276603      21.25349037
Si       3.23518804       7.40533953      10.54220621
Si      29.97694367       8.54274647      37.05947776
Si       4.27045944      25.43135774      19.35356332
Si       5.79973599      13.26771243      27.83244944
Si      23.01294203      10.41554615      19.77742768
Si       5.66110868       6.17055004      12.58284346
Si      10.26992008      13.57657692      29.98932943
Si       0.77861466      26.00812429       4.19550103
Si      39.48955208       3.89235015      23.27381900
Si      30.42192175       2.75323934      13.37171160
Si      21.78183859      33.45419161      17.33645701
Si       9.47988898      28.37992006       1.12864316
Si      28.78868584       6.25571471      19.20934280
Si      15.32098196      13.02930192      23.05204621
Si      19.01791179      34.45995823      26.85955463
Si      17.60660791       2.68470939       0.92503171
Si       4.17943946      33.71912072      10.77897943
Si      21.66589895      20.58542627      15.25561777
Si      22.38563860      32.97019496      25.02491219
Si      26.62767523      38.06648225      23.53576742
Si      12.24907755       0.51818549      10.85906602
Si      22.30882685      35.32258213       3.48513063
Si       5.98887056      16.00067075      12.16084887
Si      14.17094455      17.51534290      26.89530279
Si       8.19232428      29.44129235      21.57881416
Si       2.39348150      35.64584585      15.13504655
Si      29.95936060      26.67012033      11.10776219
Si      27.63143852       2.65467151       8.64637315
Si      36.12644365       4.01033047      28.34040935
Si      34.12034689      18.15938554       2.01106537
Si      34.28049552      28.85457012      22.03445413
Si       6.67475129      29.77117564      30.72566062
Si       9.24746768       3.54031384      31.48693437
Si      36.05451109      20.18891460       5.71368539
Si      25.77418235      19.01385421      20.33096975
Si      16.36421403       2.43002996      15.32805940
Si      12.38406897      31.05745275      37.13500392
Si      14.72000762      28.52650245       9.85087057
Si       5.00993509       1.50495375      20.90714223
Si      34.25571031      12.15834326      31.55423703
Si      28.02543046      24.88533300      24.18482062
Si       9.55035523      35.27982537      24.78185354
Si      39.94759993      25.90173042       6.07175442
Si      25.68334497       6.71007228      17.23266411
Si      17.59231182       7.05586552      33.59955925
Si       5.41266268      30.06342380      20.86646330
Si      28.54355576      19.31025668       5.91912498
Si      24.65928736      23.67789783      15.10851965
Si       9.32464889       9.73891044       2.73785099
Si      16.31596336      35.83892292      24.58230085
Si       2.01216556      21.37339911      39.57682917
Si      24.69173767      11.40797018       5.42486286
Si      26.67595697       4.70381498       4.85666546
Si      12.01211832      11.30640855      38.56642032
Si      26.60002525      14.62949435      37.49896333
Si      33.70091773      38.93993238      29.94054876
Si       4.14108561      21.85507984      15.99427076
Si      30.35748208       0.62328566      29.15234478
Si      35.62367247      36.55018310      13.75455100
Si       8.95123103      32.05768608      31.13771202
Si      18.80557048      29.93454968      28.30813788
Si       2.18184764      35.78270443      13.12596965
Si       0.97356061      28.58245958      34.71687711
Si      29.42247520      39.42155109      29.98337281
Si      15.76357767      20.95617605       1.99188171
Si      32.84904162      16.54609771      17.11281928
Si      25.80454358      14.91873172      23.84633769
Si      34.76779137      11.76114134      24.02560682
Si       9.71719108      24.50189207      36.72806250
Si      15.74681693       1.00112506       9.02793244
Si      21.43191127      14.29116989      21.46394735
Si      25.59203683       5.60760062       9.85603480
Si      21.80873033       5.76957521      28.94570099
Si      20.64228697      25.89850562       6.34289003
Si      37.44806654      39.06672459      26.19595236
Si      14.73188826      28.65475018      13.20514427
Si      26.30627064      16.90544021      25.62652430
Si      36.16230039      10.26860877      21.21633668
Si      12.51673237      36.06966311      37.96998047
Si      13.01033741      29.27449917       9.64068371
Si      20.10037338      26.59322966      28.93216551
Si      37.51397867      20.11117838      17.64755315
Si      25.96964425      17.26368143      37.27910579
Si      32.24879357      18.49708376      23.81368051
Si       7.19245215      24.43770839      37.11704114
Si      30.83622431      22.83783320      37.69613383
Si      25.00362223      32.07220453      37.04485045
Si       8.41023354      30.18208406      24.16375078
Si      35.81743329      35.11668572      35.77307517
Si       0.13743289       6.57330895      30.36925704
Si       3.43106637      33.07968345       0.70117698
Si      19.35197353      32.28119332      35.04086858
Si      15.81600951      39.39858557      23.99242271
Si      37.25303804      14.93499209      15.95755513
Si      11.99418297      27.59543993       3.57731349
Si      16.81570383      33.71724915      11.27371354
Si      16.50201031      16.29586697       4.77453454
Si       9.57773713      39.13114318      14.53361968
Si       6.88421042       6.84012826      25.33936543
Si      17.02570673       1.34480271      26.86071321
Si      25.02788061      36.85248695      13.14324891
Si      27.37956343       1.91612987      22.12925583
Si      33.79420992       5.14211152      38.83825910
Si      20.28567913       5.00060712      22.17997333
Si       9.21428109      27.77637951       9.51372402
Si      38.56929853      30.98659972      34.32716124
Si      22.28347299      36.64174677       5.28082449
Si       8.97247471      11.08725712      27.55752425
Si       9.09327040      15.90581206      25.39961776
Si       3.80535456      12.59781338      23.35050526
Si      27.50995965       5.37244999      27.58134078
Si      19.39934414      31.65310597      25.53366644
Si      29.29651822       2.58481207      25.76518975
Si       7.45805515      30.42969007       4.35685022
Si      27.35676937      39.38081659       4.74476588
Si       0.65509427      29.32671821       6.26307737
Si      14.00037789      12.10545909       0.09627822
Si      33.04375053      32.69534507      25.83646985
Si      10.94062576      34.81159741      16.75591181
Si      16.08979812      32.33327859      11.98683123
Si      19.10203988      37.72584385       7.78588692
Si       0.02774640      32.38922920       3.92512068
Si       7.18757943      11.64496549       2.54428815
Si      22.15695869      34.91926279       9.75166471
Si      18.12329359      39.61525623      39.12520159
Si       4.17805948      28.66537719      35.88482091
Si      24.42214364      37.14165341      39.15234021
Si      35.71198349      36.40269457      29.74638542
Si      15.26912530       3.28140372      21.59075858
Si      20.33259764       8.81253969      29.83375372
Si      36.94846308      19.38301468      35.10496046
Si      25.66247601      39.85863606      24.24297592
Si      33.07178371      13.62861120       5.31802652
Si      15.47559632      27.22298566      17.84085266
Si      25.91594761      20.14287709      39.72148271
Si       5.80979604       5.32561895       3.21111526
Si      15.77358989      29.45678786      31.50763270
Si      20.33170722       7.33907616       2.32857086
Si      14.26777072      21.82989177       7.41607114
Si      17.38901648      16.95526341      24.17572305
Si      26.59476729      18.37120455      11.55035388
Si      16.73122296      22.75718559      15.98453181
Si      27.61468225      17.20862916       9.46345679
Si      24.23248852      16.21210932      38.79801024
Si       1.67304992       0.30618518      23.46409114
Si      19.98132170      12.73259695      13.37656299
Si       3.85632247      16.01836733      17.40543933
Si      27.58245815      39.91148237       3.44535537
Si      11.54528174       2.30947196      17.38555854
Si      39.68160893       6.16492826      34.58385244
Si      22.18935303       6.18599795      14.15517555
Si       4.97710448      20.26034968      15.15011833
Si      35.41007246      21.96538233      12.99817986
Si       5.67721521       5.38951079      16.48906202
Si      12.38056489      31.36433621      32.24000166
Si       9.90401278      33.58551539       1.89200817
Si       4.20855214      14.46696621       4.00715205
Si      30.31762352      32.22641733      39.10365203
Si      27.50151899       6.07503098      37.01604292
Si      28.56011242      27.19516384      11.92630190
Si      12.19566563      23.84531374      32.51635752
Si      18.33331583      10.26931952      14.06607177
Si      10.17384636      34.85651643      38.67929603
Si      18.34587352      21.46074192       8.57374869
Si      22.63208389      22.48080463       4.18376910
Si      36.60900643       4.00099745      15.80856649
Si       2.35611953       5.69248943      19.32986128
Si       1.26104936      38.30965898      29.33571064
Si       1.12230516      30.46302247      34.64919168
Si       4.62264253      29.41884659      22.13369120
Si      29.76434950      13.83832051      30.12023683
Si      12.22653055      28.76082238      26.02787762
Si      16.56601410      13.53801379      22.20370713
Si      39.90428174       6.27733690      11.83669546
Si       6.97257539      19.25022417       8.33136987
Si       8.50309892      39.48306451       3.28911068
Si      26.41548044      19.12808845      37.75616534
Si      31.13845097       8.83467638      38.54371246
Si      13.39044710       0.64772937      25.91797010
Si      34.18152948      39.75925113       1.60622587
Si      36.26687454       7.30547648      30.99173052
Si      24.04583537      20.06271972       6.07066532
Si      12.61893047       5.60596432      39.08305643
Si       5.76265815      17.24981853       1.55152520
Si      23.46613979      34.51470981      29.38469053
Si       5.15419586      10.95445158      33.04157201
Si      35.20232875      21.59407461       0.58717294
Si      30.23082940       1.30753170       2.87592964
Si      27.79050505      22.00710154       8.30664758
Si      13.32953148      27.50087383      35.61015869
Si      23.62432702      11.87907364      19.48910883
Si      36.90803040      39.27548294      28.75869778
Si      32.70277084      16.02599802      16.80827443
Si      32.48210686      10.43180138      14.04143993
Si      20.88225570      15.28804949      36.08914489
Si      38.04206040      27.19784214      38.83975464
Si      19.58781007      27.78246133      33.93983941
Si      38.78419842      33.52312068      24.44640366
Si      37.94708456      38.77210585      21.21474038
Si      12.48547351      26.62475318      13.14798255
Si       7.54046269      27.69662967      16.85767528
Si      36.43714159      39.35508371       8.12251314
Si      13.08539718      14.57259977      15.03832812
Si      21.47758634      39.39389057      16.97722313
Si       8.64782140       9.67214295      28.16683073
Si       2.55817442      32.23425319      29.11983586
Si       7.82784802      14.45068188      10.28034923
Si      31.00591872      22.21514349      38.55002443
Si      25.17180331       5.42989578       8.31961022
Si      12.35538237      22.78639610      36.08577742
Si      26.32298618      36.56154804       7.78492506
Si      11.37536320      24.15030353       5.16193641
Si      25.68916441      35.53942094      33.18745858
Si      27.65950306      28.15506692      18.40284755
Si       1.54693617      32.35291169      17.92879375
Si      19.04670173      17.62550024      20.31314483
Si      25.91569483      19.68964108      17.64341104
Si      21.22266998      15.25419758      31.65767300
Si      32.97079255       4.17939698      24.64587287
Si       7.18874723       6.35242881      11.96729837
Si      16.14683796       1.09349055       9.53487873
Si       3.31212473       6.05913290      13.42491645
Si      21.59566063      35.20685753      34.87594011
Si      39.30470593      33.31157500       1.37436877
Si      37.24206115      16.02326692      35.18856665
Si      35.20654236       0.72059952      20.29250312
Si      35.93167775      26.96984798      20.05412315
Si       2.32164897      29.09629683       9.62150507
Si      36.02135288      17.36515577      10.79623825
Si      38.52957300      27.65006499       6.00521006
Si      11.22317243      11.59151641       3.72715376
Si      15.01082216       7.78773179      30.73825961
Si       9.56988163      39.47650285      16.71948844
Si      12.89961730      37.73233229      33.29868691
Si      20.49967714      12.80619003      38.19398457
Si      17.62898994      25.26765368       7.12165963
Si      33.71168376      14.92370149      33.33893022
Si       9.69538351       6.19053898       9.09280313
Si      36.76304866      24.05932936      21.55736331
Si       7.86634763      36.89597796      32.16802880
Si      20.60192264      28.03916255       4.46595630
Si      32.44887077      28.29932168       5.06060743
Si      19.08229530      38.37118004      17.41212837
Si      36.08522204      29.32417347      31.21325075
Si      39.16936055      33.11658296      31.18334769
Si      24.02177026      35.75374169       0.10466471
Si      11.55860152       9.88263686      32.11921482
Si       0.46294435      38.90663356       8.66921675
Si      21.12145134       3.24887552       5.58395883
Si      11.14594064      27.89491164       1.41048311
Si      31.04065999      17.30254726      17.47186126
Si      16.44699099       1.44305918      18.51119247
Si      37.11704593      26.19481021      22.40750414
Si      24.07159571      14.81282092       4.51246028
Si      26.41919868       6.56855199      35.47215563
Si      34.74487710       3.37325534       5.70639051
Si      30.41674546      32.49555777      38.49275703
Si      30.02083040      18.61979093      12.94039244
Si       5.72386118      10.66374856      32.16292146
Si      38.46218717      23.25985436      13.64484082
Si       3.54040131      30.87941039       3.47033778
Si      11.34121727      10.00290610      20.87368431
Si       3.33827826       9.63095089      37.60037272
Si      33.04776510       9.29385416      34.62268404
Si       1.57326627      36.26969890      28.00436573
Si      11.36258374       7.92389083      16.70981758
Si      12.50801924      37.08050321      19.89859440
Si      15.71534050      29.12997073      12.76135722
Si      20.21727726      29.81087336      13.09153205
Si      12.18341226      27.41797542      19.95126862
Si      13.17667972      30.56142187       5.82322535
Si       8.00903963      13.88132459      28.01958269
Si       4.87795491      11.19719413      22.11404726
Si       0.01190656      25.60380793      16.98373411
Si      29.39143648      32.29986957      33.99391739
Si      27.00128135      13.88106858      17.33553521
Si      38.48151639      19.37936608      31.57886339
Si      21.23573097      26.28766314      25.82615159
Si      15.79949901      14.17005743      28.79494682
Si       4.71276757      34.63216827       2.52596062
Si      21.52189870      26.17949178      10.92684100
Si      12.77775552      22.35911229      13.65228441
Si      20.88853399       7.31373995       1.89736650
Si      17.30338857      38.25102266      13.01627832
Si       9.18318678       7.95500969       8.80141285
Si      37.86253734      30.73570128      12.59241263
Si       2.78421685       1.30267154       6.98156454
Si      37.29044459       0.91021224      14.89969636
Si       4.01480759      11.82169640      31.33128623
Si      12.61247454      10.30752119      23.84819421
Si      26.84245271       9.16602554       7.78925463
Si      22.80159092      25.04100408       4.49294664
Si      27.81195660       6.25117846       4.11357107
Si      29.60998002      24.24078464      12.10900873
Si       0.26199935      11.72043321      27.62848405
Si       1.21978422      38.49307622      21.12157343
Si      28.63476422      10.85383512      16.52415667
Si       7.78353680      21.00934642      39.89373640
Si       8.86652474       8.89819433       0.46436909
Si      25.00028602       8.19506112       6.29325686
Si      10.73131272      17.32689903      11.49581102
Si       3.55372172      19.67764645      34.70470718
Si      31.59992128      25.65716823      15.15884076
Si      33.42552851      25.33365873       4.60810576
Si      31.84885219      19.42182217      18.60372977
Si       1.63579842       3.32677824      34.97856440
Si      14.87815991       9.22921769      19.71392023
Si      29.08832801       8.49209510       8.39061507
Si      34.23999196      21.59396304      13.37097319
Si      12.63470318      27.75155185      10.51230369
Si      11.74570110       2.03874414      17.43361245
Si      14.70284000       6.33202098      27.91394747
Si       4.28383705      10.60962971       7.33500436
Si      28.45582512       0.08649837      30.47705486
Si      14.39453356      19.18360725      21.79000044
Si      13.04875090      26.24597760      23.17329415
Si      28.93443822      18.11321003      20.63152109
Si      38.07183173      35.33622692      37.60018151
Si      17.91225158      29.86582771      18.53405728
Si       6.87412013       7.62240409      22.81754583
Si       4.38180803       9.21316551       3.50550808
Si       4.09858049      32.84305729      25.72172909
Si      17.06884687       8.97179892      38.17920615
Si       0.22795295      39.37290927      22.91458893
Si      20.37043472      20.12551259      23.06556252
Si      22.50480388      37.32385020      23.21588506
Si      20.06849689      12.15696978      10.86387339
Si       7.29083143      11.65452214      33.46372018
Si       1.88135929      32.42383758      10.27585914
Si      10.67327900      13.85280596      30.33405768
Si      33.40637268      25.63603078      34.81356303
Si      27.27622156      36.22644004      36.81212487
Si      37.15125579      21.70264931      10.65997437
Si      20.92777689      36.88733288       8.92229817
Si      25.16147624      17.72758467      10.60093605
Si       8.92240976      31.99954735      26.16349535
Si      11.30107621      28.96591340      35.88565953
Si      10.38548970      28.94395374      35.08603538
Si      13.41216336       2.48891678      21.86780532
Si      15.47348857      37.48544681       1.41192258
Si      10.14156420       9.81190113       7.41506657
Si      37.50838471      28.67209265      29.10292246
Si      19.30975820      32.42486360      22.37144986
Si      17.96716748      37.94047753       8.38107382
Si      33.55822165      20.52154023       0.99885574
Si       4.81128344       6.71388830      15.21732906
Si      25.57918348       8.73132605      11.95316809
Si      12.43576237      31.61745777      20.24124843
Si      11.93301780      26.49359936      17.92990485
Si      35.02237889      34.65462966      32.80512109
Si      16.36142180      32.06628252      18.07110972
Si      36.28893404      32.95335520      30.68692428
Si      24.75017138       0.86081350       5.31352313
Si      38.14778295      34.86515152       7.08932553
Si      29.75287987      25.41423679      18.66006017
Si       0.68104537       7.58806361      38.46312169
Si      30.78982747       3.04522773      12.97932363
Si      14.12039903      27.73269635      21.48403169
Si      31.81846894      33.39634960      36.04409412
Si       6.38833067      39.98503941      38.76668607
Si      11.77468934      19.11367224      12.70309195
Si      19.54664731      14.04637351      26.67627828
Si       1.56340254      17.22799499      21.09509941
Si      22.29569775       8.36892948      35.05162333
Si       0.45104702      34.08614112       0.44977628
Si      37.95882128      38.39931404      23.78734196
Si      37.08550577       3.52220747      31.09344375
Si      19.84799423      14.19336773      18.71717634
Si      10.26311977      26.11533799      26.81099644
Si       5.83468403      24.42376201      32.48269585
Si      24.21594735       1.50759856      18.61721299
Si      28.53551527       6.44853167      18.13670457
Si      38.16521658      17.66665171      31.87773281
Si      32.70737113      13.54916961      29.54525078
Si       5.55892077      10.92678484      25.71747059
Si       6.29280798      38.74404393      37.77774706
Si       8.71592004      20.83647200      22.80587788
Si      31.82791368      10.15238555      38.00417975
Si       4.93074908      31.65844952      10.64404364
Si      35.48668599       6.85209313      18.74476653
Si       5.46523670      27.45777164      16.11809908
Si      34.82841219      38.56619156      34.17031327
Si      11.41363276      31.24595191      20.14105961
Si      15.67278059      15.18956471      13.92659955
Si       8.05421441      12.33349767      31.80882644
Si       0.46005224      34.00439757      34.52916251
Si      36.52757956       0.11491553      39.60609530
Si      19.06507254      34.31293292      26.00724708
Si       7.77332353       2.69049959      22.80055148
Si       0.76062009      35.37768532      22.67632374
Si      35.58496651      30.53035604      35.31550462
Si      26.98427867      34.31453538       6.90141188
Si      21.14682946       6.50675729       2.18867237
Si       2.77593268      14.93574110      27.38196577
Si      16.15148085      13.32832264      36.11002863
Si      27.69418562       4.30093250      16.94253369
Si      24.41130369      30.71859182      15.02648365
Si      23.51907171      23.90583398      32.65818409
Si       6.17424564       8.24041035       1.30820953
Si      22.08378149      10.09654264      24.88110625
Si      36.18088497       9.81142201      38.33717379
Si      24.69498325      29.68294337      10.61954114
Si      31.31015418       0.25830225      35.81827319
Si      30.92639381      10.22047214      30.65804262
Si      39.99603337      29.68555279       1.85817780
Si      18.99610330      39.73512498      32.54896760
Si      31.03958541       5.54551089      20.63455607
Si       4.41290619      32.89616411      17.82398916
Si      34.81805680      11.67227231       8.27554456
Si      33.30218810       2.74359599      11.37188937
Si      19.95282399       0.12434885      28.91042589
Si      25.67872182      37.94805877       1.84970341
Si      22.09978947      34.66462013      23.40569510
Si      22.55554749      17.18653449      23.48194991
Si       8.74330579      32.35899544      32.01487403
Si      35.67551310      36.46733406       9.49838936
Si      27.57680387       9.12996828      15.65003454
Si      28.36125527      13.48959949      23.83778274
Si      24.60868909      10.06456988      12.19149145
Si      12.54958835       8.69985708      22.95312695
Si       8.11968537      38.45648468      16.70247050
Si      18.74520783      34.15458182      17.93699582
Si       7.23160398       5.69806229      25.89300059
Si      16.48578081      33.74397772       1.34200184
Si       7.79449576      33.22818686      24.40188334
Si      29.24810108      13.80232722       8.20577846
Si      19.65153631       0.37358120      39.32258940
Si       4.71142129      35.32028069       5.75601503
Si       9.36404499      17.34427810      15.16380808
Si      38.23026403      20.34052348       7.89983108
Si      36.57020158      30.29205684      27.02148809
Si       1.82190831       5.90352076      35.52530735
Si       0.87414601      11.80402201      12.09559823
Si      38.70390306       7.35800634      12.42193980
Si      27.96983101       9.51002171      10.26636505
Si      38.99206098      28.69223837       4.34408921
Si      30.22122672       2.64094332       3.74970438
Si      26.42688708      16.43033097      39.00510778
Si      26.70422273       6.16416108      17.06924224
Si      25.50425013      23.24319618      34.91728139
Si      34.04499924      26.05116139      17.60349405
Si      14.35477095      15.40575441      36.73027029
Si       6.29213475      23.94511636      15.93343645
Si      27.86995629       5.64183761      38.52518658
Si      36.17452903      13.85332515       8.56232791
Si       7.93656109      33.37596606       5.95172817
Si      11.20231944      22.49496292      31.74265537
Si      32.30686917      29.63485821      24.38094044
Si      14.90958619      21.20433892      25.85997690
Si       6.55590097      33.03615077      24.54179476
Si       5.07518682      32.74876029      22.07461303
Si      23.22149154       0.68175484      17.11420231
Si      14.57389868       2.01317152       4.48330001
Si      36.55071572      16.88132855      14.67881653
Si      26.93951847      31.61138162      16.73518536
Si      38.40037077       5.25541554      17.79467772
Si      35.44267793      22.85619500      28.39069864
Si       1.90102995      36.22944821       0.73905013
Si      31.16365833       9.92380608      12.78539875
Si      11.48121548       1.64496519      30.80605904
Si       4.97774113      20.27380036      37.95098538
Si      22.87501656      16.54121382      14.18553950
Si       5.17633978      20.46003123      23.39117769
Si       0.93646436       8.65418126      11.56354467
Si      29.19770915      13.93046379      17.79980363
Si      13.49929348      27.52912788      11.15892122
Si      36.18143595       1.01394943      24.06701042
Si      34.45952643      23.66586132      39.22501778
Si      29.94797620      22.85817802       0.32109221
Si      14.42947508       3.21718830      36.28408032
Si      34.47397627      12.18164768      20.55284512
Si       5.02033093      17.27432638      32.82173710
Si      32.41896154       0.90251767       3.83540127
Si      16.43473696      16.32029898      13.45436493
Si      12.84290187      19.71130399      33.38843030
Si      15.20699305       9.17943144      34.47510342
Si      35.30010919      39.76035376       6.84038093
Si      24.22434118       6.50766608      36.19323999
Si      18.83638940      38.02559471      21.15255826
Si      23.33370496      33.63880091       1.91015864
Si       0.81406938      25.76699123      22.91002388
Si      23.48645811       8.47750997      36.08550565
Si      23.15779858      16.11981358      32.92043419
Si      17.47209616      17.79302960      22.14505378
Si      10.73010057      34.36019675      13.88752632
Si      19.55999926      37.70976143      26.06138846
Si      18.65149748       3.67318416      14.03272584
Si      37.67404981      23.58876590       6.48173236
Si       2.85541553      25.35975247       4.87502557
Si      36.48198743      30.13130793      33.18433923
Si      33.97200242      25.37814806      25.16913272
Si      28.59546299      10.19521836      38.46899955
Si      10.27952053      24.57316813       6.44214660
Si      17.36511404       8.21070593      30.41705320
Si      16.98473834      15.57345192      11.70958411
Si      18.99356236      23.17568612      32.78698767
Si      39.65715049       1.61137769      25.33127638
Si       8.30632096       1.75698810      14.08716448
Si      31.37833426      30.54330980       8.36775262
Si       4.22406785      35.32925142      17.40593595
Si      14.96414277       0.05609301       0.96214246
Si      18.28617286      13.13610151      28.67099994
Si      17.54026429      16.34883192      19.73942875
Si       3.97833077       3.87421022      14.24245120
Si       0.73184574       0.55911777      27.80177345
Si       6.40894892      11.68442291      25.85395750
Si      29.84472312      28.77245769      39.90346839
Si      37.42689861       5.87238323      36.21359537
Si      29.84845846      11.48679710      24.40916279
Si      34.74637478      17.36257308      14.92511521
Si      36.87410832       7.35317134      22.65834181
Si      19.73587140      36.70952083       3.20354278
Si      37.90877401      13.36416653      14.71868941
Si      38.72157076      30.16729448      27.35928097
Si      26.48826391       1.94300548      18.11030676
Si       1.43858207      38.19732042      28.93836954
Si      18.72234243       1.45468112      16.70067881
Si       0.54022994       6.10742957       0.46792503
Si       4.06446432       7.40590805      27.17898174
Si       4.99795109      11.98196038      20.37542081
Si      28.87223179      14.33716938      29.85195778
Si      33.57481478      35.17024584      29.85057010
Si      16.87237837      38.05395243       6.18424265
Si      33.09659574      37.53327043      18.40979337
Si      16.10668361      28.65324042       9.83455851
Si      33.57277595       4.19170014       4.83759008
Si      17.87474079      35.72064080       2.97262668
Si      39.69785085       1.48715507      36.30481942
Si      15.02315755      23.13519140      23.04253378
Si      19.50402163      25.71358546      38.61872602
Si      33.86444437      35.70869511       1.33044953
Si      25.19244863      35.15058463      24.07914544
Si      24.24229628      13.89274474       6.09125719
Si      12.43002737      16.65657672      12.62457993
Si      39.58574467      29.39047036      25.45206584
Si      31.76535172      15.46697190      19.36332265
Si      29.60996408       8.36593447      19.90233891
Si      24.89691580      36.35719720      23.06146128
Si      10.88291959      11.71404217      15.22080541
Si      29.15466693      10.84357232      31.41319203
Si      10.68235614      20.10909210      26.96817759
Si       5.96107837      12.32309849      15.52085784
Si      28.17692586      18.56668070      17.83295237
Si      20.13042889      23.07259131       3.75936694
Si      38.58809492      10.16928754       1.23693218
Si      24.75201534       0.56769867      15.68720002
Si       8.10152083       4.00057266      18.59055172
Si      15.34181054      17.34340421      36.66036163
Si      36.73315848      23.80018321      21.18130268
Si      21.99379482      19.47947330       9.75280360
Si       4.98831005      17.91803542      26.63007062
Si       4.63203237       2.39743887       8.61992621
Si       3.42424379       2.52461119      20.25534047
Si      35.31141593      39.26693584       4.69652337
Si      18.52816869      11.39239284      12.90992137
Si      39.15880503      21.74303295      24.21626682
Si      18.71835357      30.63576003      11.45078105
Si      12.24022718       8.17171966      15.07401454
Si      21.59731874      28.07702355       4.54259201
Si      23.44246195       2.85642440       7.85672416
Si       0.26064596      10.20458542      19.55329655
Si      17.17343232      27.67699486       5.86570886
Si      26.76699364       1.71039974       8.81241818
Si      31.48330920      25.91805532      35.98334155
Si      15.10347227      26.60982884      23.93539618
Si      13.58281400      34.00735553      28.33412071
Si      32.02548442      13.41381110      32.20027993
Si       7.51838486      24.99350857       2.38040470
Si      33.44306169      25.71072663       9.74879340
Si      33.88480439      29.53219713       1.42932641
Si       6.70246168      16.01017595       5.85017860
Si      23.52738210      11.84135839      24.29137225
Si      32.49229523      24.87712894       8.31550524
Si      31.06432986      22.19059937      25.56846852
Si       2.04184489      22.60752674      31.72637206
Si      18.09614935      20.96408642      17.16548285
Si       9.82439104      20.91729500      26.43937534
Si      33.54755871       4.56927313       8.31512531
Si       6.60409916      38.01789593      11.17369832
Si       5.39554661      12.30018548      35.93951641
Si      35.25721011      18.63305339      14.22659410
Si      27.94721127       4.45965506      28.30867388
Si      10.07389409      37.80380895       6.58706672
Si      15.95290757      23.18892361      25.79895792
Si       3.74721651      39.30835455       8.27742684
Si       9.74886511      15.01033493      17.42871677
Si       0.01263757       5.70327233      28.79321521
Si      23.29858275       4.72355461      20.37528763
Si       8.59694579      12.44736786      36.42013262
Si      17.69307956       6.81426771       4.20351308
Si       6.32634923      25.47024731      20.97038952
Si      28.82998415      22.33691083       3.65466277
Si      32.29879371      19.98075340       2.75241213
Si       8.48866361       1.30824548      18.65308208
Si      21.30219606      29.73228383      38.29588822
Si       2.30048982      31.33235792      12.39121908
Si      26.93731963      16.90841207      21.85208195
Si      23.10143543      15.08507722      31.91731157
Si      12.22805990      29.48806589      27.53615601
Si      34.43103379      26.54275716      25.81834758
Si       9.40140581       2.39627296      17.71246200
Si       8.54261327      32.42013615      25.74513535
Si      13.72783894       2.08205471      27.71442680
Si      29.91285891      10.76161022       1.16353499
Si       9.41403491      22.42414193      36.69767197
Si      35.72172423      30.70494638      23.01761690
Si       9.71407438      12.53132617      35.72271550
Si      20.95597757      30.11445395      28.61100918
Si      10.34034003       5.95600563      28.81138049
Si       3.02198471      16.07588146       0.39539874
Si      30.16896572      10.13913509      11.72636607
Si      25.37959514      38.77786155       0.36222828
Si      13.58737372      27.15615344      14.41917327
Si       1.90436682       5.56771206      20.96911329
Si      36.43933432       3.34274414      29.80630255
Si      11.57707727      32.54080789      27.40819764
Si      16.78602031      13.48704693      21.34366145
Si      21.08496587       4.20708417       8.83288562
Si      27.19265510       0.67362087      28.90347662
Si      21.77920601      34.33188797      31.12798911
Si      38.19330068      21.91120564      30.91862129
Si      36.01262571      22.84747982       1.37127639
Si      29.83690813      33.73429608      20.89434333
Si      28.10538630      13.75079401      15.21847708
Si      38.48483948      16.93000547       9.01729988
Si       7.09811887      11.76098180      25.11444505
Si      21.16204363      16.84070116      35.20052474
Si      24.35251238      12.56129406       0.24067431
Si      36.43856064       4.70318209      36.63619035
Si      33.21319311      33.31866869      18.06585906
Si      39.91985435      26.30529186      35.21376463
Si      24.77760662      29.81889572      12.82120063
Si      38.47387590      13.52964213      14.06923791
Si      14.07597055       6.02987437       5.69295156
Si       2.55027596      32.78354669      30.26968040
Si      19.82093494      15.40808713      21.11545329
Si      22.76211660       5.50400486      30.02302789
Si      11.00895456      13.78048582       3.14462780
Si      15.05732452      15.08370946      27.85417001
Si       8.89459251       8.75421460      25.29183908
Si       7.03521997      30.27375460      29.40762657
Si       4.32652218      33.33407997      36.61857122
Si      11.24653997      30.48507093       6.19168253
Si      15.66340539      25.62697271      34.35960638
Si      17.22694787      39.73903044      27.46528211
Si       0.45908828      39.27676721      35.23131674
Si      20.21179205      26.65527526      17.71696115
Si       1.05115567      16.49951465       9.50353688
Si      13.78613141       6.77859883      12.44527585
Si       6.42124715       7.56698262       2.69494020
Si      33.65935455      18.48816959      23.59277282
Si       8.92763782      39.53838366      35.93592264
Si      32.43453598       9.59424218       6.77907015
Si      32.23688271      22.76476575      38.80570386
Si       7.19828927      37.22891682      39.68806695
Si       1.56009461      18.60557732      32.65062739
Si       9.76500802       7.47828328      18.41309476
Si       8.66938198      38.85040654      17.32878454
Si       6.50756923      31.87285753      38.03474899
Si      34.57755357      11.83376724      28.71533116
Si      15.66402995      31.66271246      11.64990745
Si      21.69693413       9.83194456       3.97574805
Si      14.81431761       1.47106758      38.60266193
Si      27.70543313       3.72806072      35.66306189
Si      35.30838549       4.72947476      33.18580199
Si       3.77757411      30.40552354       3.57679149
Si       2.95692254      24.74844384      27.29115285
Si      18.40026137      11.15969918      12.19924371
Si      37.47806510      20.65881432      31.14996587
Si      37.36626450      11.94485338       2.49230418
Si      20.04701626       0.05125133      26.84962454
Si      14.38793135       4.89310787       3.32497340
Si      38.38007094      34.87863224       2.00059699
Si       5.23305991       9.77847596      13.86346009
Si      39.96084389      10.05406510       0.62097023
Si      10.52487123      35.16573370      24.44419399
Si      26.91528241      26.96135335      11.18645798
Si      30.17290282       8.52337693      31.29521625
Si      20.68211772       9.15136433      19.43936415
Si      23.91596068      12.90684320      27.26088801
Si       7.60878950      32.47392049      10.60049470
Si      26.53396963      21.35573950      37.24696025
Si      34.61072897      32.67347751      14.16743855
Si       6.90660986      36.49092573      13.63900367
Si      31.75256646      21.55035468      27.66828982
Si      27.39109051      14.06116110      36.69353609
Si      19.63876350      19.33221911      38.24645143
Si      35.72153100      18.27176741      13.05850157
Si      21.13584505       9.83856833      37.47686190
Si      36.58125180      27.26480652      18.90847758
Si      32.84135108      18.72237998      32.23111903
Si      31.92673784       6.78346018       8.39154822
Si      34.61682615       4.94107988       6.04087131
Si      17.99590760      18.03639954       2.54923224
Si      30.12254605       5.49156004      21.75776931
Si      10.48465344      29.75785462      17.28697876
Si      20.74772270      39.81581024      29.09671407
Si      21.62278264      15.68204985      30.77645610
Si      32.36544274      22.24655423      31.19296004
Si      20.22276615       6.65673907      22.36094752
Si      20.10245952      35.80423277      10.60894649
Si      36.79005205      34.91194662      22.60954443
Si      10.85666967       9.64424724      34.30140653
Si      11.91108635      35.09356359      16.02363316
Si      22.56486143      21.92837049      31.28400316
Si      29.50095113      26.86468240       9.63091612
Si      12.10071321       3.58844903      39.20439602
Si      30.73169636      29.57923754      23.20683423
Si      38.37603413       1.50013277      16.73266677
Si      38.67888424      27.82952135       9.37539776
Si      13.21954021      29.14553999      19.97280733
Si      37.06313005       8.65140340       9.98478007
Si      34.59486096       4.85612799      15.22777698
Si       5.63849997      35.47862089       8.83487723
Si      20.18316430      11.08212246      13.85313152
Si      20.36694914       1.56151445      20.18659550
Si       1.01217595       9.59451299      38.03274310
Si      32.33827925      29.86007955      12.80563800
Si      18.93708447      12.48988732      31.08752726
Si      21.56642768       3.82437279       4.31926369
Si      27.82836952       6.32386479      17.04330029
Si      36.37516993      25.59036406      18.87684206
Si       7.09948825      32.00714105       4.58809021
Si      11.92447080      17.19731459      29.35888820
Si       2.13318731       3.33605660      35.44990864
Si      21.41413783      29.79645884      19.40447044
3068
Lattice="40.0 0.0 0.0 0.0 40.0 0.0 0.0 0.0 40.0" Properties=species:S:1:pos:R:3 relative_density=0.96 cell_dim_angstroms="_JSON [40.0, 40.0, 40.0]" pbc="T T T"
Si       4.68449148      16.38609835      10.06133096
Si       2.88859673       5.74945597       4.08781496
Si      29.83768573      34.84628320      10.31523200
Si      16.56574548      35.97922857      13.55869210
Si      24.94228542      28.82463644      23.94788137
Si      39.54861805       2.50331257       4.30202094
Si      39.46290038      22.62766384      14.88943362
Si      37.66811255      36.39342821      35.30792907
Si       1.14662186      16.31136990      33.29503919
Si      16.87968158      27.64052680      32.90667227
Si      27.03988272      11.23582867      28.73199295
Si      37.70005750      17.08808613      12.37084851
Si      25.67956467       9.73175295      13.41469410
Si      14.92349455      33.52200774      29.80763249
Si      34.27601098       0.13707447       7.26739364
Si      36.52829443      23.91120570      37.85924094
Si      15.53526204       8.11734847      25.77421112
Si       8.27211723      11.26439302      16.44600817
Si      30.22500157      21.70609628      22.63612164
Si      19.47001430      37.99195583      39.88208957
Si      20.03632599      21.57040809       0.30146447
Si      30.52612510      28.00579547       3.07200069
Si       5.20704579       2.28361670      17.19892749
Si      22.70696126       3.16240460      38.00483157
Si       2.11789894       6.22976747      31.55589757
Si      26.16607168      33.97225289      36.29721613
Si      39.33616830      24.32533834      22.97865232
Si       0.59810075      18.94610515      11.25231700
Si       2.47411986      24.80755354       1.81162026
Si      25.20005581      38.52308279      16.67287196
Si      26.22372893       0.37463723      14.22676855
Si       4.41542621      10.15822757       0.99290590
Si      19.66891958      31.09185229      29.26717727
Si      39.35893934      36.06312265      28.27601132
Si      30.40909183      23.30761014       0.70971519
Si      30.60461177      24.56542596      37.33074719
Si       7.45480621      37.27614398       6.50505625
Si       2.57216962      25.31327510      12.96675082
Si      21.30607012      15.08996715       7.22002297
Si      34.27683803      32.09855582      11.45242006
Si      13.35978015      30.62871757      18.23510343
Si      28.01632603      36.68714712      33.47754156
Si      23.90427465      31.51954912       7.41778792
Si      33.71982350       9.95535612      16.91879577
Si      24.35606987      12.98201278      33.07262833
Si      23.77396577      37.98855180      11.15860084
Si      28.01602641       6.16202904       6.86206520
Si      20.62477613      36.03587152      18.89241391
Si      22.31756072      38.03115855       8.14353954
Si      33.65436447      30.58186532      26.66524387
Si      15.17695743      34.64189451      38.79019182
Si      15.41385145      16.68249135      29.44346733
Si      20.97972847       8.26487503      35.60105331
Si      27.02551922      17.64235315      16.48111876
Si      25.21798550      12.36294364      24.77207335
Si       4.67365899      15.65651616      32.30917999
Si       5.55403083      28.02374407      28.55920126
Si      29.64531732       1.29935991      33.05694796
Si      10.40004367       6.94125582       4.15511794
Si      23.86962465      28.71153997      25.50971628
Si      36.92962236      15.44869713       4.14254177
Si      11.66681929       7.90121631      28.83613846
Si      30.94483866      19.20792599      10.50308509
Si      18.23931929      26.76786114       6.79920280
Si      20.95044618       9.47599928      30.65586051
Si      21.03037046      19.45860270      20.61644831
Si      13.75695154      34.17433002       0.88513795
Si      10.70664734      12.51341736       7.27230873
Si      27.47889285       1.02993610      24.41993987
Si      29.64758560      11.03966705      10.98878023
Si      18.23812333      13.54592179      10.78507829
Si      25.87555493      10.97182564      27.79455892
Si      14.72131788      33.70966836      37.89630726
Si      29.52794287      14.03283024      24.08729622
Si      31.11149975      14.47115794      21.81839580
Si       4.99007042      19.45694728      16.46664365
Si      11.08149824       9.08890343       4.78257829
Si       3.55550825       0.86953118       4.50947263
Si      38.94848339       6.95945660      15.53687978
Si      39.62816351      16.10584645      34.65832486
Si      10.54932927      38.29268211      17.73030680
Si      26.56164566      12.82882830       8.28766344
Si       7.91721856       9.48095728      21.95461058
Si      22.53562652      27.92807376      15.99122957
Si       5.41856578      24.83194410       4.44921101
Si      37.76203851      30.40554083      22.92360804
Si       4.41898327      18.82604653       6.13421572
Si      39.19506167      16.66884570      26.28770969
Si       4.62043024      17.14159997       6.55216754
Si      23.05679057      39.26830248      17.45447186
Si      28.34159399       3.55061694      10.00216581
Si       5.01722472       7.17688376       6.52275108
Si      25.81321123      18.52229114      23.12184080
Si      24.48082314      13.40468121      34.09156257
Si      20.80785757      34.97858994      31.65511235
Si      28.09430245      20.25567437      33.32694637
Si      27.31696353      29.85132990       2.48610008
Si      15.90100405      26.27215248       2.83756078
Si      20.26843881      21.59620368      10.39202113
Si      11.68638757      29.14202466       3.24822859
Si       0.41631028      37.25777382      28.47475887
Si      22.26440027      30.89178276      10.66678777
Si      27.37931417      23.84686399      11.97417835
Si      11.64297120      19.42353795       3.51185420
Si      28.67417279      36.58591844      36.26089660
Si      23.56241952       8.48327967       0.34166722
Si      21.76114061       9.90678839      11.55670913
Si      26.60452250       4.91635596      24.07351954
Si      29.85254898       1.37770575      22.42238130
Si      28.86407123      17.32673462      12.05919021
Si       6.25974853      38.21585901      16.29106608
Si       7.81196979       2.03204770       9.38166015
Si      33.13687613       7.40952273      26.82933782
Si      36.66400665      15.38358485      21.20683811
Si       6.21403722       9.12676886      15.46442221
Si      27.31398168      19.41099720      33.97783232
Si      29.91071215      22.71545002      17.35471142
Si      22.36116106      17.37104049      18.69601011
Si      12.18439837       6.84280224      38.57008255
Si       1.89187505       2.02815156       4.37343849
Si      15.98641643      20.38324291      12.21679328
Si      29.74819062      14.40621367       4.91310658
Si      17.13472958      17.77740286      20.36188529
Si      11.91351707      16.48429534      13.91118550
Si       7.24863486      14.27857607      25.78212956
Si      39.03961368      19.70596458      19.48455172
Si      11.14415200      16.02377684      35.89400268
Si       7.96812952      18.62017964      37.77870862
Si      28.17664105      24.40060581      21.82116592
Si       0.63275439      22.33114223      14.04694806
Si       6.00552773      16.26340465      19.43912528
Si      28.73438493      24.04333215       9.76504402
Si      24.01223344      19.61236873      16.47798431
Si      24.70200807      17.93346446      26.34583931
Si      37.05574568      22.17392543      25.46199427
Si      11.18748779      13.32529950       4.87772444
Si      24.48030903      11.89378905       8.94676016
Si      37.98246091      13.90310966      10.22457497
Si      11.10784591      25.60346949      20.51446181
Si      22.81844088      12.75007931      38.02236940
Si      12.96441511       3.04980761      23.97724522
Si      36.77875748       7.52335363       6.19793245
Si       0.70604039      35.72361249      21.36351780
Si      30.26407885      39.69423842      31.56845889
Si      25.42939330      11.41610256       3.23516030
Si      12.57347067       1.39605673      33.90400433
Si      30.13816651      27.00621880      22.81128921
Si      24.90298757      19.37767377       2.76928124
Si      39.46898486       7.56034166       1.76312351
Si      20.61565204       4.74451448      15.12189421
Si      33.25633136      16.75010579       9.96152901
Si      20.93443696       7.38385670      13.82570585
Si      38.28641543       9.00618622      32.50190557
Si      36.86361837      39.77968676       0.02382958
Si       0.13772036       5.44518387      23.97099198
Si      21.14921842      33.72242806       2.56960484
Si      18.22854685      31.57550455      25.78669653
Si      13.68335879       8.04262896      16.50775758
Si       6.20243061       6.60638028      32.80904972
Si       2.30958181      33.75665444       5.51553168
Si       6.71890893       3.73350003      13.05772338
Si      22.00730090      17.60156802      35.18207097
Si      25.50462880      14.15067173      17.74545949
Si       8.78538198      27.96183939      21.08292816
Si      25.16808057       1.24991169      34.97789654
Si      35.72587750      28.92564891       3.36685770
Si      13.87739343      10.97919192      16.90680161
Si       4.08389015       9.13717634      17.89930889
Si      34.64887372      33.47566603      26.08390613
Si       0.88641125      19.91212705      37.24291853
Si       9.83021010       1.38366826      13.15736330
Si      17.71372737      38.33337333      39.46542846
Si       3.32847607      24.98628899      15.95998730
Si      28.11017528      35.98927622      30.14653666
Si      18.16072341       1.49203579      37.01362049
Si      37.39089519      25.67371063      35.42680076
Si      13.20545535      13.96688597      38.65298977
Si      13.44228641      18.16656777      13.00729160
Si       8.63830358      17.47663283      30.11912508
Si      29.53342779       1.88666915      13.09596829
Si      32.28867274      33.25893688      13.07093067
Si      32.00646261      28.85447872      13.97474895
Si      21.30659780       6.90171058       1.18094097
Si       8.87368368      23.00165378      31.11799236
Si      36.53082460      35.63304110       1.86379471
Si      34.39501454       4.17605221       3.32168826
Si      12.48201420      11.66339735      33.79342716
Si      15.32007361      11.67288405      21.54577164
Si      37.72661500      11.26996713      33.09273786
Si      29.14053405      18.76420533      29.79668546
Si      19.88595873      28.06982077      14.11951010
Si      19.00372782       8.42291652      12.61179113
Si      39.71582787      23.88220753      25.08035738
Si      13.04492576      24.56550349      10.28812787
Si      14.97400887      39.16082781      30.61885694
Si      17.27707373      22.38386660      12.40612882
Si      28.13997934      11.67918090      33.68916832
Si      37.85456635      26.78175445       8.04666384
Si      17.50417324      11.56173080      14.71248741
Si       6.48614682      24.18561780      12.97899144
Si       6.65048269      37.56422474       1.17081073
Si      39.94234183       4.15913728      17.75087872
Si      19.42904980      29.65121005      36.57934561
Si      15.42248937      28.23305437       0.99160940
Si       0.97506812      13.43437260      15.41882817
Si      15.42039566      16.79107076      24.83791563
Si       8.68780115      15.20200878      13.26467957
Si      39.70412404       6.75699263       2.09239714
Si       7.49765818      28.98116528       6.75087846
Si      23.59173303      27.13121248      11.06897059
Si      32.98758584      37.96723757      10.23543463
Si      13.72998624      21.85726825      13.36433129
Si      34.97598984      39.55923758      18.91886212
Si      27.55652679       2.19110926      27.50123905
Si       7.33807031      16.49965506      39.94924473
Si       7.82296701      32.59503076       2.64660047
Si      33.61376448       3.66824000       0.41547928
Si       3.75105852      28.76271573      14.16197088
Si       6.21340061      29.98217977      26.34910586
Si       3.65731247      23.12010322      18.79067967
Si      35.27369860      34.88957113      17.05982738
Si      22.17036410      16.00123410       8.49074156
Si      28.58329452      27.16040862       3.57070034
Si      32.55620654      36.54412721      16.44455012
Si      12.70054370       8.54305376      31.52541004
Si       7.84575575      34.16401189      13.47695356
Si       7.96823652      39.86303386      34.29869932
Si      14.07130974       9.13582371      27.25887615
Si      24.30219449      33.18359622      24.47225464
Si      16.29610292      16.98643853      12.23800035
Si       8.80466371      13.91902102      27.51724861
Si      39.85275412      35.01069960       8.24533529
Si      31.49822027       5.13054811      35.31469362
Si      10.74048061      19.38384315       5.94081701
Si      20.07474281      38.35478920      34.63490054
Si      15.51347484       3.79310185      24.45249177
Si      29.01273033      36.23534901      30.26504060
Si      35.61282148      29.61128465      14.78328056
Si      39.01674166      11.15440938      18.72456141
Si      24.95972439      24.21226205      27.39301320
Si      22.96076930       5.11315211      32.45936967
Si      28.04945135       5.76310349      26.17925689
Si       9.16650697      20.62353130      18.33575327
Si       7.26416949      16.22862290      11.95907337
Si      29.63457417       2.12654681      12.73292563
Si       1.11737171      25.46734752      36.72239939
Si      21.43266777      37.08428230      24.22919270
Si      33.01421233      20.17768163      34.53392936
Si       3.99128195      19.39872447      11.52389281
Si      10.40442240      23.13045159       4.74594638
Si      36.36095356      12.97968823       2.96016697
Si       9.32481936      14.50025087      16.12782774
Si       0.49567700       7.51843805      21.37086248
Si      10.73640461      14.24676206      26.99902594
Si      29.83856390      21.51862775      16.78854118
Si      17.01324894      11.86367110      39.62837543
Si       5.10867041      32.00255367      11.94216492
Si      34.48556962      37.41349022      24.95940978
Si      33.43816758      34.46749408      12.89314931
Si       3.68727513      38.42494919      29.52133176
Si      34.91463234       0.32984567      30.98877410
Si      30.99706737      29.68707513      39.80671039
Si      37.06911098      35.58017665      14.55657248
Si       6.99255001      17.84568112       0.57774904
Si      24.39198811      13.18327005       0.21656816
Si      37.68151727      16.85776169      34.45369215
Si      22.01253377      15.27734378       8.65772373
Si      28.73101841       7.88239696      37.41711762
Si      33.34246691      21.91423549      29.18698719
Si       9.24580271      19.70565226      29.75780799
Si      10.59474354      15.78524860      37.81572404
Si      17.52984333       4.75638463      13.61225690
Si       8.72720092       0.06077594      38.46151721
Si      16.48362899      18.13917090       1.49192240
Si      14.46337764       3.70507932       2.41495849
Si      22.34413128      36.01994218      10.10536222
Si      21.22863178      16.96107621      25.24660378
Si      36.79435691       6.17575829      24.08085236
Si      35.01820088      23.69540312      13.10891956
Si       2.63386639      21.58577708      20.69370317
Si      15.69250116      13.64236494       3.20852377
Si      13.98569636      22.41565805      38.23402231
Si      33.54124312      13.38888727      34.03550892
Si      17.15694211      12.37699580      18.98314360
Si      13.62813390      12.16482946      32.54490414
Si      22.97628175      38.93448312      26.29757846
Si      38.84782441      21.11405632      22.80149965
Si      39.60596144      34.74293993      11.95171911
Si      15.19702752      30.69215691      21.32725787
Si       1.59003688      39.30550766      20.57604050
Si       8.86048678      27.68309490      32.43718546
Si      13.84374525      28.42321510      10.61691917
Si      31.97368921      18.81219241      12.13096584
Si       0.53769030      13.61099904       3.10513556
Si      15.26749470      22.91128729      28.02724679
Si      15.59715633      23.96387767      19.62734053
Si      30.65742975      23.50971047      17.51344311
Si      25.54036883      11.63850332      36.35305768
Si      36.13505351       9.33729196      28.24268106
Si       5.23201564      25.45641955      39.87271347
Si      26.68634283      21.04016123      13.78808056
Si      39.64419998      15.10715775      15.33272704
Si      19.96175052      30.39642795       4.28315990
Si      10.75598199      23.12453457       7.50569142
Si      21.10915696      25.87751531       9.54673007
Si      10.95316680      25.97377302      17.24938100
Si      14.97468873      37.15702101      24.97952736
Si       8.85426840       8.76707476      23.70867858
Si      22.86664682       7.00903984       4.11815892
Si      11.68910586      36.37083496      31.66831362
Si      35.98326990      26.50956172      32.41725509
Si      39.10062859      31.61713544      10.31838919
Si       2.33505187      31.61886730      37.92243103
Si      12.80161975      25.54986325       8.83395522
Si      25.44024524       2.85325435       5.17281182
Si      33.15496945      24.61888749      28.77469574
Si      14.81202745      34.65084496      11.86230988
Si       5.49136264       6.57814495       5.61492857
Si      27.94226850      39.72900822      21.13219525
Si      10.71206590       0.94894981      31.36659139
Si       7.20117365      28.01132155      10.93043020
Si      31.04484835      25.02463608      17.60115590
Si      10.56131287      23.55520744      27.76399134
Si       1.43006597      12.24840841      30.28312054
Si      10.71173949      29.08224359      16.27024989
Si      27.38986104      36.92659526       6.67900139
Si      36.96852595      35.59447558      20.38466197
Si       1.81271950      32.33139451      23.63095605
Si      12.53943148       1.69913234      15.46753863
Si       2.94855868      17.91809650       2.59994320
Si      26.52794903      24.93368121       9.26408044
Si      25.19862931       6.99510158       5.10987703
Si      14.35964801       7.23703502      18.63147330
Si      22.67691445      18.52779191      21.55466441
Si      33.91056142      39.55151069       2.93509758
Si      24.50364649       0.85912017      20.85152873
Si      16.07246209       0.34400619      37.34961813
Si      15.66475309      20.35026469      30.55497409
Si      23.60204956      34.47131497       2.57689509
Si       1.13828595       7.36449600      25.10559725
Si      24.78856490       7.31437512       2.21259426
Si      21.47993854      36.10432834       7.39681689
Si      17.12731554      33.43762914      32.62851248
Si      24.69162636      29.87894273      17.28975132
Si      29.98116206       5.19497713       4.60385575
Si      22.22246866      32.37015593      36.37113270
Si      18.40659844      21.75574130      39.63658800
Si      36.08656026      19.91028908      12.46803242
Si      10.55519885      13.81413099       2.16062127
Si       5.63820004      20.23947674      17.41901474
Si      11.83405389      19.37741698      12.56204094
Si      38.90263536       4.35484363      11.14539675
Si      33.75354091      16.49080439       9.82216768
Si      33.04969595      35.63455002       4.72527695
Si      37.23140926      15.15936654      32.82592620
Si      33.41668023      12.20335840      19.80851790
Si      13.92028316      19.58233002      10.44001203
Si      11.78640000       2.45482366       4.71919165
Si      32.12372647      17.86596403      10.84951508
Si       3.21814957      21.97801206      27.54246337
Si      11.18800417      14.64086398      23.85447233
Si      25.73753779       5.77398737      18.35299665
Si      20.97713206      16.23094403      28.98442372
Si      24.77174074      21.44828222      22.44814961
Si      36.18302405       9.89588748      33.12834856
Si      18.20648632      13.20235985      29.77316561
Si      34.04558902      23.85547011      37.12442146
Si       9.94926083       2.62523496      23.22168990
Si      18.33499150       2.82504163      33.54677478
Si      34.98780423      19.57121043      12.77018056
Si       2.80128370      34.57009729      37.95920131
Si      27.25621647      15.98369224       7.40402564
Si      15.90452917       5.88975009      37.37778707
Si       2.71828221       1.21345587       0.89444277
Si      22.64219114      19.30181690      14.36637661
Si      12.54058840       8.57778980      20.02124789
Si       2.08116795      37.05822716      35.64059909
Si      14.58848464      29.95903976      12.26927395
Si       6.98124879       3.64415708      20.98813464
Si       2.91407631      33.20567930      31.33402973
Si      38.06271597      37.74720204      16.47555212
Si      32.30621619      25.61854567       8.07445294
Si      20.85994398      10.44034916       5.65994134
Si      30.36404062      25.24026864      13.87468777
Si      24.39297169       8.69839852      21.29366591
Si      13.88123409       3.63655215      33.91118782
Si      37.59541460      14.95283678      11.21322003
Si       3.52073656      19.62010456      29.95337354
Si      10.52982384      38.89037293      25.06753198
Si      37.18112406      36.84898235      26.41434422
Si       9.17539793      25.75164690      13.50332222
Si      20.23201948      15.67071498       0.63329459
Si      15.78027697       2.80859617      37.13175384
Si      10.86095910       1.12969541      16.79853332
Si      28.92740767      38.11665208      16.26663735
Si      14.66131510       3.34612611      39.69205765
Si       1.63165074       1.48354905       0.59626680
Si      27.38355350      10.71047970      33.94322532
Si      30.10519231      31.80795106       6.60887935
Si      27.31020707      38.69735085      33.52855458
Si       8.12912591       2.33292109      20.02565200
Si       8.58393376       0.74807365       6.85436024
Si      15.07515095      26.72998836       6.57969340
Si       8.70534837       7.46732984      31.84751215
Si       8.28914493       4.62832844      33.75929980
Si      28.18658462       5.52013852      11.79219953
Si      37.77193580       8.05393783      32.27541649
Si      19.75048603      31.17659515      12.59790224
Si      15.91987658       5.00789507      27.54442174
Si      38.40015743      14.37802822      15.26200419
Si      29.68455846      26.78382283      30.79907518
Si       6.27414617      33.21251330      36.50932694
Si      27.15620095       1.43052325      22.80593879
Si      18.65141928      37.57386702      22.00050237
Si      18.65446773      18.93080380      10.91343605
Si      38.54373321      26.38113533      28.29117316
Si      25.05718931       6.77746176      27.49222219
Si       8.19264069       5.50450023      17.73637290
Si      20.47326564      21.69179616      37.50147024
Si      13.97195018      28.94408224      12.53348162
Si      31.43783177      25.55025732      17.53889201
Si      16.36428164      18.17182442      22.53036737
Si      33.17234180       8.89964378      12.45259941
Si      29.26245701      15.70581352      25.58646726
Si      39.36929877      20.69675885      34.19901707
Si       0.84590939      26.08525743      26.05261948
Si      21.43510959       3.26040034       9.92574646
Si      23.86678162       1.38249157      20.56766306
Si      22.20194545      39.53863136      38.87097590
Si      23.29893660      36.39472820      24.60155612
Si      22.78269191      15.49828861      30.96271262
Si       6.44082674       7.41040197      26.09112581
Si      29.80212275       3.39685081      39.69877623
Si      31.73266375       8.69589203      30.53933220
Si       6.32498547      31.26396453      11.73752943
Si       7.93987722      14.93923582      23.32803556
Si      23.48407428      14.07065645      29.63528513
Si      19.08564134      17.56421463      27.23256726
Si      28.54117255      38.99998552       2.60302712
Si      38.48650514       8.66360574       4.88599127
Si      26.63474303       9.68528569      25.99726585
Si      17.98963058      38.90805494      30.77836018
Si      18.07833959      26.86147340       1.84537090
Si      20.90597179      32.74897482      20.19049085
Si      16.86403720      10.26294249      18.40920629
Si      31.20367610      28.54082395       5.35444745
Si      13.09134521      15.83973473      16.30384855
Si      38.48860059      32.39273737      10.43602949
Si      25.67259822       9.51073517      17.69733710
Si      23.64730209      16.46373281      19.73886244
Si      20.84881223       5.21893173      10.58787885
Si      22.93492516      24.00550437      37.45194074
Si       1.37813227      36.87472168       5.58292830
Si      29.31940380      17.28730637      39.74423911
Si       8.10918893       1.99886164      22.50424713
Si      30.00966317      32.80977677      36.37900402
Si      28.10324795      39.79018111       1.52671598
Si      14.18521773       4.33525041      28.66834502
Si      19.03874203      21.47696887      11.50375402
Si      35.18500550      18.89667109       0.30844886
Si       7.10591797      24.12189048      25.57754542
Si      30.92571076       8.39942688       4.58859343
Si      17.63688940       3.11853072      25.89814255
Si      33.72492053      16.95122326       2.12536075
Si      37.22972409      37.72664835      13.73514563
Si      29.77574481       7.96165558      31.45552774
Si       3.81475747      28.38102003      10.87479885
Si      20.22173244      25.33119651      33.72076278
Si      18.59468125      20.16705067       7.33596075
Si      14.42784407      19.87474053      17.01527923
Si      22.31464014      39.41301301       4.02934333
Si      18.97303708       0.18166448       4.80265538
Si      10.55220595      37.75748751      34.23440496
Si       0.06011154      28.87066319       4.11887745
Si      21.21510464      15.01194452      32.72857559
Si      20.08261201      29.83435354      28.89790820
Si      36.26728197      27.05359908      26.11881973
Si      14.66894508      20.89073560       5.18532091
Si      31.45790072       1.63495791       4.92490657
Si      16.88690190      17.41825288      39.15136615
Si      25.96620154      17.65833363      38.07897084
Si      38.40408262      22.72028481      11.46819335
Si      16.60311837      36.93179423      26.33981033
Si      11.15488170      19.89962690      27.98311631
Si      16.67770716      23.74594082      39.87158217
Si       5.40530279      27.17334055      34.88882052
Si      21.47803070      19.71536379      12.94979075
Si      21.06063397      30.10954280      30.66883431
Si      25.46761599      25.12200981      32.17945261
Si       3.56601339      22.08409436      39.31007936
Si      13.49826712      31.12980707      17.61727707
Si      11.70648320      15.44285993      32.78667590
Si      24.80550838      29.99718585      14.21799272
Si      12.04904087       7.47166213      39.03849114
Si      14.76624157      31.81619102      15.55953547
Si      21.92146268      34.57389261       8.31603266
Si      21.78373175       9.77070849      39.32062941
Si      36.83238997      18.47346002      10.98491550
Si      24.55258361      34.62587993      25.86206004
Si      33.56755870      33.44565962       6.20714201
Si      19.22886734       9.93204374       2.26734996
Si       3.87168127      38.63980745      33.99661462
Si      36.05947528       6.53190966      10.72552146
Si      10.73206550      17.34127737      33.25350070
Si      22.00820078      23.61097726      34.01008301
Si      15.23469678      34.84377543      39.64282847
Si      19.65117631      26.29546010      31.76712137
Si       8.14930633      14.68780965       1.96428089
Si      38.01774719      18.42121784      19.46476564
Si       2.91787923      35.38542065      14.51872421
Si       8.83504009      16.84584286      17.20289908
Si      24.61695185      19.88495732      11.19977638
Si       5.14975237       5.47561417      23.84388407
Si      29.00790093       4.37535999      22.46510280
Si      30.95832193       1.72843833      31.76665273
Si       8.02618260      31.84556285      24.25351345
Si      25.21974141       4.57769550      34.86343878
Si      15.87150026      15.37427886      34.32426305
Si      10.94770977      34.23624819       8.67953891
Si      37.07902285      12.17266243      34.44006567
Si       1.27425166      20.17311725      30.50403122
Si      11.98648964       2.75367882      15.15869355
Si      21.84771854       1.99502562       7.12018357
Si      23.42485834      23.38306412      28.52351101
Si      12.06842744      21.80273161      28.45987127
Si      25.30201493      29.66921163       2.77944428
Si      25.93329360       7.55807403      15.79319649
Si      18.52869468       5.00309586       5.82186130
Si       3.87392151      10.45790789      28.72104436
Si      12.38510271      21.75829213      35.74609719
Si       7.70840075      12.41633193      23.38231781
Si       0.53874585      25.21444888       5.44048418
Si      37.91601133      37.61615550      14.72226106
Si      17.42566708      26.55232271      22.03607656
Si      38.37642290      35.33997632      34.15817201
Si      19.11878444      21.34314193       6.84819802
Si      33.71033692      16.77003808      28.56858297
Si      11.43317602      34.49954129      21.69972488
Si      20.61327374      19.83793890       0.80397440
Si      25.52030679      14.44503005      23.80912879
Si      30.65428146      15.14619583       4.66376371
Si      22.21092136      17.97045402       9.42597161
Si      27.71740779      34.93985144      29.79390423
Si      31.70051445      21.58911814      33.53961841
Si      38.06361807      20.03998581      27.15270675
Si       5.29930904      26.40586139      28.84345700
Si      31.59554369      39.99530005      36.19843551
Si       5.11839180      20.59078642      23.89758139
Si       2.29971142      35.41783738      39.55011178
Si      11.42570953       6.43312197      37.92718630
Si      16.69500395      11.85050727       4.50812767
Si      36.17373671       4.10231523      26.63658339
Si       7.48501367      11.62270175      29.34633719
Si      31.83532518      10.43919265      10.11688531
Si      11.92612249      21.17461809      22.90525981
Si      29.07521997       4.19079479      25.10116324
Si       7.93606719       9.77186539       1.10730953
Si       1.44295955      16.56563786      16.32238029
Si       8.34616399      39.26043995      36.25644856
Si      26.22446207       7.59041242      14.66942747
Si      23.35361337       1.27984851      11.49266970
Si       9.46675742       1.84402506      17.99264903
Si      35.15505849      15.43274972      31.51959580
Si      27.74571696      22.59894920      17.10564236
Si      12.50872924      31.80527962      11.45194575
Si       1.24759002      24.96260444      39.68085310
Si      29.02960176      17.98598165      34.41036172
Si      34.55078739      20.29073720      14.55363980
Si       7.78861374      29.16986711       6.49512609
Si      10.36480368      24.69528158      24.80403183
Si      39.71040946       3.94653278      25.22922123
Si      25.36973396      19.68945941      23.71995310
Si      26.44270945      38.18356108      16.12452522
Si      12.73271976      10.12464150       2.89047662
Si      31.32575391      13.07139225      21.50296679
Si      26.52214441      13.16673340      22.84886156
Si      18.92706043       8.67031997       9.94742726
Si      33.45081892      21.97997216      16.17851044
Si       3.96369646       4.24129398      14.23758821
Si      25.62201074       4.90044589      27.16646171
Si       1.46839560      23.61801068      14.25285732
Si       1.58957031      34.19303644      13.12885468
Si      38.21180358       0.89299420      31.02186297
Si      39.47591990      18.53841540      23.15517481
Si      24.61464430       8.56178397      29.89448661
Si      32.68526983      35.84842170      27.55439194
Si       5.68381390       4.25345446      15.23165000
Si      26.28371878       9.29597970      27.13453643
Si      21.66639266      23.19439472      24.39474361
Si      34.13445702      39.95456965       3.26509724
Si      35.11203826      39.16988384      10.35434796
Si       2.99664979       8.13102962      14.90118338
Si      25.06924795      21.23003450       8.23397475
Si       3.17958164       0.97809468      28.25487847
Si      20.10193544      11.32132832      20.30407286
Si       7.73832606      27.02711951      14.56734357
Si      21.64854230      12.90787364      30.10271001
Si      36.48178687      16.55003248      29.16776984
Si      13.32359242       8.49465753       4.62822831
Si      26.80653200      35.77318250      12.46528946
Si      17.89030237      19.45820492       9.56388690
Si      34.93043874      24.73216925      30.52789854
Si      22.89570080      23.65866945      28.18874025
Si      38.54050738      32.07852250      26.72706972
Si      31.65956033      18.18562878      36.94609029
Si       8.22179600      22.67967862      36.53680909
Si       4.35724770       8.46321632      17.91263500
Si      36.30751005      15.30942585      17.78484796
Si       4.04505187      39.03344286      30.86028505
Si      24.75474765      26.44933124      25.50928183
Si      32.92692844      17.88627159      36.84385922
Si       9.90418987       8.16310078      34.00930769
Si      14.79904722      11.91742772       5.57570820
Si      33.05068779      33.77429270      27.26006015
Si      32.59449587      34.22128518       1.56025968
Si      22.11097012      31.78119064      34.18952329
Si      26.25721970      15.57171193      28.81995714
Si      28.41733316       6.88970360      10.09704392
Si      18.05648369      35.90671974      13.98401768
Si      18.21247647      25.44120200      27.49093273
Si      11.55387386       2.94802959      34.82202127
Si       2.41583564      37.95174968      12.36772237
Si      11.80253847      14.23592891       2.49480019
Si      29.00750061      26.22449695       6.50609565
Si       6.12869810      27.56722885      37.26933018
Si      13.55635097      31.91372921      21.22097616
Si       3.50750002       0.76404233      31.11671840
Si      33.64310947      21.02223916      22.98407564
Si      18.97178532       8.59459661      25.41720661
Si      15.20030573       7.08430839      15.09855526
Si      24.05862720       1.27037148      38.47458985
Si      17.02449389      19.50539228      19.49335324
Si       8.67625022      19.27324128      15.45071656
Si      13.06446162      24.95415438      25.20530100
Si      18.71643271      34.39521053      21.11987498
Si      31.93848293      21.26398866      18.10169547
Si      31.47282457      21.82100181      37.37653781
Si      29.18075035      34.91956756      27.08750038
Si      27.04845766      15.61441264      32.36252380
Si      35.77529095      13.09789392       4.55759425
Si       0.87381846       6.57617067      14.51473678
Si       5.51708927      11.51180350      25.02699446
Si       4.84450500      21.09110887      34.84140396
Si       6.57255844       0.42117155      27.09013210
Si       1.38063326      28.17397914      25.25903550
Si       2.45034971      28.20572728      29.14107498
Si      20.66801908      39.88172988       7.68832207
Si      32.63001320      26.04280608       2.32325537
Si      32.26758409      22.38094197      10.09573852
Si      37.51275865      25.54526267      16.08771905
Si      31.69882831      22.00553913      27.94797209
Si      36.02250391      37.23694903       5.54875910
Si      23.42140001      15.46266085      18.48225494
Si       1.75883160       5.24770054      33.15496960
Si      31.14365680       6.53888473      28.31261642
Si      20.01154601      35.92969565      15.66398830
Si      12.31626002       1.04963560       9.84753607
Si       0.33509366      19.02059860      11.94643386
Si      16.63891153       6.89825288      21.16990668
Si      25.86876505      14.11494771      10.25340079
Si      27.87223044      32.37883134      15.38739474
Si      28.32231411      38.08349556      26.09437814
Si      33.07695114      39.45505345      19.94307686
Si      39.01858077       6.42415913      22.35101117
Si      19.13409651      19.76630047       1.03447052
Si      39.28278781       5.13324317       4.43420024
Si      31.84505326      33.56382156      15.76610246
Si      23.57358559      31.92923048      37.21440493
Si       5.98666209      28.60484698      19.72160483
Si      36.99036732      21.14066126       2.71916882
Si      38.79901067      37.76677727       3.95544930
Si       7.50544406       3.67190292      19.49341745
Si       4.92796485      34.13436834      14.52790298
Si      26.35430613      22.88695383      37.79960679
Si      33.91088486      31.19301273       0.60365237
Si      16.53484733      26.50467065      17.53608001
Si       4.24174045       7.90502403      26.13760314
Si       0.82405266      20.69294859      15.79747726
Si       4.20588749      31.47073071      26.04297958
Si      36.46523992      28.54582821      33.97619977
Si      30.15868781      12.06088819      24.82112664
Si      30.53471947      26.81849779       5.16708368
Si      28.89482770      39.35122966      19.13526892
Si      27.89405207       7.60400660      11.09374802
Si      32.97678895      11.49148261      18.32579540
Si       5.21501722      23.32702986      21.10075665
Si      24.85815004      12.74599302      19.59308190
Si       4.53369257      34.93848344      17.75486428
Si       5.54022178      24.63895327      30.93599277
Si      21.01441659      32.00859717       4.73977171
Si      37.72264624       5.26311753      19.26824002
Si      28.50662489      22.44635705      16.03187929
Si      35.60118464       5.12188878      29.95833516
Si       6.97915679       4.21169527       6.65034290
Si      27.54865787       1.91141622      23.41090410
Si      26.32381336      23.21196884      11.82871784
Si       6.88108410      15.65219467      39.23486538
Si      10.35081830      24.33927018       6.30290207
Si       4.06915485      18.54354546      24.59545912
Si      11.37876145      36.78577600      36.78659554
Si       3.54274851      32.55559798       6.04438107
Si      14.89005147      29.07278990      15.86250555
Si      29.68495030      23.99871526      35.42287071
Si       4.51271331      36.84618591      32.91028761
Si      27.06002103      30.31346549      25.80978404
Si       0.25467808       7.75339851      19.36325648
Si       8.58503267      13.53129447       4.43967797
Si      21.84156964      16.99513724      28.73920762
Si       6.96439951       6.25281767       4.65398817
Si      35.99207842      28.10911410      35.05248319
Si       6.98681674      11.83187948      29.84130370
Si      11.17123931      13.51127213      16.57180544
Si      19.02690429       5.58577429      37.60437254
Si      24.24764769      35.96160797      24.11421359
Si       5.68379353      39.23748533      29.90804639
Si      34.20084604      27.24096946       0.88254391
Si      38.22247328       2.24558413       2.29879799
Si      14.41401077      13.66411903      21.16575248
Si      24.46324030      32.91226526      39.33023490
Si      31.43908470      36.74544425      38.10757930
Si      25.20016339      11.67726039       6.42846443
Si       3.07357385      25.97485583      36.90948560
Si      28.28735837      23.19349433      35.78326016
Si      26.82633685      19.15608966      33.01295704
Si      30.98070374      37.11401008      32.34793398
Si      12.96996258      37.76506900      20.00952798
Si       1.20881655      28.43089481      17.93858899
Si      19.94243639      31.52121868      22.93207416
Si      14.85788948       7.44435430      25.44749744
Si      23.99944284       0.81030462      13.52773200
Si      31.36032627      36.39567613      27.22937291
Si      31.43033145      18.14666847       9.09238456
Si      15.81238550      14.00511686      28.74729895
Si      20.07249775      27.46497572      30.60376608
Si      17.00878301       4.43734611      33.43955292
Si      34.56867648      11.86101449      16.66063769
Si      23.46950676       2.29605290      12.87409607
Si      34.43799014      17.62083302      28.86122559
Si       8.88373514      39.70813544      34.07547480
Si      23.99312866      37.05543741      36.87623582
Si      25.50759240      31.10156548      34.94902022
Si      31.57485931      30.13333598      20.62681942
Si      25.01049908      18.32871396      16.36530661
Si      19.01230939       9.24558012       1.37113995
Si      21.60396551      24.16440950      32.25377686
Si      29.19680526      13.61691810      23.59127462
Si       8.37317765       7.90132553      19.94388926
Si      34.73915873      21.65685149       1.18995226
Si      35.59025509      14.18996428      11.95144408
Si      31.77657444      29.84240612       4.22757779
Si      24.12218620      27.06148634      36.55467681
Si      22.22531778      13.23857648      14.46489354
Si      12.67603820       3.48321825      11.81971992
Si      10.22626359      29.92405576      34.51587426
Si      35.89537326      12.92815352      17.56670788
Si       7.74422523      39.90651433      27.42790861
Si      33.93449845      37.06256942      18.52971779
Si      21.44409448      17.12493302      37.35036066
Si      27.52230888       5.43004853      24.75094083
Si       3.94658982      10.44075995      34.26477140
Si      26.42852358      35.35849227       4.46435951
Si      37.26220349      17.09132528      12.22292419
Si      39.46163662       4.10239414       1.49344274
Si       9.05065515      32.72966651      25.64099362
Si      34.82997643      28.46934128      38.68022521
Si      35.76225944      20.70824188      32.13682296
Si      32.64587990       5.07100983      28.21489307
Si      18.93394652       4.41519365      17.21444845
Si       0.72123386      18.59342364       0.27886747
Si      32.36503122       7.94444196       9.65607464
Si      35.51260172      17.38048704      12.24779740
Si       2.64142731      24.23962273      30.90773209
Si       1.18800107      35.93558216       7.16678785
Si      20.86441821       2.61370399      29.85633126
Si      34.47003761       8.92660758      27.23184060
Si      26.13544115      37.84032208      23.39260005
Si      18.82458971       7.14415723       6.85727761
Si       6.57285064       0.85918882      22.64782935
Si      34.31916902      33.45680720      10.68548399
Si      19.15147880      34.63056391       6.54193911
Si      18.30581872      16.50861277      37.39386921
Si      25.76305052      30.02776816      36.26810981
Si      11.24409960       3.37037069      34.68970247
Si      24.39264684      25.98381740      14.33180706
Si      33.39747463      34.35694740      27.15016850
Si      16.21979207       9.04095035      33.73101572
Si       3.56040506      20.55660145      18.30708726
Si       1.16739579       7.00369359      25.86192662
Si      30.33198601      23.62654463      31.73417111
Si       7.03513172       0.22446219       7.99356503
Si       4.50467234      16.11022610      11.45816444
Si      38.92172807       3.66340519       0.89085032
Si      34.49782611       6.82416788       4.50006327
Si       0.58620089      33.14316089      13.20467570
Si       4.29613269      28.10866937      26.33378598
Si      15.84965595       3.28229022      12.57674139
Si      27.97973582      27.62617446      25.55981095
Si       9.60086464      13.78891028      28.34322878
Si      32.58823806      33.50460347      18.16771411
Si      35.00319785      33.56365013      38.83148025
Si       3.20710992      12.76029031      25.84183485
Si      26.62672913      18.37921556       4.22891414
Si      34.56868372      15.91371793       6.99556851
Si       3.86236497      24.78542503      11.32193428
Si      29.07642919       6.55510193      10.03111802
Si      15.87609773      15.48912267      16.14653920
Si      20.49176566      26.69067532       9.16414531
Si      10.74007627      39.98264587      25.72551309
Si       6.26398796      20.96077056      13.01376679
Si      31.80095754       0.97745967      33.33122076
Si       9.90137224      11.08175539      17.86480966
Si      29.51493899      21.05412755      15.72832932
Si      31.61015665      28.57310519      19.49543871
Si      29.88122935      30.90023194      26.20776668
Si      11.41178306      37.31228584      28.45150092
Si       0.58329012      27.38715510      27.20879833
Si      31.84468612       7.85090376       7.10885062
Si      27.78639735      17.59085891      21.41370298
Si      39.33363301      17.31645012       5.45417297
Si       8.54471857      39.42214338       1.12554034
Si      35.03760045      11.55736335      31.20278787
Si      19.45667557      21.43413460       1.73012998
Si      24.51237836      28.21293745      12.83576400
Si       8.23392964      27.98481495       9.15250984
Si      27.44703922      18.03805644      20.51144130
Si       1.33450577      16.32564902       9.09050245
Si       0.54679745      20.21399994       1.03874595
Si      12.04809026       4.03693429      26.85249572
Si       3.37292380      32.77665651      17.92256378
Si      18.60472371      31.83328349       2.90408902
Si      15.15789466       9.95994051      19.33360118
Si      33.21634482      32.11929412       9.78322112
Si      21.24665058      31.00961991      21.27041967
Si      28.10457327       6.65591983      24.78263552
Si       7.69411359      16.17941359      11.89250222
Si      13.32698267      24.74174807      38.20373096
Si      36.97426642      15.10549207       8.87080337
Si      24.88656159      29.38757732      26.70288525
Si      17.97225315      23.59131719      39.38169631
Si       2.96879677      32.79863099      10.26260754
Si      24.68003972      36.79352675      35.12875172
Si       1.79362012      36.56476483      19.28809087
Si       1.81837630       7.98857765      20.81364791
Si       5.53399203       6.94759262      34.52750035
Si       5.94974335      33.48423789      21.03588480
Si       6.27678295      33.47271229       7.83868613
Si       3.15684145      38.60756044      16.93992118
Si      31.01205693      26.19233163      28.96392362
Si      13.87975846       8.73667770      19.57532880
Si      23.52565139      30.06918253      25.57748606
Si      20.30114661      38.32501574      13.82280122
Si       3.83998243      39.36029848      27.34902980
Si      25.65277620       4.29122776      31.37592544
Si      23.51296104      21.78082408      22.41937267
Si      11.65097861      12.68636650      22.87407432
Si      11.56577833      33.29399456      30.50798917
Si       0.59879515       7.14025680      37.94895760
Si       1.62963258      32.75184084      23.89180102
Si      36.61636351      19.22908970       4.21287508
Si      19.07326493      30.18746524       6.54145823
Si      11.96843233      12.09794221      35.73729236
Si      12.92804762       0.96861102      35.45962613
Si      38.81337296      29.41570388       4.97999532
Si      23.91677371      35.86386678      31.15538142
Si      34.60277824      15.19983393      39.68433986
Si       4.47496322      20.44844787      36.57134948
Si      32.88211573      19.99276762      21.32424048
Si      22.52922749      24.10803282       3.05050255
Si      23.59605490      27.02535850      29.54241843
Si       8.04591322      17.90768217      19.64684426
Si      28.32754910      13.92273220      35.26699404
Si      21.52521967      21.26276960       1.19805796
Si      32.76015547      16.98510424       6.21961299
Si       7.92470642      28.14235612      22.23412533
Si      37.18416218       8.88896460      35.63907058
Si      12.12310096      32.05767088       3.64349561
Si      26.90325528      21.56762177      12.34989256
Si      35.56756545      17.49528311      38.25993561
Si      11.02141267       1.63139910      28.99760683
Si      12.64723591      20.68392560       7.58923615
Si      31.35128222      18.32574407      20.04034127
Si      32.17324812      38.86858239       3.77567725
Si       9.32862555      35.00459815      23.66379259
Si      27.60949826      21.75528146      12.44654270
Si      29.11484828      27.67513506      26.69342779
Si      17.48323868      12.36794270      25.42895628
Si      27.05335121      35.98728660       7.54706385
Si      29.09701774      10.88860888      17.90409194
Si      13.44576017      37.57675972      12.13777352
Si      10.89174876      15.18709981      11.28727214
Si      25.78969320      36.62126379      30.08784913
Si      35.16210594       6.01580871      16.02463968
Si       8.90409525      31.75372440      11.70433094
Si       8.34299510      19.40359344      32.23518996
Si       2.95641523      13.09445972      13.65007540
Si       6.48660669      10.82405226      15.08929189
Si      37.77650847      32.54628666      22.66780111
Si      36.20007656      21.52859285      18.43182114
Si      34.18087439      36.08323378      22.20892806
Si       7.44387063      22.89750727       2.64257591
Si      39.83778746      16.24966379      25.94894861
Si      11.20306262      19.87933632      37.87794561
Si      34.19813147      24.81948978      38.78452674
Si      18.78332875      26.99885573      22.17335526
Si      22.19947365      10.39958691       0.63904401
Si       8.37754511      16.72128205       6.25774568
Si      31.35179976      35.80841254      16.57838702
Si      31.35003004      33.50348773      22.18175413
Si      36.91824772      35.45843437       3.70738629
Si      22.76530707      37.22392594      29.78327617
Si       8.05277371      25.48900096      15.85595745
Si      10.53714583      30.10187534       6.60060386
Si      28.73471681      16.88451146      19.73527206
Si       9.14899052      17.21497134      39.60946653
Si      26.03297235      35.39285898      34.64036873
Si      28.61899101       4.71805354      29.67844692
Si      18.11813336      31.80107410      21.40380505
Si       4.26332043      18.07382701       5.47944933
Si      31.15376623      18.47745799      36.48821406
Si       5.95187562      15.46558193       6.49760847
Si       3.33917382       8.08825760       1.18996552
Si       8.53738468      22.89264944      17.74697969
Si       1.03344157       6.88354534       1.36138078
Si      28.16153227      10.96312773      33.26517936
Si      15.55036459      26.96767720      27.25388334
Si      31.85993031      22.82157486      13.97887656
Si       2.91767330       1.93142989      20.33539195
Si      34.02873040       9.84117775      33.61611769
Si      14.03331189      38.85276969      33.99307401
Si       3.72676390      26.43199435      36.27222183
Si      12.59421485      20.67469897      32.32913410
Si      22.29762030      31.27303050       5.57917640
Si      36.97096942       4.96585670      12.43446010
Si      27.56224919      13.81110958      36.98732900
Si      12.80613221      10.93637858      32.30818213
Si      27.10850619      11.48672552       2.47596746
Si      16.54064627      13.98473371      35.29314291
Si      36.21413407      21.69185835      38.67010869
Si      13.00700599      24.65086542      11.81246698
Si       2.01765746       3.87205071       0.57685558
Si       3.78156080      39.83797850       3.46366111
Si      35.02966927      35.94489989      21.13399084
Si      20.72459221      27.84663245       9.93286833
Si      11.48355971       0.43369956       6.85909687
Si      22.00942601      12.27302243      33.21152998
Si      32.39754740      15.88260330      28.59292334
Si      32.96763264      31.23181711      37.85170400
Si       8.43135341      23.93609078      18.68941282
Si       0.13987805      28.70281467       3.50261379
Si       7.39084515      29.97467075      37.26876835
Si      29.07387984      35.33060553      20.55247574
Si      19.46660599      11.37524410       2.75340591
Si       6.72288627       8.93149483      34.92991551
Si       0.09408677      16.88430062      38.86924877
Si      36.27032094       4.44111241      29.76550190
Si      34.88134527       7.50647426      10.06768772
Si      27.34659550      30.30664574      35.02322675
Si      15.91595575       1.91444551      39.06211421
Si      10.35198793      30.79795087      36.77265354
Si      21.64747572      20.94372338       9.61318087
Si       2.43815904       4.42196540      28.94165312
Si       7.95958170      19.82415812      20.73715554
Si      37.07294758      21.61627596      24.62076136
Si      32.44854242      12.05079479      27.50535945
Si       3.92197621       2.84019096      38.76117696
Si      12.63448657      18.32174375       6.11145046
Si      12.16207003      36.07599558      37.29252066
Si      24.95627625       8.15203566      38.23843557
Si      31.30226718       3.94096513      27.33559720
Si      16.53892300       1.41871800       9.88699553
Si      21.88519276      22.95211871      38.60151544
Si      18.67346049      13.81256467      35.50886303
Si      20.44139426      21.81301053       7.84936739
Si      31.36945797      31.26289395      22.28708551
Si      14.82487718      23.11335611      32.89376249
Si      27.07998370      35.82177347      17.36857858
Si      26.12063818      22.85777491      26.13648245
Si      19.77000497      22.25978489      16.50136573
Si      21.37712333      11.04453937      36.01981268
Si      13.12089726      34.89000596      32.94994020
Si      28.41381242      24.68159809      31.95905208
Si      29.52949746      21.51634786       1.20126987
Si      18.13979167      13.31274974      38.95110686
Si      14.26081966      26.72740600      10.55564556
Si      38.71497812      39.01412850      22.75828156
Si      39.77957546      15.58150266       0.90672976
Si      37.11244144      10.36747165      22.16148165
Si      36.95357724       9.57009188      21.39003843
Si      21.91519083      21.94317054      24.83788427
Si      17.05384399      18.11229033      27.24225153
Si      37.69766842      36.74667947      14.04657731
Si      12.11351248      20.39779383      32.40163847
Si      29.94705737       5.37237416      37.84241279
Si      17.20473154      10.79465073      24.23773124
Si      15.23483873      29.80123766      30.49808306
Si      34.47985122      32.00538791      39.85770450
Si       9.31561340      22.20319830      17.14707559
Si      32.51370178      27.79356477      19.41265102
Si      28.57269346      18.89362446      37.33728672
Si      18.15864207      13.75667853      19.72777004
Si      17.36303697      19.25614250      29.02868903
Si      17.68411573      20.08796732       2.87525549
Si      30.45227194      38.58027676      28.04733560
Si      34.82606196      12.85319297      36.47399794
Si       3.52230215      39.55418027      35.95366213
Si      39.86829541      14.24625889       1.44438149
Si      31.06291590       5.31069548      29.93888324
Si      15.06203595       5.95147959      12.63398389
Si       3.88914938      19.82786168      11.18095210
Si      10.22118383       0.16213318      30.46680617
Si      31.72373968      22.08729544      23.21297000
Si      29.97296698      38.73662098      33.28921310
Si      22.11744210      37.78695971      26.50150948
Si      14.46435058      28.31843945      27.87476587
Si      38.40069088      20.77530121      18.41245690
Si       0.67440457      21.74916826      10.95512703
Si      31.23427836      36.20892906      35.54383382
Si       3.57937988      24.86169895      26.50414377
Si      10.50488788      20.72204716      23.83803124
Si      10.61300525      16.88373230      33.73999596
Si       7.89544511      39.94018190      25.67797627
Si      39.92011037      22.03364827      30.79576770
Si      33.32839766      11.99446012      36.45142907
Si       4.56464802      30.50742175      20.07571900
Si      37.75012434      20.99601032      29.58393727
Si      14.60750624      13.76919937      28.24914206
Si       9.21677011      11.72466116      21.62242733
Si      30.88072896      25.50390175       7.86009187
Si      36.41981542      17.69074297       5.68293795
Si      29.67560413      30.54467692       1.81225920
Si      31.87321603      17.88912458      12.59212588
Si      26.06688570      20.08303995      28.02955685
Si      38.72221279       7.23027229      10.62804601
Si      29.82472019      29.15017838       5.05615561
Si      12.50809945      23.35165784      36.40955519
Si      31.52818597      38.81823027      18.32538868
Si      32.02832118      36.18175097      17.39999283
Si      37.08769603      15.17377247      17.90375309
Si      10.59859573       3.17100062      22.94707839
Si      32.66700861      33.89771970      35.20826977
Si       3.52656049      33.27006680      29.36423299
Si      35.81803332       4.51813244      16.80263736
Si       9.87136467       4.27491569      25.76809048
Si      26.16958987      33.41605953      39.16510473
Si      12.17111035       4.53414842      20.25307749
Si      38.93912105      38.27674709      11.46570757
Si      10.69811467      20.18480276      33.98174952
Si      31.88101727      11.52981825      16.48345728
Si      11.39721806      39.56011533       0.27876994
Si      14.39355015      38.05160822      26.03802767
Si       5.67020857       1.29907158      36.77318827
Si      26.24899996      38.18943077      34.43522818
Si       6.31009662      14.36972422      24.42021941
Si      12.07583444      15.16173144      38.24090057
Si      27.67240316      36.49892887      12.50164331
Si      35.72057038      12.52875795      25.91093713
Si      28.03543282       8.74704813      21.91960458
Si      37.94725157      30.51418045       9.82140985
Si       7.00415777       0.57974297      34.67666147
Si       4.79145917       2.61510027      10.06927492
Si       0.39331619      11.09559846       1.40136090
Si      15.19444527      31.17690103      31.60852398
Si      24.93614387       7.45173455      38.33191744
Si      22.54595145       2.87441012      26.72418226
Si      39.31453621      36.92966367      13.16574108
Si       5.44389920      37.10759188      20.26209147
Si      35.47599408      30.28358959      28.35462472
Si      36.65747780      36.39838630      39.78269560
Si      10.31623689      32.82352060       1.44548225
Si      36.15115344      26.30434890      25.11839132
Si       4.17793706      14.49386395       6.64600980
Si      37.18416260      25.58533326       2.81827198
Si      15.64887800       2.79467445      28.51156366
Si      28.05181016       0.97166235      15.67012439
Si       2.76669438      26.69639300      15.47688576
Si       9.62049113       5.68250093      31.74463653
Si      39.92417277       9.12969411      35.01359263
Si      20.69664659      26.43439856      32.54770715
Si       5.57758462       3.87847518      10.77793384
Si      32.23892269       7.62643350      31.75602914
Si      25.14690391      24.18289803       3.41613843
Si      28.27449450      23.45149289      29.64459713
Si      13.64952361      25.79474919       0.59846606
Si      19.13812336      12.69613280      37.77786693
Si      31.64468340      39.58374272      16.83688466
Si      11.40760688      24.58176507      25.46186442
Si      11.21165586      22.31646944       3.77715701
Si      37.43969412       3.16258510      37.68380841
Si      21.49742919      27.93515287      23.92611957
Si       5.57092732      27.59160715      24.79486756
Si       9.51191366      30.71764376      38.85191963
Si      17.50741511      32.22548644       7.49734306
Si      14.07043595      36.51524634      13.38242433
Si      23.92559918       4.04647314      36.05422407
Si      23.38752822       6.93350644      25.16512416
Si      38.61506853       9.43463448       9.82496639
Si       3.76591487      11.64935411      29.35291468
Si      30.96441163       8.03418802      37.60385544
Si      18.94581869      37.95947705      38.18044627
Si      14.66492724      23.79679057       5.06446567
Si      37.83505918      35.21776289       9.46165738
Si      34.85024028      12.58038844      29.01419552
Si      26.28208448       9.63050279      23.93395628
Si      32.50297357      37.98829599      32.47601396
Si      37.58877253       8.75013563      15.70201502
Si      30.96065805      33.26016458      16.61745847
Si      17.18395812       5.36829996      28.14695411
Si       6.41798824      24.10173474      28.48372473
Si      21.13054050      16.62125929       9.32705968
Si      32.97342469      29.35860892      17.55843965
Si      19.17683411      26.77036694       9.43389265
Si       4.08042362       5.36571177      33.27679140
Si      33.41863995      18.01428358       3.60306460
Si      32.65908148      27.48448697      26.81010940
Si      28.89484516      27.35137704       4.29282496
Si      13.60044728      15.79942061      36.25403424
Si       9.58787176      25.22390066       0.27774754
Si      13.11315344      16.28924821      21.00234361
Si      39.34718470       0.60801016      25.23255222
Si      37.13646149      29.48714850      14.88808541
Si      29.43318780      28.50348884      13.65355360
Si      10.84155535      25.23722015      28.96227023
Si      14.27593860      35.38778055      23.06068683
Si      16.88896717      25.66138869      19.26615662
Si      10.38158871      35.50170724       7.75292073
Si      25.80285798      38.00255243       1.82013861
Si      10.53230092      37.82051895       5.37532966
Si      20.14383974      38.62762486       6.10653617
Si       2.78416881      11.18299466       5.86122900
Si       0.11764554      19.52256621      19.11865082
Si      39.30843615      36.76492850       0.09693919
Si      17.78102815       7.80742503      14.97806652
Si      13.99774244      21.20249020       4.44137903
Si      37.75754376      21.67056606       7.44172304
Si      16.93379584      33.55550235      16.82261381
Si      21.10580186      34.07965340       6.30163483
Si      38.14348275      38.40822655      10.28884462
Si      12.26889937      24.96047649      36.13346026
Si       9.08932300      16.73833390      39.14582321
Si      38.76006576      28.27004769      17.87510774
Si      12.13123922      38.12159985      20.23636415
Si      35.31755289      32.60853990      17.88195078
Si       4.82187006      17.05885102      31.32069492
Si      39.27077742      18.10550261      34.51586386
Si      10.46853917      36.26098456      11.65390616
Si      15.78179746      29.24851400      34.31759334
Si       8.15012517      21.38066770      21.32388527
Si      35.17666823      22.90042185      11.97991105
Si       4.95627549      18.97284843       2.34386779
Si      34.74156937      19.31573504      21.46630496
Si      10.32689614      33.22033202      30.82824229
Si       6.47714487      37.38768025      15.32893033
Si       6.12559948       4.01068220      28.34396040
Si       9.90324127      28.10912812      29.83271317
Si       0.36181983      33.95279315      32.07067075
Si      16.52469105      29.41493235      20.12845529
Si      22.23449352       6.73705557      20.00058402
Si       7.13619285      32.74937645       5.76039286
Si      21.20497886      32.32860600      36.87119580
Si      25.03737658      17.06743609      19.32877827
Si      36.53365232      33.44469936      20.40510662
Si      36.89776200      11.38028163       3.26558086
Si      39.19752748      34.28282738      22.85970086
Si       1.54693792      27.00020393      26.20927354
Si       5.94988750       8.90525421      11.21857330
Si      36.86137806       2.90591492       3.22369648
Si      10.78012944      18.35657610      15.53695814
Si      14.66595465      25.20396035      13.82727159
Si      22.64751891      20.52087928      15.56516597
Si       7.33869215       5.42335838      11.68498725
Si      35.61690413      39.30508832       4.22275739
Si      36.80996941      12.05894051       9.06443691
Si       3.75460448       7.76143344       4.54892388
Si      11.92757426      39.01701549      36.34023080
Si      31.98079490      30.28724666      18.91651464
Si      11.46098649      16.83793028      24.52824814
Si      20.79813238      21.60806818      12.87408344
Si       6.18004444      24.72904731      28.39003824
Si      39.67997007      34.11028161      25.31241821
Si      21.91024116       6.66797061      24.29487360
Si       1.25389718      13.67316344       3.94427689
Si      39.53107746      30.56175757      10.12070640
Si      33.03774571      15.86690899      13.57916937
Si      25.75034006       9.69153008       2.40288970
Si      20.61449927      34.86819758       9.87881273
Si      18.47347800       2.60896350      39.31088200
Si       4.98602903      29.93157006      14.43102004
Si       3.34052096      36.14300430       4.25809997
Si       2.64165687      15.09005418       6.30448633
Si      28.13029255      36.55754699       7.03277442
Si      30.93778576      20.18494234       4.37853311
Si      17.45400899      22.65163611      11.21539439
Si       4.79351359      22.91565859      33.78203368
Si      14.34253267       2.53147348      24.54504761
Si      37.61437451      39.04650623      33.75886655
Si       4.05897301      19.93878522      20.44281664
Si       5.84805551       3.04968524      25.23541523
Si       2.64447379      35.59200584      18.88924464
Si       4.48479771      14.73024639      26.54997358
Si       9.24691188       8.91851600      14.13461162
Si       7.25939164       0.98804621      39.32679335
Si      26.77650925      33.83614609      26.18704193
Si       9.39431697      25.97225879      19.85910608
Si       9.50580393      16.68562008      15.35753020
Si      39.40322693      34.39482162       9.38412639
Si       1.33009005      24.20741439       0.74107975
Si      37.16743968      39.68699596      18.53052980
Si       5.21103689      26.20291090      35.04295788
Si      23.93835811      32.22886126      30.35411529
Si       4.78274050      23.93668175      13.56016146
Si      38.00384266      30.36685036       4.01264208
Si      13.01688831      17.39463225      38.81805582
Si      29.76821038      33.28110263       7.26668133
Si      22.82994215      29.11500096      11.89321642
Si      37.84583455       9.41477764      34.18906137
Si      31.51405375      37.67301366      32.57931818
Si      26.54933216      25.05442141       7.47507838
Si       3.63180957      16.65628661      16.32049997
Si      12.81175096      16.69735421      14.30691633
Si       7.10358487      27.63434095      10.45070547
Si      18.03974387      32.57468682       4.35199414
Si      34.77296236      38.38336647      23.25003775
Si      21.86936401      12.42589608       0.67345571
Si      25.35588676       0.30310227      39.09437737
Si       4.47370890      31.09767504       0.59401666
Si      37.13744934       0.55225940      16.70092102
Si       3.96838417      18.91422046      31.92546656
Si      11.88824805      10.67508549      20.02634326
Si      31.42715953      27.03285963      30.21670595
Si      30.86389980      33.27684592      21.40054132
Si      22.38171347      27.54043034      23.45772544
Si      13.59422788      13.33055092       0.13465232
Si      37.37641207      20.38689801       3.11417867
Si      36.00044883      26.66822870      38.84646138
Si       6.16531774      15.74953722       9.50450952
Si      14.42205550       8.51999854       6.47214319
Si      24.96695128       3.66280911      13.63937394
Si      17.66946577      39.01418506      23.17289614
Si      11.53779802      11.52804686      32.97115847
Si      31.08484253      22.27240543      26.22141768
Si      20.88702502      39.76248474      39.52334732
Si      35.32950170      24.94403701       4.22788889
Si      24.50377030      28.03752481      15.99571098
Si      27.25890904       1.84214652      15.17171658
Si       1.35044598      21.46872425       7.91870176
Si       4.97908002      32.04359435      32.59837577
Si      32.49848083      24.36113354      12.50564167
Si       1.09297686       9.41124585      37.97482284
Si      17.75458147      27.29078497      24.11860766
Si      33.15257092      24.97005303      27.76336410
Si      19.64771732       1.16865221      24.18008834
Si      24.83760604      35.20184876      27.03793589
Si      21.59303492      23.03432870      20.60041178
Si      30.81149211      28.09011554      23.65068218
Si      15.95155846      30.48575758      21.27779339
Si       9.99602483      13.49273518       3.11684478
Si       4.88755589      35.61448064      31.12447826
Si       9.11694430       1.05044824       2.30131473
Si       7.77020776      33.05035674       4.90661090
Si       6.76778362      29.04282488      33.56935857
Si      34.17491679      38.64964276      25.29469394
Si      28.69762169      36.93908970      37.58507039
Si       0.22718800      29.53362607      26.54253699
Si      34.09120002       8.74679510      29.75851219
Si      35.79234358       2.44749742       9.95394858
Si      18.95166748      35.01539141      36.04803256
Si      14.03306680      38.21107903      34.95700787
Si      12.30889769      37.22500199       5.35937872
Si      11.32030927      24.19393931       4.93980458
Si      18.22029818      31.28130348       4.59816074
Si      28.70839383      35.32338233      36.06858320
Si      31.26204940      27.19024295      31.44296058
Si       4.88218542      22.46157541      38.34893639
Si      38.26948172      23.86947319      24.55779474
Si      23.81757261      17.66062803      11.59781789
Si       9.75650093      18.71489092       8.59868121
Si       9.36941465       3.50313319      17.89744639
Si      23.79068695      20.77445347       5.80939121
Si      33.37944285      27.06877475      24.91098267
Si       7.96226672      29.44059257      28.21546637
Si      17.35646331      27.53589770       9.98132724
Si      22.75491697      16.47620959      19.38197305
Si      19.50638909      16.10272797       9.53976447
Si      17.68933963      29.54224387      24.52559150
Si      23.53333046      17.74916433      35.81875309
Si       8.79557192      29.33485408      17.01368570
Si       0.26946419      15.81062477      25.06788950
Si      39.07820792      34.47758025      32.24291617
Si      38.67063056      23.60273146       0.62214307
Si       9.49982221      32.79427986      14.54163487
Si      32.31620485      14.22321165       8.96595721
Si      14.34613933       7.48811230       5.88872863
Si      18.02393292      39.07675610      37.36826126
Si      30.46817547      30.03798307      25.80957565
Si      29.03671970      13.89528741      34.99103584
Si      31.33560347      31.39958295      17.48196437
Si      16.33372476      34.80487407      37.33539210
Si      35.30251293      21.78226784       6.16934437
Si      23.30217943       9.20314811      34.97727104
Si      37.68097489      23.33071590      26.21609541
Si       5.96313427       9.57919118      35.72146547
Si      32.24154581      31.33276244       2.69529796
Si       6.77810020      27.15800918      28.02860745
Si      15.27182788      12.81034454      23.55421369
Si       3.85555042      14.16270829      20.52780664
Si       9.44355150       1.97538991      21.54039129
Si       8.83896832      16.87190718       6.11416975
Si      24.37288510      10.77313054       8.36434358
Si      39.29095911       5.30140617      37.22376368
Si      18.41360316      25.01818242      34.72678329
Si      17.37527658      23.46555972       2.24952446
Si      39.36942240       0.01820659      37.37609225
Si      19.09487124      31.52758420      26.81101593
Si      28.05598783      29.40919862       8.98356428
Si      23.99658058       9.12184631       1.82909919
Si      12.22487647      13.01232182      39.07411351
Si       8.62052843       1.25548354      35.42697701
Si      19.78585138       3.63380760       8.81109908
Si      38.97561418       7.37823522      15.36730605
Si      35.95937888      38.81090678      39.17645489
Si       3.01251627       1.34902439      34.67564034
Si      32.54040338      10.73148077       8.86660366
Si       1.15890186      25.11409164      18.54205918
Si      35.84553637      16.22328987      21.75444468
Si      19.97796174      15.43917978      16.02684018
Si      20.28751923      38.23482956      39.39024482
Si      15.56137378      26.36177070      33.08125634
Si       2.79437476      22.67395016      35.78697755
Si      24.33497327      24.75001959      22.70014761
Si      14.68946221       9.78666766      25.94638884
Si      21.71936785      30.62257562       6.11749268
Si      33.21057095       7.35003835       3.56565511
Si      23.48776743      25.26184981      19.04079779
Si       5.32627256      17.50119856      34.02184003
Si       1.61361768       9.48315473      12.06966118
Si       2.88192414      27.55597893      20.22834898
Si      21.84902768      19.36272264      22.24910284
Si      24.74483256       2.06359799      26.45613360
Si      34.70960348       7.64053429       8.50052237
Si       3.07419447       5.11273740       8.89072424
Si      14.01652949      14.36814747       3.55063608
Si      31.65744541      16.75845840      24.13618256
Si      16.26135107      16.64034780       5.54250952
Si      17.94215547      18.24645656      12.27905517
Si      22.52894128       2.61376673      28.74530352
Si       4.99283078      19.17244997      11.64692028
Si      18.74236802       4.62657499      28.93142484
Si       4.69354090      28.13772556      15.26558118
Si       6.42869991       0.41500433      15.03958691
Si      28.74299571      18.59563152      12.94079194
Si      30.56181511       6.86828274      36.13242166
Si       3.54293214      28.39471582      24.64377709
Si      12.03120449      28.84844667      21.90418399
Si      32.48880735      18.26352294      21.66309910
Si      25.13737926       2.71662482       4.83677577
Si       5.39059984      26.72554418      33.63844322
Si      11.60023169      28.74951808       9.91676663
Si      22.35803378      31.25056012      25.60531638
Si      32.88707644       2.38512387      17.17671803
Si      35.08386293      12.28657453      34.24778551
Si       9.95967119      21.29424395      22.89858233
Si      17.19914161      25.46740511       1.27715555
Si       7.79140359      28.88188278       7.28961784
Si      18.69462545      24.49098077      35.83225585
Si      25.72108676      17.39359293      37.15260325
Si      13.16201732      37.10473013      10.40849052
Si      18.27086748      22.58834036      31.06490363
Si      28.01631509       5.06300339       3.94725476
Si      26.42583731       0.57256569       4.96690306
Si      13.43311445      32.48499659      11.10601165
Si      15.66215817      25.05268622      35.01517449
Si      33.52341705      25.46466392      33.16144196
Si       7.10703194      11.43254521      21.95673330
Si       5.94107109      19.93300937      38.52032275
Si      19.11707212       2.85921359      29.09946735
Si      19.34984105      21.77860245      28.91519172
Si       6.93070601       6.60750110      27.22693150
Si      14.02754354      23.44550837      36.58735243
Si       5.00368489      31.18021778      27.87688665
Si      31.49314581       7.66794605       8.66587171
Si      15.68849908      37.97159070       2.64972758
Si       6.97604487       0.00737666      12.74455995
Si       8.81454578      25.92694325      19.77635123
Si      15.89623351       8.20635237       8.48531519
Si      18.56793039       8.25751789      10.32455344
Si      22.23705331      23.76917739      29.66119628
Si      22.89762904      26.44367969      29.66457772
Si       4.04657041       2.99675362      23.67761924
Si       1.86176729       2.03219321       6.70321033
Si      28.91080824      12.64944240       0.03039387
Si      22.16862824      10.09755426      10.94188224
Si      26.69545974      18.81442516       1.62400009
Si      15.53558861      14.93435941      31.78471641
Si       4.47708271      22.79885982       0.99932513
Si      35.95618357       8.37555776      31.24823174
Si      28.59323766      35.16176676      15.03916774
Si      17.21854388      33.40068291      13.29957684
Si       5.90039818      24.70508292      11.36404487
Si      13.51604489      20.70306473      18.20267609
Si      29.30044358      37.51602706      33.43887968
Si      14.58425223      28.26563024      10.11279328
Si      20.33974123       7.07738025      36.02756921
Si      11.65466347      13.55535992      35.97032368
Si      22.65153272      30.27025493      34.52155372
Si       2.52471135      23.02670821      37.25337055
Si       0.27432967      20.23324717       8.12609028
Si      18.92511511      13.69455882       8.87581204
Si      12.78517269      20.55371863      11.96315498
Si       9.35718242       5.02239785       6.86508971
Si      27.97985764      36.74577018      27.47399167
Si      33.19021560       6.61105758      27.44737766
Si      38.94873650      38.07047366       0.44807519
Si       6.17481288      14.28952758       2.90282464
Si      39.03582918       2.47659476      19.08191533
Si      38.81800178      38.15463930      21.67906607
Si      12.82671682      22.35677518       9.03620061
Si       3.45044987      27.67113546       5.63167318
Si       8.51365912      37.67260320       1.20661189
Si      30.06642348       9.29471934      23.70928718
Si       9.71013384      19.59077991      21.60397870
Si      34.41081901       4.31051036      28.60474713
Si      25.06942659      27.28685390      37.55585186
Si      29.57053921      21.03142169       2.09978562
Si      19.12289068      38.09398886      32.23240373
Si      17.12005917      24.58321803      32.38806962
Si      32.52630809       7.85085101       6.48483305
Si      25.17707566      37.56619835       2.66773901
Si      21.66509898      37.88908584      19.43472503
Si       6.41218797      16.87962509       3.25573788
Si      33.41499129      18.33923725      26.88845703
Si       9.57802220      29.68366535      14.13027225
Si      27.77839605      15.92924356      35.05050650
Si      28.32239628       3.59504196      30.43675980
Si      11.71351375       8.00592509      22.93077523
Si      17.57155866      15.40111170       0.44423091
Si      32.63279827       5.85405679       2.54051119
Si      18.93781288       3.31416242      27.24956523
Si      16.03214647      11.35889347       5.80267311
Si      35.49295685      32.74711083       5.16881069
Si      36.74769131      33.91682261       6.24357897
Si      33.53471938      26.57649448      12.42080602
Si      17.77912547      28.55243965       1.80064778
Si      10.39040716      20.40852092       5.67547107
Si      32.66255710       6.79972840       3.37766160
Si      34.64319642       5.97761943      31.71386100
Si      22.74198370      19.43355505      19.60250553
Si      33.13842838      35.82015204      23.37117759
Si      33.27910857      37.40987331      33.29776791
Si      23.11255220       3.54400058       9.94109206
Si      14.52284709       2.04283711      20.42902538
Si       9.73589546      16.70853049       7.66437901
Si      18.61425852      12.15171421      21.33027139
Si       7.00341194      38.05541718      17.55693319
Si       3.40263017      16.69946799       5.45127019
Si      23.83785878       7.56937564      35.65916172
Si       1.23345133      21.86728050      13.55649670
Si      11.06725337      36.52976478       6.12851421
Si      35.57544532      18.70944545      28.78273947
Si       8.19725265      28.54943103      24.41659080
Si      10.46587917      38.31021796      29.63149518
Si      33.12074884       1.95361190      26.18737236
Si      23.09591139      14.69998264       5.71801219
Si       9.70449552      36.68134486       7.78410692
Si       2.36470636       4.26958724      15.50400662
Si       2.82750199       1.42159892       3.59844080
Si      21.92352790      35.22561772      38.01990220
Si       4.28201386      21.51704403      29.44117833
Si       1.61051444      34.96385550      37.57681313
Si      11.70393753      38.36022520      21.54427276
Si      12.98768776       6.06144699      29.47469586
Si      17.61147136      10.68635607      29.19275930
Si      24.88478198      32.47574274      14.41111854
Si      12.12588832       5.18868615      33.59674336
Si      29.20870524       3.86868697       1.99444439
Si      13.82195321       8.10153852      14.71384635
Si      22.36132107      15.45330713      12.74607911
Si      21.16553383      30.62082131      26.30363434
Si      29.82397508      38.77725620      30.11542392
Si      10.18476991      38.24075611      26.41295544
Si      28.96530708      35.48922631      36.81608584
Si      16.54408247       5.62098467      26.05859968
Si      31.90351591       8.92055638      11.92340232
Si       2.96578563      18.83095964      39.85501887
Si       5.48681601      33.92139686      24.35640125
Si      16.14267296      32.33226738      39.59379418
Si      37.85835953      27.24175067      12.10387738
Si      39.78275910      28.30629780      38.02484318
Si       6.22990736      28.09574221      38.88293928
Si       1.92251356      19.62390811       0.80603053
Si       9.64854064      11.16006572      25.09052521
Si      21.32994281      24.80004773      16.35182244
Si      23.04795484      10.77097610      18.24431997
Si      36.14839558      17.11421556      39.88671513
Si      30.77993056      36.35041104      25.73716320
Si      34.43463446      20.24060731      17.95791050
Si      12.56513043      34.27233978      10.21101438
Si      35.68281788      33.43546913      31.20476310
Si       8.91239480      37.26230212      23.48577692
Si      21.52491018      31.69453926       1.47170406
Si      19.51519645      19.74175472       5.78904361
Si      32.97025730      16.47119114       1.34349320
Si      10.95755269      38.18555652       9.50591104
Si      20.30623093       4.74916995       3.67923207
Si      32.70525756      27.28996648      25.71602397
Si      39.47000604      28.85352838       7.42735787
Si      22.69254115      28.03019678      17.46033993
Si      39.12722335      37.89019885      22.62223620
Si      13.14272962      26.67142506      19.10189353
Si       9.75563591      19.58481259      32.14251151
Si      26.42596359      24.25676173       8.54518181
Si      34.24417343      10.33079830       8.87738725
Si      29.54229921      29.81095812       6.98246991
Si      32.74017674      28.75008954      14.10596926
Si       6.44269093       7.69878973      18.01160197
Si      14.70024594       6.30979582      20.54024174
Si      12.31500688      31.70088810      33.39713651
Si      31.50725792       1.24993872       4.08532851
Si      19.43114485      14.33290395      24.46045944
Si      22.78532565      22.72048142      11.39534235
Si       7.49295386      16.66872439       4.71901594
Si      30.82872483       4.57898710      16.71650675
Si      14.53364793       8.33781814      13.09802244
Si      28.33648772      18.34072044      13.98304882
Si      32.84334576      18.16089621       0.56257222
Si      20.17657542      37.24224891      20.13150827
Si       1.97168308      29.85536058      23.68007068
Si       5.39021444      24.92853671      27.14163442
Si      33.11851199      16.96060740      36.05246335
Si      19.56692267      28.95150239      34.03296630
Si      38.15290326      30.79172082      36.68393257
Si       7.30362607      11.73518204      20.48198642
Si      29.60388482      14.86971455      31.01100029
Si       4.43840785      25.61363414       7.46361635
Si      19.47753134      39.08065753      10.24563180
Si      22.90640070      39.69690698      28.52277264
Si       0.04067811      14.17593480      35.89753492
Si       1.51274529       6.60351490      34.38892689
Si      37.22820854      11.26359636       0.37375899
Si       0.79565026      29.26194647      15.62895606
Si       4.01746141       9.96106472      11.77186540
Si      38.01176263      33.12010369      22.10131229
Si      28.22801952      37.13989695      21.74504184
Si      18.14158171       9.12255921       4.38708729
Si       2.45271516      21.99381610      30.00687801
Si      20.58597301      25.67934208      32.97481950
Si      27.35081023      37.26726353      22.23549532
Si      20.88462046       4.37484004      28.64804140
Si      39.69280932       7.70567227       8.05389936
Si      19.02732756      34.98721269      36.79294344
Si      33.68150005       2.04800472      18.69400769
Si       8.71723987      36.93580354      20.86110414
Si       6.37819483      33.31951950      21.64437891
Si      32.67173065      30.27586830       0.31809060
Si      22.34075257      12.78467930       7.17181036
Si       9.44566472      30.71804097      37.13849484
Si      37.33022890      30.87033471      25.92185897
Si       1.35519125      20.57951395      17.08447039
Si      28.61551562      19.36133052       5.78043448
Si      23.64167401       2.93321048       7.26840774
Si      11.20555532      37.44243059       1.64993695
Si      39.36702158      33.77028859      37.30849828
Si      29.34721138      19.25785811      31.86356878
Si      39.93163939      30.74810250       1.25885752
Si      17.53611974      36.80647034      13.41373786
Si       2.12666546      22.96501079       0.05415579
Si      18.45807945       9.97615783      23.40388537
Si      12.25655450      21.94165105      29.55343868
Si       3.24401141      10.04248200       3.55317326
Si      38.86999469       5.13209229      37.63067405
Si       0.58971093      19.55223425      27.86892505
Si       3.46328831       6.87146325      28.74017959
Si       9.31984079       4.83153633      27.62082122
Si       0.89515559      16.00774595       6.66576735
Si      18.48145983      35.37096405      11.88332509
Si      15.97390077      13.27047658      16.64588066
Si      17.23277515      38.30525786      30.85545439
Si      35.13749766      27.88700880       9.37173004
Si      34.63064554      13.46961632      36.82368585
Si       8.05466510      36.81967896       8.10556549
Si      32.30604171      36.63508589      23.02220984
Si      27.23508625       1.50782505      15.90262823
Si      17.37720200      39.26584847      25.68774045
Si       5.47606955      22.13018172       2.60199448
Si      35.89334109      15.95665486      32.09253221
Si      22.44205173      25.00733015      36.93769694
Si      12.12842877       6.93947270       7.67611398
Si      33.33194735       7.87322129       1.73765739
Si       3.57442465      36.21146529      14.74439570
Si       5.03791911       4.89500273      32.15363329
Si      25.37413986      17.68891629       8.04001887
Si       7.50550903      13.90410978      38.61302334
Si       7.33554269      12.03891007      21.56686248
Si      22.29601277      12.83651286      20.48727920
Si      31.61547798      30.47844680      27.44986859
Si      36.96483483       1.30841623       6.69881465
Si       4.67011897       8.59606405      29.72704365
Si      38.37478938      15.37988293      36.84869584
Si      30.87290427       1.05372637       4.83219924
Si       5.54101794      34.80976308      10.79312604
Si      16.83081337       9.85287140      15.93785961
Si      11.66101127       5.99333756      19.91989846
Si      29.09394860      39.59824865       5.88602514
Si      12.80923813      10.97098299      34.92720497
Si       9.15413074      12.71074604      20.81144690
Si       4.08769906      39.72841242      15.44780670
Si      23.65325799      12.10582337       2.82032519
Si      25.42094129      26.01820223      32.82713222
Si      14.24927001      24.63148408      30.11182950
Si      28.79429242      35.36557883       4.49783079
Si      26.57290214       4.01399947      21.51849604
Si       3.73102513      14.33986834      23.95149799
Si      17.58302244       2.29377378      17.73753751
Si      31.19583186       3.12893810      27.40611205
Si      14.10025094       2.87846044      20.26871991
Si       3.28081808      31.48353639       8.95392698
Si      20.44371495      10.59734482      27.52216574
Si       5.38448775      37.86851454       6.08473706
Si      25.39112569      13.82798163      22.69083584
Si      33.43976354       6.50460539       1.16889999
Si      38.35027144       0.18579350      28.45998684
Si      22.91874342      29.77539455       5.44222896
Si      33.25320105      32.08554616      16.92777974
Si       6.41332762       5.01913546       1.26325258
Si       7.62900703      36.74168719      27.40136379
Si      18.90637819      14.35028837       2.72961332
Si      28.30931121      17.40224601      16.71619432
Si      12.51592749      29.80127855      11.69868568
Si      12.17644131      14.48900482       4.09151722
Si      36.67339952      29.41854012      33.04242493
Si       4.12735922      23.43898057       0.54969581
Si       2.74368329       3.54042452      18.71634461
Si      33.22469372      26.83161715      14.56078755
Si      22.48156155      36.35400764       7.85069215
Si      13.08792766      35.40480845      13.28878109
Si      12.39982499       9.53906906      21.08462488
Si      28.76468600       4.00197327       1.71147118
Si      33.61232194      30.37506990       6.01219076
Si      37.37447575      11.11892147      11.90041134
Si      27.72548466      36.53681175      23.54229558
Si      28.79549006      21.15836629      18.81647561
Si      36.60518704       9.27230947      38.13982514
Si      15.55452784      33.57540219      33.62236769
Si      24.44490827       2.42811929      35.15129863
Si      23.56508380       0.67111190       4.89505550
Si      36.48301676      39.33743955       5.64804328
Si      33.49308025       8.55517866      36.86260067
Si      12.51328657      32.40257115       7.40490609
Si      36.27391143      24.59862874      11.68205787
Si      23.61678087      39.54733102      14.84574395
Si      34.21202965      24.44112989       0.61376760
Si      23.25968247      29.47542470      23.17529147
Si      34.87953179      14.70856141      28.17767431
Si      37.38753617       8.85691427       5.27150408
Si      22.71491296      33.96072079       8.51684734
Si      37.35402666      27.81172983      28.00301379
Si      35.26305882      38.44089036       7.55190152
Si      35.20602838      24.12263039      38.22666907
Si       2.99955531      33.69882055       9.65209807
Si       6.51345741      38.13984842       0.04100105
Si      22.63032127      31.64554868      11.80784380
Si      10.70155166      14.64717643      22.24905180
Si      27.47431008       6.08337376      15.39233457
Si      16.51652782      32.46050106      36.83861773
Si      32.47967443      18.43754942      32.80369224
Si      12.68192034      33.77379165      18.19563538
Si      19.75795699       6.16288727       8.59836671
Si      24.72252022      23.46335625      17.94332000
Si      30.74233021      39.84377107      25.77789766
Si       9.29171063      22.65936365      11.16527911
Si      31.61717432       7.01114669      19.80518514
Si      20.39004241      21.17174352      29.34162145
Si       8.58393788      24.57891235      13.95581104
Si      32.27112205      25.72752099      39.00484869
Si      10.93052365       1.91176557      25.80222402
Si       9.69851885      10.35431774      37.19491059
Si       6.00385787      22.73569624       6.93568112
Si      22.52253336       2.78568726      33.58364617
Si      29.38751528      21.71859034      26.04703854
Si      38.05563608       0.72471201      21.90539270
Si       7.23696090       5.35462539      26.86061128
Si       7.89492150       2.32415471      34.21931980
Si      12.76186762      15.57185280      37.88905534
Si      32.87428224       9.53504343      24.15396817
Si      23.81029465      36.61075908      31.76251503
Si      18.84301758      36.90374823      17.51674600
Si      13.25930464      17.42715004       8.67399485
Si      19.69864565      26.50392249       4.44299800
Si      39.80799586       0.70405865       8.81771525
Si       1.58327149      39.88065432      30.17159358
Si       7.24728857      19.65066055      23.35790634
Si      36.54217667       7.35691997      22.16690162
Si      20.96237493      14.95621038      21.90076970
Si      36.87909242      27.97358680      21.12008591
Si       7.95825726       8.78631959      23.19116668
Si      20.10429964      35.10536560      26.13086449
Si      12.13886747      32.48960449      13.92689211
Si      18.62847933       7.67933432      15.23919368
Si       2.97922872      38.56307508      12.78808703
Si      15.29857794      21.08992864       8.82555581
Si      19.24084198      39.87511314      22.55968677
Si      18.41483367       3.53666472       7.34305878
Si       2.96777258      11.54684168      16.08088173
Si      28.27716950      35.24668299      18.71303924
Si      18.99374458       6.78278497      37.68545971
Si      14.37449391       9.30004707       5.86459859
Si      28.01561146      21.10148725      10.06664386
Si      23.09321437       9.36296729      35.15170654
Si       5.20335291      18.17869900      32.77745046
Si       7.98952194      33.92682064      33.93943621
Si      13.73493070      16.55039195       9.38438051
Si      11.06031526      18.57624068      17.63118243
Si       6.14978582      33.24713062      28.07947953
Si       9.38770219      29.26963235       3.53798337
Si       3.77042487      26.94417990      29.76866517
Si      14.20304905      22.85851936      32.45952764
Si      23.86606037      39.30032794       1.31151001
Si      29.79354419      16.76771482      16.92321605
Si      28.20017452      39.31680330      10.53307275
Si       2.81163340      33.52717004       9.92182216
Si      14.39392101      10.10972101       1.31941880
Si       4.20304657       3.04941160       0.52263493
Si       6.65857864      26.69496994      19.03099869
Si       1.21330406      34.31492239      38.42825739
Si      35.82195917      10.92617012      11.33326161
Si      24.88006782      29.97563368      25.61449420
Si      13.68744968      36.85059940      29.35952440
Si      28.44264665      17.55497288       9.23365720
Si      28.01739507       2.48393363      10.44342784
Si       0.74461311       4.19365969      34.82714148
Si      33.98332515       6.95975134       9.77880922
Si      14.90138252       1.26690260      11.38086181
Si       1.01453871      11.52678887       8.44573438
Si      35.34830812       9.59489418      11.96176755
Si      21.09165456      23.30763480      20.41662719
Si      16.58685041      10.37944582       7.89782751
Si      24.10582735      29.99699656       9.94768049
Si      38.42657852      39.66421697       2.47686034
Si      16.65656824      38.97702750      16.75450773
Si      32.11070787       8.72965387      11.30846086
Si      29.18280685      13.70071291      15.62621585
Si       9.10491031       0.62016235      28.03615575
Si      19.92635987       7.31878144      37.03681743
Si       1.15564216      30.19390693      16.57821585
Si      37.02468580      32.49261992       4.25513809
Si      38.84390682      11.78497138       1.18190574
Si       5.69542181      17.93979990      27.40360566
Si      15.91586922      19.89202200       7.24337371
Si      36.08228855      16.22911358      11.29709195
Si      24.81048033      21.61474064      12.45243483
Si       8.17695364      21.81704984      22.59184839
Si      37.24604842       8.43539641      14.32564646
Si      23.29213332      22.01176122      15.11041651
Si      36.23684867       2.15686957      13.18545370
Si      27.55575890       9.38226074      36.90920264
Si      10.10682277       2.23025383       8.11120437
Si      30.69751738      38.12822743      39.29380945
Si      32.08754903      21.85900539      15.11114461
Si       7.57762847      17.86217807      19.30979501
Si       2.39376620       9.77203371      38.50876977
Si      13.82558865       4.29703801       2.29800580
Si      26.51600724       5.99752699      21.74519889
Si      39.49008603      30.92930280      29.27884297
Si      39.22500028       8.22453962      12.30287492
Si      28.51876787      34.69254988      23.82490206
Si      14.44517038      17.78109478      27.24441610
Si      37.82294710       4.27207397      38.36251911
Si       4.46084703       6.95351497      17.92958786
Si       5.89428029      22.15644496      16.92975701
Si      10.94668083      34.46879048      15.66220295
Si      31.78706705      10.09593280      30.44076879
Si       2.31520628      25.94592614      28.50310924
Si      15.34049229      33.36602903      25.05550914
Si      12.09153726      31.44039131      14.13806720
Si      12.70751577      15.46587005      31.18729173
Si      29.30083744      22.37420151      38.52406556
Si      25.85556015      16.45092573      32.75704714
Si      24.98363596      31.72604437      26.91292962
Si      35.70397152      37.88504390      38.87427858
Si      30.94507653      35.45368122      11.61614990
Si      32.49454213      37.34984783      17.50666035
Si       6.75113950       9.77462656      18.61496880
Si       4.73333616      30.08727822       9.75133153
Si       3.57461615      18.78303941      14.40146481
Si       2.39143028      18.28341076       8.63762865
Si       4.44004857       3.70697360      25.92089489
Si      31.69443926       5.47171797      28.34192824
Si      26.32363070      22.04196659      21.92768244
Si      28.29727959       8.57684522      11.37800423
Si      19.89488663      28.50220882       9.33810351
Si       8.07987511      20.33722185      15.66030330
Si      38.79156441      19.10672304      29.35208439
Si       3.82340029      11.56152495      39.73075815
Si      31.61986525      32.82207812       5.28121688
Si      32.25147517      16.83252173       1.73565824
Si      15.59476650      27.29909294      17.35215276
Si      22.16371991      37.94266121       3.91570488
Si      21.59640474       7.93416058      29.47226435
Si      15.07061944      33.53140013      22.24820515
Si      22.90570597      37.94376392      29.93507260
Si       8.09055263      35.47500872      10.92288436
Si      19.22610189       9.84543377      13.75805393
Si       7.28607133      27.05050977      39.87422339
Si      31.53210296       9.22944864      23.99661779
Si      20.27100342       8.24839673      28.18760660
Si      35.75696414       2.84853811      30.03140939
Si      16.26676800      12.93635798      39.76124773
Si      12.03639463      20.92392364      24.90835674
Si      32.88907357      14.70734761      31.69041112
Si       8.80374450      38.74570090      20.41857405
Si       6.36122303      39.95152236      31.90981236
Si      24.33373138      27.32484033      29.82699488
Si       3.33255622      34.25362707       1.88314624
Si       1.72326730       0.16968869      39.53837789
Si       4.95085391      10.18795145      17.23411312
Si      21.40755042      31.11744734      27.99478344
Si      31.53834412      36.60414578       6.83655012
Si      35.14461282      18.38231830      23.13725137
Si       2.00682894      16.64532836      33.80775451
Si      15.82328889      18.81311414      38.81681707
Si      37.34025313       2.74959573      14.20119613
Si       4.76627308       4.77417562       5.39411880
Si      32.38119434      28.49863583      10.45444294
Si       4.97940769      12.34976785      16.05799649
Si      12.22592214       9.50799348      39.16387931
Si       7.77023195       3.66265718      28.58165542
Si       4.86072191       5.47691439       7.43816152
Si      23.37874517       4.34939216      21.45261200
Si      18.94803858      17.38590742       0.14348983
Si      17.81077905      28.65744623      38.74407777
Si       3.36786512      25.39572490      24.71247520
Si      36.80774299      25.23861621      21.72360787
Si      12.00383215      17.14150201      32.74844217
Si       7.28000587      37.75407033      19.98660899
Si      15.03865116      38.50477023      32.97913193
Si       3.31055024      18.96608040       0.38136004
Si      37.49088954      12.61046189      35.06099153
Si      23.85546717      19.30930954      29.20580015
Si       4.96176284      34.35595862      14.04441356
Si      18.66644916      31.63894852      18.65835743
Si      29.54123404      38.65215982      21.51238024
Si       4.85447509      11.58971119      30.01556490
Si      26.21100719       5.30050669      16.64058996
Si      13.08497286      14.61281057      15.77930524
Si      36.57795152      10.45406013      14.14250997
Si       8.21512688      21.00277647      37.52429903
Si      18.55667241       2.27423702      25.38389629
Si       4.35942953      11.43005151       1.00365647
Si      11.00315064       3.13981669      36.73114126
Si      17.16030527      30.37824254      17.39349292
Si      18.40714190      25.05410038      20.66949645
Si       1.61388674      25.63341682       4.71934354
Si      13.81924554      34.73549566      15.26630645
Si      35.50846238       7.44770820      30.43894602
Si      16.63791033      39.45099486      38.10592728
Si       9.69396251       2.96738774      22.60404095
Si      10.24342677      17.54932816      22.69826818
Si      19.97188985      15.27756078      15.17099247
Si      13.94909607      35.02633864      39.80122726
Si      15.59177860      25.17382126      22.00455743
Si      18.97713180      20.62987853      11.45538827
Si      12.21655658      21.81242830       6.35476966
Si      13.41045206      11.17841376      23.94810435
Si      26.27381021      20.06006222      38.26666068
Si      14.60239049      28.85902581       8.58308410
Si      31.41860281      32.26237824       8.74589938
Si      36.35462040      37.36639396      33.86147900
Si      18.06748663       1.19402518      16.51214041
Si      22.78042216       3.16411726      11.71075386
Si       4.48870414      13.35131258      11.58208406
Si       7.42950381       1.66411941      13.45067197
Si       1.46572337      39.52064318      37.92329522
Si      26.39073771      10.08262373      26.19433401
Si      29.05168287      24.51326637      29.93872987
Si      16.02947569      26.85885834      18.88625958
Si      16.10070849      26.50779414       7.60521736
Si      34.34613506      28.02816953      19.39938311
Si      14.37231224       8.47000319      38.63642010
Si      17.76700306      11.21214316      22.82613178
Si      18.82578488       1.84563503      14.19537988
Si      34.61315876      27.16933171      36.41799391
Si      21.18909523      23.80320537      16.56084088
Si      31.78823673      18.36566216      37.52329434
Si      28.81374384      12.11280546       3.25577057
Si      13.44460777      21.57302415      24.89598680
Si       8.66793902      34.54819866      13.85710058
Si      28.19612567       5.92629052       6.18885034
Si      13.97409597       6.83100808      35.87503685
Si      23.99805186      39.54935621      28.48534223
Si      14.41414535      18.67384819      21.09618534
Si      39.90703470      24.28639408      31.65773192
Si      14.77472936      25.23641776       9.39546057
Si      16.65133577       9.00806785      15.50227875
Si      15.39684747      14.67455321       1.15988579
Si      21.77885505      23.33638365      31.34879624
Si      22.93748841      29.44888042      33.80377514
Si       6.76410192      28.16782683      19.79252796
Si      27.48134367      17.00783762       2.96028633
Si      15.61060341      13.00711743      10.02193585
Si       1.20170684       7.91299011      38.58259490
Si       6.49715320      15.68162747      13.39441244
Si      20.05428319      19.34666099      18.75441717
Si      10.60304802       0.92854408      27.65633080
Si      10.13940526      25.18029924       2.73540890
Si      18.41616441      11.01508803      38.12931640
Si      32.16962511       6.85290556      25.98677342
Si       5.85904089      18.45331196       8.40845355
Si      17.78160565       2.21137613       4.23154535
Si      23.72090912      16.88352376      21.81488173
Si      37.09428249      11.07191521       3.03174717
Si      15.53983011      13.20462390      16.96817267
Si       2.47548445      29.85111633       6.22305892
Si      12.52308352       4.12290034      24.73638972
Si      31.50942818      25.90825036       7.60460010
Si       3.05580883       5.63589437       3.32063032
Si       6.76528252      32.34250656      18.01421036
Si       3.02568207       4.38888260      21.32396790
Si      39.07701825      34.67516201       4.47463030
Si      26.33724943      32.96237385      30.54420740
Si      10.73437003      39.93709218      10.97361592
Si      38.53431666      15.83419095      15.81222248
Si      29.22735432      26.69947568      35.32701783
Si      37.08334018      11.90070747      10.42822119
Si      33.36937659       7.58941444      12.00067905
Si      32.15560727      35.17395096       8.76520106
Si      32.10920092      22.15832589      33.07117183
Si       6.45426178       4.19219885      33.54337221
Si      17.44647134       5.88001086      31.04863678
Si      35.64863931      30.76747755       3.33246251
Si      22.47280802      28.27860105       4.81862974
Si      38.09266814       8.73574148      26.52224717
Si      14.17265743      38.45260929      20.30171661
Si      32.71314901       0.91817722      23.30018126
Si      12.52181596      25.28562223      15.63652741
Si      15.07878912      18.51912925      18.94377995
Si      29.93976123      30.66479257       9.37601625
Si      36.57278093      37.38581330      26.07766248
Si      39.78875125       7.79738719      38.48255150
Si      16.80048272       4.97888032      17.42392422
Si      31.81084870      23.71295270      39.29055469
Si      23.10575727      27.99853303      32.64532624
Si      27.12046651      10.85203790      23.53802926
Si      37.16592108      14.05251972      10.87431656
Si       1.16597514       3.17400790       7.80869029
Si       2.07892164      20.22465086      27.03188270
Si      15.63580622      28.41867684      31.65432605
Si       6.07913001      26.62981245       4.03283274
Si      15.62884042      30.92952697      14.06169713
Si      13.27404831      14.89781026      37.34309889
Si      26.35867068      26.75001644      31.92758254
Si      29.26605413      28.00549291      24.35634580
Si       9.14706341      33.85126683       4.83206040
Si      31.77811406       5.56855168      18.59910196
Si       5.93872355      30.42168835      26.06701043
Si      36.30211060      11.81059407      22.91645753
Si       9.52952288      17.55834298      22.51682104
Si      38.46379826       3.55497718      13.32638003
Si       5.09165607      13.59519185       0.37964666
Si       6.14927533      39.29904040       4.85562644
Si       1.01661970      19.30352782      35.67316891
Si      17.67870557      35.64828444      21.09038265
Si      13.10901998      32.31416745      12.95245418
Si       1.38714331      15.78783648       8.98299251
Si       3.52271282       8.45114369       3.34600268
Si      10.53331456      21.87834950      26.12431391
Si      36.29601671       4.17206173       9.98649518
Si      16.52846443      37.26536749      10.77222293
Si      19.27515809       8.71707348      38.89410591
Si      26.20195688      20.07379923      16.16162690
Si      35.54432791      39.83477488      29.13088642
Si      23.45756703      37.93819659      39.06096585
Si       4.94839587      34.85980831      29.65016366
Si      31.58170657      22.14252849      38.42608681
Si      25.69043485      22.27632669      32.69587351
Si       2.15607710      15.27596777      30.37434461
Si       1.89386205      11.11018231      19.75321775
Si      30.97900245      26.97660525      31.92462738
Si      39.43031057      24.72051698      26.08078560
Si      10.26350402      34.41441751       0.32353360
Si      26.87952354       2.43227241      23.28499014
Si      32.60226086      38.11585444      12.79851198
Si      30.03561612       2.18875704      33.77379354
Si      37.86824333      35.47559911      27.28570293
Si      20.86871336      11.68264738      10.64154867
Si       9.24552367      11.25719530      18.98277877
Si      30.18051310      29.39159745      32.07684019
Si      27.02142103      30.32242698      23.82633377
Si      11.61313025      28.12327435      39.36611169
Si      34.46664399      11.62379717      25.63274044
Si       9.32968212      13.31818546      22.44216555
Si      39.81884575      37.93087560       0.43899243
Si      35.10373197      38.19213896      32.27791910
Si      10.85174991      24.04433739      24.96594861
Si      23.36219946       8.38775435      13.76572305
Si      32.69626281      11.37683046       7.74892481
Si       8.10231958      28.74290591      38.52770069
Si       8.25090100      17.97611028      11.73481275
Si      10.19662768       0.27780965      35.59600666
Si      12.04108456      28.41597279      36.58779831
Si      17.98169345       3.03416955      38.01622846
Si      36.38774292       4.43143501      14.81442077
Si      32.89778420       6.28432376      19.89467689
Si      23.00338920      12.66219513      33.43160075
Si      22.84011173      34.02989274      28.12527711
Si      16.75764091       6.33857809      26.10823714
Si      14.36138964      19.19381441       5.08508634
Si      31.23186069      33.03267580      39.04642816
Si      24.31307674       8.85063939      36.33088916
Si       0.52724231      16.60870665      15.42846636
Si      22.28694820      13.77235417      18.15676662
Si      26.96439950      21.57108435       0.54532753
Si       6.31717165       1.06710015      38.32438296
Si      11.82382375      34.75571296      21.61167960
Si      22.43148715       7.66465072       3.42521270
Si      20.44783746       9.13941064      38.88666327
Si      29.99078773       4.02346977      13.32241660
Si      28.22966095      27.47945871      24.64765262
Si      37.93015012       2.26645832      35.22877692
Si      23.43907591      32.64469546       3.20628281
Si       4.61005557      32.41556053      28.34174979
Si      11.75668826      16.38840932      30.90036871
Si      29.93983315      29.39743081      38.41546928
Si      34.72848101      23.84639784      32.91089863
Si      30.20705626      23.17869116       7.12257978
Si      25.64164392      24.78715932       7.28869376
Si      31.56608679      31.55306170      33.12729689
Si      23.68856647      38.13913053       7.40696319
Si      36.81622676       8.43838065      14.56220194
Si       3.50948135      12.32062944       1.75607153
Si      21.78271180      17.96694612      23.68002942
Si      30.66921472       6.82630611      36.39111215
Si      10.13217450      22.17054372      38.39935782
Si      10.97112510      34.14407824      38.69250253
Si      31.23347607      37.15637326      39.25193902
Si       8.30134224      33.20915842       2.41358966
Si       9.83000444       3.49246868      31.91206560
Si       9.46366958      15.35914878       0.25351023
Si      25.68752925      23.86797938      28.07929854
Si      28.84019064       2.58033989      21.26599407
Si      31.46307828      31.36232987      28.32439297
Si      38.34362751      25.82708855      32.28487871
Si      18.13879372      20.92816095       1.31616442
Si      18.76408567       4.68662457      20.03884726
Si       8.74807199       0.33671195      21.36076744
Si      23.70194692      39.99034688      38.52145653
Si      23.46480647      26.11396874      32.85795741
Si      26.66284689       0.14934016      19.30008298
Si      27.75788901      19.39475586      23.34436516
Si      39.48831154      13.82307259       4.41932627
Si      13.93156552       4.93815710       6.19743235
Si      30.72940873      27.96643939      13.77211980
Si      29.24696727      39.63405443      38.40505859
Si      22.28043030      18.05656859      22.99414105
Si      21.84657856      10.75395141      30.97002517
Si      31.88419793      23.46112859      22.79252811
Si      34.30579640       4.92113127       6.47090850
Si      18.82481767      26.75329261      37.38218601
Si      27.55293184      15.94227314       4.35025480
Si       9.27680311      12.74464724      38.71743114
Si      37.01275963      26.90204870      35.20251225
Si      38.09329392      31.82875026      22.15999073
Si      35.86750035      21.35471469       1.14349684
Si      19.90603588      31.21729689      23.34927604
Si      28.53054588      35.54075177       3.19532224
Si       2.65793608      22.76549642      16.73802866
Si      15.31252533      10.25186900      35.22970790
Si      38.33447978      17.55203785      19.65453470
Si      15.07141001       4.93486838      23.86041335
Si      16.58019155      34.97588461       3.37765760
Si      26.30021300       2.55823856      24.38905469
Si      26.51514439      10.90843718       6.20249873
Si      12.48259249      14.27646041      34.12335704
Si       9.26429269      19.69643294      38.18080212
Si      26.19722050      31.25690384       0.22426440
Si      16.54272282       1.96997846      27.63287078
Si      38.99358363       2.11941059      26.55119104
Si      24.61736961       7.03647727      36.94226272
Si      37.28519337       7.49250128      16.69581093
Si      23.87031782      35.88348100      24.10045359
Si       2.04768964       0.23826175      37.58042908
Si      39.52026022      31.81076475      23.99504831
Si      14.02171802       0.63684336      16.27849969
Si      26.38006821      11.31433079      23.11337193
Si       0.58906113       1.91266155       2.42345975
Si      26.41714869      21.38051343       6.37803271
Si      33.72306559      28.31704426       7.90903154
Si      10.44867241      33.16600261       6.34117843
Si       1.36409396      12.16570176       4.81769130
Si      25.76943129      12.68524711      23.95826992
Si      30.76728860      12.94943890      36.96782527
Si      39.25325981      23.23502632      20.00626350
Si       3.17096186      26.15889191      39.95333462
Si      21.89365554      10.10958268       6.16170292
Si      23.35259052       0.13694804       6.38780284
Si       5.90743040      36.63475263      28.59173709
Si      31.03609588      20.05654726      28.40265313
Si      20.03751347      16.01841416       5.75520754
Si      24.36393108      18.82358264      19.64393559
Si      36.27975339      36.67807042      16.13440015
Si      14.93004783      19.21412585      14.61649077
Si      17.51028479       4.76227693       0.60377942
Si      26.63038524      19.68859177      17.87023244
Si      24.80917317       5.86616365      35.13304765
Si       2.83394333      24.92636317       5.86628221
Si      35.06985678      38.89719013      14.71837215
Si      10.66032888      36.46199644      39.43531062
Si      31.55833284      13.84139981       8.41461583
Si      29.23086135      30.17802997       3.80436233
Si      22.17232144      18.68493499      20.26291721
Si      22.42894407      22.14238344      22.28435661
Si      23.65837883       4.71043196      18.70260294
Si      27.44545786      25.81462895      33.15749560
Si      16.25354420      21.94357153       2.48511864
Si      14.44198989      25.05253756      32.85517534
Si      15.81029201      19.70963028       4.36983864
Si       2.54705387       2.83003288       8.90210278
Si       3.32359585      16.83822459       9.43140536
Si       4.27019616      11.85831081      20.75252984
Si      16.67078578      33.28428803       7.99476570
Si       1.16470069      25.34022915      35.38444353
Si      11.85537712      12.56675118      23.41143528
Si       2.76659288      22.92800984      37.42305234
Si      26.68543897      13.90448541       7.66049546
Si      18.84390267      25.18695908       0.31817902
Si      27.43914976      12.15134520       3.79623124
Si      34.44900585      12.33788932      20.69261089
Si      15.31000335      39.26221981      29.75618294
Si       7.63186944       2.46528457      22.81809525
Si      25.37698935      29.85701269      23.78045834
Si      25.01818271      31.12523961       4.11645557
Si       1.94746253      37.91910665      30.22594778
Si       4.90453928      28.75592357       7.21996926
Si       0.87804870      18.71662361      11.44354813
Si      37.99667719       0.78621717      15.52812475
Si       3.38805163       9.29378063       1.49971543
Si       4.53493632      36.16545342      11.52578192
Si      36.08253219      12.14474245      20.21506742
Si      11.79882918      36.66961677      39.28439044
Si       3.93466174      35.53879344      16.30065175
Si       9.85379513      21.34276394       9.52007823
Si       4.43132771       4.36788417       4.77873350
Si       6.19018107      28.01255919       1.66033119
Si      27.12493771       3.47409261      12.14601077
Si      16.57826053      36.13761067       8.78197801
Si      37.07285224      33.75276636      18.61432270
Si      19.58740013      11.91906288      10.46588786
Si       3.12944545       1.39907492      14.38285538
Si      33.83170592       8.24952293      30.27284262
Si       1.74109920      22.25098150      24.06652968
Si      26.10347997      14.85799775      24.83223865
Si      10.15849735      28.58264285      22.62772504
Si      17.07866530      19.69327355      36.69286892
Si      13.08190024      13.53483383      13.02066344
Si       1.49118413       2.47225753       1.07879228
Si      25.37286043      11.35514767      17.53430560
Si      34.93949150      16.25383079      32.15664413
Si      18.73632546      16.60428177      11.42592145
Si      32.94386694      15.12900785      28.76202628
Si       3.47146600       8.05009823      37.27644579
Si      39.93829913      17.69272478      36.75988616
Si      23.48344347      36.42539501      33.06843597
Si      39.04408311      21.57108571      37.69092403
Si      12.86078475      33.95559415      23.10772497
Si      34.16976002      26.90645044      11.90976820
Si      29.43476471      17.71290838       0.00947171
Si      38.35440597      38.76898777       1.55378216
Si       1.44875143       5.59498166      26.10430579
Si      14.07990452      18.55506689       4.70194138
Si      12.10716120      39.10156084      17.60733504
Si      30.37636762      24.51246588      37.85070305
Si       3.98749116       2.61570205      31.73884395
Si       7.34737453       5.74747236      19.08236931
Si      20.21614932      11.53377099      26.55422705
Si      31.70173155       1.95618295      32.76048571
Si      33.44364286      27.55885074      27.80677697
Si       7.24896941      38.60303953      38.92372355
Si      16.53756217      21.68680962      31.70132021
Si      31.34783434      27.37879409      10.32899809
Si       0.58633848      35.97109543      11.07528658
Si       9.14503917      19.07032727      18.79773725
Si      30.99213079       7.75119848      32.46920571
Si      32.17285597      10.27105473      20.53116414
Si      35.67819010      18.84242433      12.56293662
Si      19.65033698      33.79251867       7.83058780
Si      23.83136148      31.56962169      28.50217389
Si       0.75722599       7.49015154      22.26223329
Si      21.84953584       0.23148801      20.72466914
Si      13.10483733      10.90125679       0.51713237
Si      24.10491599       3.28297846      29.68115824
Si       4.05327453       4.52678816      36.49817501
Si      26.04344353      20.21267705      22.39897219
Si      12.42333393      15.21120039      28.93723068
Si      14.09908354      23.40395655      27.54262143
Si      13.61288717      25.42707861      14.19282719
Si       0.37215366       7.12313361      36.26374915
Si      13.84305240      20.86590107      32.36005453
Si      31.73564134      31.07959613      12.05657881
Si      24.91487739      30.10767434      24.27558676
Si      15.09667530      26.94267668      11.81869484
Si      23.38884728      28.62004394      21.19569589
Si      31.47761821      15.35084089      22.95420523
Si      16.80551381      38.49956844       7.68597109
Si      15.52365479      28.00273736      33.10052468
Si      32.82379785       9.63366264      27.88799448
Si       1.36256423      28.05366216      18.96259617
Si      30.42449055       5.16501646      14.89582796
Si      30.61343360       3.16104051      31.70704004
Si      10.09075665      39.83516037      32.03354451
Si      30.47292471       2.52341654      13.46706584
Si      28.44705886       6.92101029      35.39822603
Si      38.17285210       2.67051330      26.89000648
Si      37.21749597       7.21261013      12.89366232
Si      25.79426101      28.32234735      29.99288641
Si      16.60769617      11.79792748      38.85384325
Si       4.69026835      20.68588769      23.29137192
Si      26.59692710      39.63087920      26.95067066
Si      35.15462220      25.73336070      10.18853362
Si       8.89458171      38.80421642      26.25412524
Si       8.48392131      15.98105699      31.86923523
Si      23.16088791      10.55678310      31.44942301
Si       9.23543918      15.62149313       6.12184614
Si      12.99802362      31.81853862      29.61363554
Si      33.49137455       4.75872807      18.76132348
Si       7.24455607       7.61988196      15.72299831
Si       4.41575217       3.88660170      22.16449450
Si      16.22101650      28.67381597      17.85172036
Si      17.74789600      24.76521187      35.44767436
Si      27.79330819      39.45021709      30.54689059
Si      22.80364550      15.22059616      12.27686845
Si      12.17420040       6.49210998      23.25454306
Si       2.01593570      18.08392242       5.94996982
Si       6.05502766       4.86001082      32.87774249
Si       8.24150341      34.22220669      35.45843005
Si      12.16852946      16.83271163      22.12108140
Si       9.36018260      21.69861698      35.77947908
Si      16.01606857      37.17131739      12.29533727
Si      39.17928752      30.17679899      36.65230116
Si       1.57117951      18.94202445      21.66653357
Si      35.48013514      32.23795564      24.18146130
Si      35.35770604      31.06904052       6.42428832
Si      32.63800892       6.36565672      15.18354542
Si      26.92115733      28.85213294      32.14459038
Si      31.63355987      36.44071480      19.97211700
Si      27.21592834      38.81354432      13.07184565
Si       9.92709480      10.87057039      28.42299068
Si       7.64700057      30.26631167      15.91303658
Si      38.66059675      18.05193818       2.41093568
Si       8.96821277      28.48029683       9.14242364
Si      13.07427318       8.22722400      33.53710168
Si      21.97513970      30.04719831      37.75244484
Si      27.89651437      33.08536318       6.66309679
Si      20.89639049      37.39217739      12.89012410
Si       7.01116324      23.99265938      37.09790320
Si       2.58804538      29.58277481      35.16401075
Si      33.43130685      16.75996436      39.17825913
Si      37.09592552       6.08735449      25.79781100
Si      13.03287773      12.34431108      11.94790957
Si       9.27400709      28.70011853      14.69378637
Si      19.96310084      27.22420348      10.60505800
Si       1.24555644      26.92369530      15.22021947
Si       0.83827798       9.52820120       9.09828401
Si      32.69129717       4.02782695      20.75441598
Si      33.22874280      30.85789822      15.25119122
Si      37.10972751      31.32233762       3.31259532
Si      36.75877650      36.10967717      32.75474857
Si      29.56993436       5.82511128      20.05216421
Si       5.66492797      10.01818108      25.29528272
Si      31.00562111      13.26611273       6.13255422
Si      39.02556656       8.07656382       2.10277227
Si       8.60843458       6.92821875      25.71999954
Si      34.26333009      22.98404901      34.44546770
Si      24.57481021       4.29322963      14.82681804
Si      39.00702426      19.35247076       5.50491155
Si       3.40895402      24.95573450      34.65103124
Si      26.96274531      36.17828882      16.20652975
Si       7.36850722      17.05094368      23.39960040
Si      16.75893887      37.58636272      15.97408352
Si      10.24948337       8.73940642      33.63339735
Si      23.08799005      23.64584871      13.73865582
Si      23.29510354      11.45271223       0.37847894
Si      32.36771913      26.53599840      17.43805240
Si      13.83069205      18.87024140      37.78151490
Si       7.94880798      29.60243979      27.96461908
Si      29.22179653      15.21224241       3.39185023
Si      28.94094761      27.01751956      37.64249068
Si      33.96447568      27.60168018      16.08988837
Si      26.32828051      19.13687602      19.31198395
Si      17.44069022      25.23378679      15.57914538
Si       3.34513763      18.63769955      11.11781018
Si      16.95897694      15.54384571      30.68655517
Si      39.27316431       7.93777864      10.62924340
Si       2.86396930      32.61528177      16.32725761
Si       2.76511564      35.39903786      19.66863276
Si      36.85826232       7.95408834      18.62940754
Si       8.78994739      23.26555385      37.65821017
Si      29.34569410      14.22910102      21.88939102
Si       6.89465896      18.51580932      22.60630138
Si      37.52018351      30.52966817      31.70193566
Si      19.34191956      17.48433311      13.35835451
Si       2.05502804      11.61200108       8.11972077
Si      21.00413020      26.80622073      32.38683077
Si      19.08795220      38.03861178      17.96996021
Si      28.34448883       3.58164582       8.60123832
Si      22.60665248       7.76597256      31.23767896
Si      17.22205726       5.39798362      30.79798174
Si      32.70586285       2.94793689      11.09668740
Si      28.53868044      32.06596200       5.64389310
Si      37.66899141      36.73695909       9.99755212
Si      27.74488243      31.42722210       7.36951698
Si      28.79906716      37.30085596      23.19110393
Si      28.80807835      11.92080042      29.51345835
Si       0.60392938       5.32089031       8.49582494
Si      18.16248840      26.57142036       4.15220493
Si      19.02332716      25.56000783      18.64156766
Si      25.15276457      31.95721467       5.47327155
Si      35.09915311      33.08554654       8.30645759
Si      19.42328823      23.08031421      25.76756212
Si      17.72543764      10.83891662      38.27381393
Si      12.01649110      10.70570805      20.31103613
Si      25.36020983      30.68911882      28.92447043
Si      15.42419018       8.43695659       5.73553106
Si      22.17687352       2.51665285      34.24342413
Si      33.85052188      36.13882363      28.49306075
Si      18.69562009      22.52549045       8.51870271
Si      11.96239836      13.40360206      20.71549114
Si      32.67016659      37.53816692      30.44289456
Si      30.70878409      36.02208347      13.80822413
Si      21.26508634      36.85771036      34.30323871
Si      15.23555109      32.56463215      13.05752210
Si      18.13749531      39.38248270      36.89117090
Si      39.60828506      24.67932856       7.93421779
Si      16.69101522      34.29195713       9.15331827
Si       6.80562121      27.22500853       9.87079307
Si       1.11918496       4.53057224      38.64164757
Si      14.75336179      13.24975595      23.65653524
Si      24.62638754      39.90818736      12.74613565
Si      24.10349621      12.12055199      39.55895086
Si      22.29582128      11.85530331      39.67229760
Si      27.71587006      25.62029785      22.22058967
Si      32.93571601      38.14421385      25.64854124
Si      39.73506421      38.35942832       6.74269272
Si      30.55282519      36.22979682       4.64273903
Si       7.69789001       6.83276603      21.25349037
Si       3.23518804       7.40533953      10.54220621
Si      29.97694367       8.54274647      37.05947776
Si       4.27045944      25.43135774      19.35356332
Si       5.79973599      13.26771243      27.83244944
Si      23.01294203      10.41554615      19.77742768
Si       5.66110868       6.17055004      12.58284346
Si      10.26992008      13.57657692      29.98932943
Si       0.77861466      26.00812429       4.19550103
Si      39.48955208       3.89235015      23.27381900
Si      30.42192175       2.75323934      13.37171160
Si      21.78183859      33.45419161      17.33645701
Si       9.47988898      28.37992006       1.12864316
Si      28.78868584       6.25571471      19.20934280
Si      15.32098196      13.02930192      23.05204621
Si      19.01791179      34.45995823      26.85955463
Si      17.60660791       2.68470939       0.92503171
Si       4.17943946      33.71912072      10.77897943
Si      21.66589895      20.58542627      15.25561777
Si      22.38563860      32.97019496      25.02491219
Si      26.62767523      38.06648225      23.53576742
Si      12.24907755       0.51818549      10.85906602
Si      22.30882685      35.32258213       3.48513063
Si       5.98887056      16.00067075      12.16084887
Si      14.17094455      17.51534290      26.89530279
Si       8.19232428      29.44129235      21.57881416
Si       2.39348150      35.64584585      15.13504655
Si      29.95936060      26.67012033      11.10776219
Si      27.63143852       2.65467151       8.64637315
Si      36.12644365       4.01033047      28.34040935
Si      34.12034689      18.15938554       2.01106537
Si      34.28049552      28.85457012      22.03445413
Si       6.67475129      29.77117564      30.72566062
Si       9.24746768       3.54031384      31.48693437
Si      36.05451109      20.18891460       5.71368539
Si      25.77418235      19.01385421      20.33096975
Si      16.36421403       2.43002996      15.32805940
Si      12.38406897      31.05745275      37.13500392
Si      14.72000762      28.52650245       9.85087057
Si       5.00993509       1.50495375      20.90714223
Si      34.25571031      12.15834326      31.55423703
Si      28.02543046      24.88533300      24.18482062
Si       9.55035523      35.27982537      24.78185354
Si      39.94759993      25.90173042       6.07175442
Si      25.68334497       6.71007228      17.23266411
Si      17.59231182       7.05586552      33.59955925
Si       5.41266268      30.06342380      20.86646330
Si      28.54355576      19.31025668       5.91912498
Si      24.65928736      23.67789783      15.10851965
Si       9.32464889       9.73891044       2.73785099
Si      16.31596336      35.83892292      24.58230085
Si       2.01216556      21.37339911      39.57682917
Si      24.69173767      11.40797018       5.42486286
Si      26.67595697       4.70381498       4.85666546
Si      12.01211832      11.30640855      38.56642032
Si      26.60002525      14.62949435      37.49896333
Si      33.70091773      38.93993238      29.94054876
Si       4.14108561      21.85507984      15.99427076
Si      30.35748208       0.62328566      29.15234478
Si      35.62367247      36.55018310      13.75455100
Si       8.95123103      32.05768608      31.13771202
Si      18.80557048      29.93454968      28.30813788
Si       2.18184764      35.78270443      13.12596965
Si       0.97356061      28.58245958      34.71687711
Si      29.42247520      39.42155109      29.98337281
Si      15.76357767      20.95617605       1.99188171
Si      32.84904162      16.54609771      17.11281928
Si      25.80454358      14.91873172      23.84633769
Si      34.76779137      11.76114134      24.02560682
Si       9.71719108      24.50189207      36.72806250
Si      15.74681693       1.00112506       9.02793244
Si      21.43191127      14.29116989      21.46394735
Si      25.59203683       5.60760062       9.85603480
Si      21.80873033       5.76957521      28.94570099
Si      20.64228697      25.89850562       6.34289003
Si      37.44806654      39.06672459      26.19595236
Si      14.73188826      28.65475018      13.20514427
Si      26.30627064      16.90544021      25.62652430
Si      36.16230039      10.26860877      21.21633668
Si      12.51673237      36.06966311      37.96998047
Si      13.01033741      29.27449917       9.64068371
Si      20.10037338      26.59322966      28.93216551
Si      37.51397867      20.11117838      17.64755315
Si      25.96964425      17.26368143      37.27910579
Si      32.24879357      18.49708376      23.81368051
Si       7.19245215      24.43770839      37.11704114
Si      30.83622431      22.83783320      37.69613383
Si      25.00362223      32.07220453      37.04485045
Si       8.41023354      30.18208406      24.16375078
Si      35.81743329      35.11668572      35.77307517
Si       0.13743289       6.57330895      30.36925704
Si       3.43106637      33.07968345       0.70117698
Si      19.35197353      32.28119332      35.04086858
Si      15.81600951      39.39858557      23.99242271
Si      37.25303804      14.93499209      15.95755513
Si      11.99418297      27.59543993       3.57731349
Si      16.81570383      33.71724915      11.27371354
Si      16.50201031      16.29586697       4.77453454
Si       9.57773713      39.13114318      14.53361968
Si       6.88421042       6.84012826      25.33936543
Si      17.02570673       1.34480271      26.86071321
Si      25.02788061      36.85248695      13.14324891
Si      27.37956343       1.91612987      22.12925583
Si      33.79420992       5.14211152      38.83825910
Si      20.28567913       5.00060712      22.17997333
Si       9.21428109      27.77637951       9.51372402
Si      38.56929853      30.98659972      34.32716124
Si      22.28347299      36.64174677       5.28082449
Si       8.97247471      11.08725712      27.55752425
Si       9.09327040      15.90581206      25.39961776
Si       3.80535456      12.59781338      23.35050526
Si      27.50995965       5.37244999      27.58134078
Si      19.39934414      31.65310597      25.53366644
Si      29.29651822       2.58481207      25.76518975
Si       7.45805515      30.42969007       4.35685022
Si      27.35676937      39.38081659       4.74476588
Si       0.65509427      29.32671821       6.26307737
Si      14.00037789      12.10545909       0.09627822
Si      33.04375053      32.69534507      25.83646985
Si      10.94062576      34.81159741      16.75591181
Si      16.08979812      32.33327859      11.98683123
Si      19.10203988      37.72584385       7.78588692
Si       0.02774640      32.38922920       3.92512068
Si       7.18757943      11.64496549       2.54428815
Si      22.15695869      34.91926279       9.75166471
Si      18.12329359      39.61525623      39.12520159
Si       4.17805948      28.66537719      35.88482091
Si      24.42214364      37.14165341      39.15234021
Si      35.71198349      36.40269457      29.74638542
Si      15.26912530       3.28140372      21.59075858
Si      20.33259764       8.81253969      29.83375372
Si      36.94846308      19.38301468      35.10496046
Si      25.66247601      39.85863606      24.24297592
Si      33.07178371      13.62861120       5.31802652
Si      15.47559632      27.22298566      17.84085266
Si      25.91594761      20.14287709      39.72148271
Si       5.80979604       5.32561895       3.21111526
Si      15.77358989      29.45678786      31.50763270
Si      20.33170722       7.33907616       2.32857086
Si      14.26777072      21.82989177       7.41607114
Si      17.38901648      16.95526341      24.17572305
Si      26.59476729      18.37120455      11.55035388
Si      16.73122296      22.75718559      15.98453181
Si      27.61468225      17.20862916       9.46345679
Si      24.23248852      16.21210932      38.79801024
Si       1.67304992       0.30618518      23.46409114
Si      19.98132170      12.73259695      13.37656299
Si       3.85632247      16.01836733      17.40543933
Si      27.58245815      39.91148237       3.44535537
Si      11.54528174       2.30947196      17.38555854
Si      39.68160893       6.16492826      34.58385244
Si      22.18935303       6.18599795      14.15517555
Si       4.97710448      20.26034968      15.15011833
Si      35.41007246      21.96538233      12.99817986
Si       5.67721521       5.38951079      16.48906202
Si      12.38056489      31.36433621      32.24000166
Si       9.90401278      33.58551539       1.89200817
Si       4.20855214      14.46696621       4.00715205
Si      30.31762352      32.22641733      39.10365203
Si      27.50151899       6.07503098      37.01604292
Si      28.56011242      27.19516384      11.92630190
Si      12.19566563      23.84531374      32.51635752
Si      18.33331583      10.26931952      14.06607177
Si      10.17384636      34.85651643      38.67929603
Si      18.34587352      21.46074192       8.57374869
Si      22.63208389      22.48080463       4.18376910
Si      36.60900643       4.00099745      15.80856649
Si       2.35611953       5.69248943      19.32986128
Si       1.26104936      38.30965898      29.33571064
Si       1.12230516      30.46302247      34.64919168
Si       4.62264253      29.41884659      22.13369120
Si      29.76434950      13.83832051      30.12023683
Si      12.22653055      28.76082238      26.02787762
Si      16.56601410      13.53801379      22.20370713
Si      39.90428174       6.27733690      11.83669546
Si       6.97257539      19.25022417       8.33136987
Si       8.50309892      39.48306451       3.28911068
Si      26.41548044      19.12808845      37.75616534
Si      31.13845097       8.83467638      38.54371246
Si      13.39044710       0.64772937      25.91797010
Si      34.18152948      39.75925113       1.60622587
Si      36.26687454       7.30547648      30.99173052
Si      24.04583537      20.06271972       6.07066532
Si      12.61893047       5.60596432      39.08305643
Si       5.76265815      17.24981853       1.55152520
Si      23.46613979      34.51470981      29.38469053
Si       5.15419586      10.95445158      33.04157201
Si      35.20232875      21.59407461       0.58717294
Si      30.23082940       1.30753170       2.87592964
Si      27.79050505      22.00710154       8.30664758
Si      13.32953148      27.50087383      35.61015869
Si      23.62432702      11.87907364      19.48910883
Si      36.90803040      39.27548294      28.75869778
Si      32.70277084      16.02599802      16.80827443
Si      32.48210686      10.43180138      14.04143993
Si      20.88225570      15.28804949      36.08914489
Si      38.04206040      27.19784214      38.83975464
Si      19.58781007      27.78246133      33.93983941
Si      38.78419842      33.52312068      24.44640366
Si      37.94708456      38.77210585      21.21474038
Si      12.48547351      26.62475318      13.14798255
Si       7.54046269      27.69662967      16.85767528
Si      36.43714159      39.35508371       8.12251314
Si      13.08539718      14.57259977      15.03832812
Si      21.47758634      39.39389057      16.97722313
Si       8.64782140       9.67214295      28.16683073
Si       2.55817442      32.23425319      29.11983586
Si       7.82784802      14.45068188      10.28034923
Si      31.00591872      22.21514349      38.55002443
Si      25.17180331       5.42989578       8.31961022
Si      12.35538237      22.78639610      36.08577742
Si      26.32298618      36.56154804       7.78492506
Si      11.37536320      24.15030353       5.16193641
Si      25.68916441      35.53942094      33.18745858
Si      27.65950306      28.15506692      18.40284755
Si       1.54693617      32.35291169      17.92879375
Si      19.04670173      17.62550024      20.31314483
Si      25.91569483      19.68964108      17.64341104
Si      21.22266998      15.25419758      31.65767300
Si      32.97079255       4.17939698      24.64587287
Si       7.18874723       6.35242881      11.96729837
Si      16.14683796       1.09349055       9.53487873
Si       3.31212473       6.05913290      13.42491645
Si      21.59566063      35.20685753      34.87594011
Si      39.30470593      33.31157500       1.37436877
Si      37.24206115      16.02326692      35.18856665
Si      35.20654236       0.72059952      20.29250312
Si      35.93167775      26.96984798      20.05412315
Si       2.32164897      29.09629683       9.62150507
Si      36.02135288      17.36515577      10.79623825
Si      38.52957300      27.65006499       6.00521006
Si      11.22317243      11.59151641       3.72715376
Si      15.01082216       7.78773179      30.73825961
Si       9.56988163      39.47650285      16.71948844
Si      12.89961730      37.73233229      33.29868691
Si      20.49967714      12.80619003      38.19398457
Si      17.62898994      25.26765368       7.12165963
Si      33.71168376      14.92370149      33.33893022
Si       9.69538351       6.19053898       9.09280313
Si      36.76304866      24.05932936      21.55736331
Si       7.86634763      36.89597796      32.16802880
Si      20.60192264      28.03916255       4.46595630
Si      32.44887077      28.29932168       5.06060743
Si      19.08229530      38.37118004      17.41212837
Si      36.08522204      29.32417347      31.21325075
Si      39.16936055      33.11658296      31.18334769
Si      24.02177026      35.75374169       0.10466471
Si      11.55860152       9.88263686      32.11921482
Si       0.46294435      38.90663356       8.66921675
Si      21.12145134       3.24887552       5.58395883
Si      11.14594064      27.89491164       1.41048311
Si      31.04065999      17.30254726      17.47186126
Si      16.44699099       1.44305918      18.51119247
Si      37.11704593      26.19481021      22.40750414
Si      24.07159571      14.81282092       4.51246028
Si      26.41919868       6.56855199      35.47215563
Si      34.74487710       3.37325534       5.70639051
Si      30.41674546      32.49555777      38.49275703
Si      30.02083040      18.61979093      12.94039244
Si       5.72386118      10.66374856      32.16292146
Si      38.46218717      23.25985436      13.64484082
Si       3.54040131      30.87941039       3.47033778
Si      11.34121727      10.00290610      20.87368431
Si       3.33827826       9.63095089      37.60037272
Si      33.04776510       9.29385416      34.62268404
Si       1.57326627      36.26969890      28.00436573
Si      11.36258374       7.92389083      16.70981758
Si      12.50801924      37.08050321      19.89859440
Si      15.71534050      29.12997073      12.76135722
Si      20.21727726      29.81087336      13.09153205
Si      12.18341226      27.41797542      19.95126862
Si      13.17667972      30.56142187       5.82322535
Si       8.00903963      13.88132459      28.01958269
Si       4.87795491      11.19719413      22.11404726
Si       0.01190656      25.60380793      16.98373411
Si      29.39143648      32.29986957      33.99391739
Si      27.00128135      13.88106858      17.33553521
Si      38.48151639      19.37936608      31.57886339
Si      21.23573097      26.28766314      25.82615159
Si      15.79949901      14.17005743      28.79494682
Si       4.71276757      34.63216827       2.52596062
Si      21.52189870      26.17949178      10.92684100
Si      12.77775552      22.35911229      13.65228441
Si      20.88853399       7.31373995       1.89736650
Si      17.30338857      38.25102266      13.01627832
Si       9.18318678       7.95500969       8.80141285
Si      37.86253734      30.73570128      12.59241263
Si       2.78421685       1.30267154       6.98156454
Si      37.29044459       0.91021224      14.89969636
Si       4.01480759      11.82169640      31.33128623
Si      12.61247454      10.30752119      23.84819421
Si      26.84245271       9.16602554       7.78925463
Si      22.80159092      25.04100408       4.49294664
Si      27.81195660       6.25117846       4.11357107
Si      29.60998002      24.24078464      12.10900873
Si       0.26199935      11.72043321      27.62848405
Si       1.21978422      38.49307622      21.12157343
Si      28.63476422      10.85383512      16.52415667
Si       7.78353680      21.00934642      39.89373640
Si       8.86652474       8.89819433       0.46436909
Si      25.00028602       8.19506112       6.29325686
Si      10.73131272      17.32689903      11.49581102
Si       3.55372172      19.67764645      34.70470718
Si      31.59992128      25.65716823      15.15884076
Si      33.42552851      25.33365873       4.60810576
Si      31.84885219      19.42182217      18.60372977
Si       1.63579842       3.32677824      34.97856440
Si      14.87815991       9.22921769      19.71392023
Si      29.08832801       8.49209510       8.39061507
Si      34.23999196      21.59396304      13.37097319
Si      12.63470318      27.75155185      10.51230369
Si      11.74570110       2.03874414      17.43361245
Si      14.70284000       6.33202098      27.91394747
Si       4.28383705      10.60962971       7.33500436
Si      28.45582512       0.08649837      30.47705486
Si      14.39453356      19.18360725      21.79000044
Si      13.04875090      26.24597760      23.17329415
Si      28.93443822      18.11321003      20.63152109
Si      38.07183173      35.33622692      37.60018151
Si      17.91225158      29.86582771      18.53405728
Si       6.87412013       7.62240409      22.81754583
Si       4.38180803       9.21316551       3.50550808
Si       4.09858049      32.84305729      25.72172909
Si      17.06884687       8.97179892      38.17920615
Si       0.22795295      39.37290927      22.91458893
Si      20.37043472      20.12551259      23.06556252
Si      22.50480388      37.32385020      23.21588506
Si      20.06849689      12.15696978      10.86387339
Si       7.29083143      11.65452214      33.46372018
Si       1.88135929      32.42383758      10.27585914
Si      10.67327900      13.85280596      30.33405768
Si      33.40637268      25.63603078      34.81356303
Si      27.27622156      36.22644004      36.81212487
Si      37.15125579      21.70264931      10.65997437
Si      20.92777689      36.88733288       8.92229817
Si      25.16147624      17.72758467      10.60093605
Si       8.92240976      31.99954735      26.16349535
Si      11.30107621      28.96591340      35.88565953
Si      10.38548970      28.94395374      35.08603538
Si      13.41216336       2.48891678      21.86780532
Si      15.47348857      37.48544681       1.41192258
Si      10.14156420       9.81190113       7.41506657
Si      37.50838471      28.67209265      29.10292246
Si      19.30975820      32.42486360      22.37144986
Si      17.96716748      37.94047753       8.38107382
Si      33.55822165      20.52154023       0.99885574
Si       4.81128344       6.71388830      15.21732906
Si      25.57918348       8.73132605      11.95316809
Si      12.43576237      31.61745777      20.24124843
Si      11.93301780      26.49359936      17.92990485
Si      35.02237889      34.65462966      32.80512109
Si      16.36142180      32.06628252      18.07110972
Si      36.28893404      32.95335520      30.68692428
Si      24.75017138       0.86081350       5.31352313
Si      38.14778295      34.86515152       7.08932553
Si      29.75287987      25.41423679      18.66006017
Si       0.68104537       7.58806361      38.46312169
Si      30.78982747       3.04522773      12.97932363
Si      14.12039903      27.73269635      21.48403169
Si      31.81846894      33.39634960      36.04409412
Si       6.38833067      39.98503941      38.76668607
Si      11.77468934      19.11367224      12.70309195
Si      19.54664731      14.04637351      26.67627828
Si       1.56340254      17.22799499      21.09509941
Si      22.29569775       8.36892948      35.05162333
Si       0.45104702      34.08614112       0.44977628
Si      37.95882128      38.39931404      23.78734196
Si      37.08550577       3.52220747      31.09344375
Si      19.84799423      14.19336773      18.71717634
Si      10.26311977      26.11533799      26.81099644
Si       5.83468403      24.42376201      32.48269585
Si      24.21594735       1.50759856      18.61721299
Si      28.53551527       6.44853167      18.13670457
Si      38.16521658      17.66665171      31.87773281
Si      32.70737113      13.54916961      29.54525078
Si       5.55892077      10.92678484      25.71747059
Si       6.29280798      38.74404393      37.77774706
Si       8.71592004      20.83647200      22.80587788
Si      31.82791368      10.15238555      38.00417975
Si       4.93074908      31.65844952      10.64404364
Si      35.48668599       6.85209313      18.74476653
Si       5.46523670      27.45777164      16.11809908
Si      34.82841219      38.56619156      34.17031327
Si      11.41363276      31.24595191      20.14105961
Si      15.67278059      15.18956471      13.92659955
Si       8.05421441      12.33349767      31.80882644
Si       0.46005224      34.00439757      34.52916251
Si      36.52757956       0.11491553      39.60609530
Si      19.06507254      34.31293292      26.00724708
Si       7.77332353       2.69049959      22.80055148
Si       0.76062009      35.37768532      22.67632374
Si      35.58496651      30.53035604      35.31550462
Si      26.98427867      34.31453538       6.90141188
Si      21.14682946       6.50675729       2.18867237
Si       2.77593268      14.93574110      27.38196577
Si      16.15148085      13.32832264      36.11002863
Si      27.69418562       4.30093250      16.94253369
Si      24.41130369      30.71859182      15.02648365
Si      23.51907171      23.90583398      32.65818409
Si       6.17424564       8.24041035       1.30820953
Si      22.08378149      10.09654264      24.88110625
Si      36.18088497       9.81142201      38.33717379
Si      24.69498325      29.68294337      10.61954114
Si      31.31015418       0.25830225      35.81827319
Si      30.92639381      10.22047214      30.65804262
Si      39.99603337      29.68555279       1.85817780
Si      18.99610330      39.73512498      32.54896760
Si      31.03958541       5.54551089      20.63455607
Si       4.41290619      32.89616411      17.82398916
Si      34.81805680      11.67227231       8.27554456
Si      33.30218810       2.74359599      11.37188937
Si      19.95282399       0.12434885      28.91042589
Si      25.67872182      37.94805877       1.84970341
Si      22.09978947      34.66462013      23.40569510
Si      22.55554749      17.18653449      23.48194991
Si       8.74330579      32.35899544      32.01487403
Si      35.67551310      36.46733406       9.49838936
Si      27.57680387       9.12996828      15.65003454
Si      28.36125527      13.48959949      23.83778274
Si      24.60868909      10.06456988      12.19149145
Si      12.54958835       8.69985708      22.95312695
Si       8.11968537      38.45648468      16.70247050
Si      18.74520783      34.15458182      17.93699582
Si       7.23160398       5.69806229      25.89300059
Si      16.48578081      33.74397772       1.34200184
Si       7.79449576      33.22818686      24.40188334
Si      29.24810108      13.80232722       8.20577846
Si      19.65153631       0.37358120      39.32258940
Si       4.71142129      35.32028069       5.75601503
Si       9.36404499      17.34427810      15.16380808
Si      38.23026403      20.34052348       7.89983108
Si      36.57020158      30.29205684      27.02148809
Si       1.82190831       5.90352076      35.52530735
Si       0.87414601      11.80402201      12.09559823
Si      38.70390306       7.35800634      12.42193980
Si      27.96983101       9.51002171      10.26636505
Si      38.99206098      28.69223837       4.34408921
Si      30.22122672       2.64094332       3.74970438
Si      26.42688708      16.43033097      39.00510778
Si      26.70422273       6.16416108      17.06924224
Si      25.50425013      23.24319618      34.91728139
Si      34.04499924      26.05116139      17.60349405
Si      14.35477095      15.40575441      36.73027029
Si       6.29213475      23.94511636      15.93343645
Si      27.86995629       5.64183761      38.52518658
Si      36.17452903      13.85332515       8.56232791
Si       7.93656109      33.37596606       5.95172817
Si      11.20231944      22.49496292      31.74265537
Si      32.30686917      29.63485821      24.38094044
Si      14.90958619      21.20433892      25.85997690
Si       6.55590097      33.03615077      24.54179476
Si       5.07518682      32.74876029      22.07461303
Si      23.22149154       0.68175484      17.11420231
Si      14.57389868       2.01317152       4.48330001
Si      36.55071572      16.88132855      14.67881653
Si      26.93951847      31.61138162      16.73518536
Si      38.40037077       5.25541554      17.79467772
Si      35.44267793      22.85619500      28.39069864
Si       1.90102995      36.22944821       0.73905013
Si      31.16365833       9.92380608      12.78539875
Si      11.48121548       1.64496519      30.80605904
Si       4.97774113      20.27380036      37.95098538
Si      22.87501656      16.54121382      14.18553950
Si       5.17633978      20.46003123      23.39117769
Si       0.93646436       8.65418126      11.56354467
Si      29.19770915      13.93046379      17.79980363
Si      13.49929348      27.52912788      11.15892122
Si      36.18143595       1.01394943      24.06701042
Si      34.45952643      23.66586132      39.22501778
Si      29.94797620      22.85817802       0.32109221
Si      14.42947508       3.21718830      36.28408032
Si      34.47397627      12.18164768      20.55284512
Si       5.02033093      17.27432638      32.82173710
Si      32.41896154       0.90251767       3.83540127
Si      16.43473696      16.32029898      13.45436493
Si      12.84290187      19.71130399      33.38843030
Si      15.20699305       9.17943144      34.47510342
Si      35.30010919      39.76035376       6.84038093
Si      24.22434118       6.50766608      36.19323999
Si      18.83638940      38.02559471      21.15255826
Si      23.33370496      33.63880091       1.91015864
Si       0.81406938      25.76699123      22.91002388
Si      23.48645811       8.47750997      36.08550565
Si      23.15779858      16.11981358      32.92043419
Si      17.47209616      17.79302960      22.14505378
Si      10.73010057      34.36019675      13.88752632
Si      19.55999926      37.70976143      26.06138846
Si      18.65149748       3.67318416      14.03272584
Si      37.67404981      23.58876590       6.48173236
Si       2.85541553      25.35975247       4.87502557
Si      36.48198743      30.13130793      33.18433923
Si      33.97200242      25.37814806      25.16913272
Si      28.59546299      10.19521836      38.46899955
Si      10.27952053      24.57316813       6.44214660
Si      17.36511404       8.21070593      30.41705320
Si      16.98473834      15.57345192      11.70958411
Si      18.99356236      23.17568612      32.78698767
Si      39.65715049       1.61137769      25.33127638
Si       8.30632096       1.75698810      14.08716448
Si      31.37833426      30.54330980       8.36775262
Si       4.22406785      35.32925142      17.40593595
Si      14.96414277       0.05609301       0.96214246
Si      18.28617286      13.13610151      28.67099994
Si      17.54026429      16.34883192      19.73942875
Si       3.97833077       3.87421022      14.24245120
Si       0.73184574       0.55911777      27.80177345
Si       6.40894892      11.68442291      25.85395750
Si      29.84472312      28.77245769      39.90346839
Si      37.42689861       5.87238323      36.21359537
Si      29.84845846      11.48679710      24.40916279
Si      34.74637478      17.36257308      14.92511521
Si      36.87410832       7.35317134      22.65834181
Si      19.73587140      36.70952083       3.20354278
Si      37.90877401      13.36416653      14.71868941
Si      38.72157076      30.16729448      27.35928097
Si      26.48826391       1.94300548      18.11030676
Si       1.43858207      38.19732042      28.93836954
Si      18.72234243       1.45468112      16.70067881
Si       0.54022994       6.10742957       0.46792503
Si       4.06446432       7.40590805      27.17898174
Si       4.99795109      11.98196038      20.37542081
Si      28.87223179      14.33716938      29.85195778
Si      33.57481478      35.17024584      29.85057010
Si      16.87237837      38.05395243       6.18424265
Si      33.09659574      37.53327043      18.40979337
Si      16.10668361      28.65324042       9.83455851
Si      33.57277595       4.19170014       4.83759008
Si      17.87474079      35.72064080       2.97262668
Si      39.69785085       1.48715507      36.30481942
Si      15.02315755      23.13519140      23.04253378
Si      19.50402163      25.71358546      38.61872602
Si      33.86444437      35.70869511       1.33044953
Si      25.19244863      35.15058463      24.07914544
Si      24.24229628      13.89274474       6.09125719
Si      12.43002737      16.65657672      12.62457993
Si      39.58574467      29.39047036      25.45206584
Si      31.76535172      15.46697190      19.36332265
Si      29.60996408       8.36593447      19.90233891
Si      24.89691580      36.35719720      23.06146128
Si      10.88291959      11.71404217      15.22080541
Si      29.15466693      10.84357232      31.41319203
Si      10.68235614      20.10909210      26.96817759
Si       5.96107837      12.32309849      15.52085784
Si      28.17692586      18.56668070      17.83295237
Si      20.13042889      23.07259131       3.75936694
Si      38.58809492      10.16928754       1.23693218
Si      24.75201534       0.56769867      15.68720002
Si       8.10152083       4.00057266      18.59055172
Si      15.34181054      17.34340421      36.66036163
Si      36.73315848      23.80018321      21.18130268
Si      21.99379482      19.47947330       9.75280360
Si       4.98831005      17.91803542      26.63007062
Si       4.63203237       2.39743887       8.61992621
Si       3.42424379       2.52461119      20.25534047
Si      35.31141593      39.26693584       4.69652337
Si      18.52816869      11.39239284      12.90992137
Si      39.15880503      21.74303295      24.21626682
Si      18.71835357      30.63576003      11.45078105
Si      12.24022718       8.17171966      15.07401454
Si      21.59731874      28.07702355       4.54259201
Si      23.44246195       2.85642440       7.85672416
Si       0.26064596      10.20458542      19.55329655
Si      17.17343232      27.67699486       5.86570886
Si      26.76699364       1.71039974       8.81241818
Si      31.48330920      25.91805532      35.98334155
Si      15.10347227      26.60982884      23.93539618
Si      13.58281400      34.00735553      28.33412071
Si      32.02548442      13.41381110      32.20027993
Si       7.51838486      24.99350857       2.38040470
Si      33.44306169      25.71072663       9.74879340
Si      33.88480439      29.53219713       1.42932641
Si       6.70246168      16.01017595       5.85017860
Si      23.52738210      11.84135839      24.29137225
Si      32.49229523      24.87712894       8.31550524
Si      31.06432986      22.19059937      25.56846852
Si       2.04184489      22.60752674      31.72637206
Si      18.09614935      20.96408642      17.16548285
Si       9.82439104      20.91729500      26.43937534
Si      33.54755871       4.56927313       8.31512531
Si       6.60409916      38.01789593      11.17369832
Si       5.39554661      12.30018548      35.93951641
Si      35.25721011      18.63305339      14.22659410
Si      27.94721127       4.45965506      28.30867388
Si      10.07389409      37.80380895       6.58706672
Si      15.95290757      23.18892361      25.79895792
Si       3.74721651      39.30835455       8.27742684
Si       9.74886511      15.01033493      17.42871677
Si       0.01263757       5.70327233      28.79321521
Si      23.29858275       4.72355461      20.37528763
Si       8.59694579      12.44736786      36.42013262
Si      17.69307956       6.81426771       4.20351308
Si       6.32634923      25.47024731      20.97038952
Si      28.82998415      22.33691083       3.65466277
Si      32.29879371      19.98075340       2.75241213
Si       8.48866361       1.30824548      18.65308208
Si      21.30219606      29.73228383      38.29588822
Si       2.30048982      31.33235792      12.39121908
Si      26.93731963      16.90841207      21.85208195
Si      23.10143543      15.08507722      31.91731157
Si      12.22805990      29.48806589      27.53615601
Si      34.43103379      26.54275716      25.81834758
Si       9.40140581       2.39627296      17.71246200
Si       8.54261327      32.42013615      25.74513535
Si      13.72783894       2.08205471      27.71442680
Si      29.91285891      10.76161022       1.16353499
Si       9.41403491      22.42414193      36.69767197
Si      35.72172423      30.70494638      23.01761690
Si       9.71407438      12.53132617      35.72271550
Si      20.95597757      30.11445395      28.61100918
Si      10.34034003       5.95600563      28.81138049
Si       3.02198471      16.07588146       0.39539874
Si      30.16896572      10.13913509      11.72636607
Si      25.37959514      38.77786155       0.36222828
Si      13.58737372      27.15615344      14.41917327
Si       1.90436682       5.56771206      20.96911329
Si      36.43933432       3.34274414      29.80630255
Si      11.57707727      32.54080789      27.40819764
Si      16.78602031      13.48704693      21.34366145
Si      21.08496587       4.20708417       8.83288562
Si      27.19265510       0.67362087      28.90347662
Si      21.77920601      34.33188797      31.12798911
Si      38.19330068      21.91120564      30.91862129
Si      36.01262571      22.84747982       1.37127639
Si      29.83690813      33.73429608      20.89434333
Si      28.10538630      13.75079401      15.21847708
Si      38.48483948      16.93000547       9.01729988
Si       7.09811887      11.76098180      25.11444505
Si      21.16204363      16.84070116      35.20052474
Si      24.35251238      12.56129406       0.24067431
Si      36.43856064       4.70318209      36.63619035
Si      33.21319311      33.31866869      18.06585906
Si      39.91985435      26.30529186      35.21376463
Si      24.77760662      29.81889572      12.82120063
Si      38.47387590      13.52964213      14.06923791
Si      14.07597055       6.02987437       5.69295156
Si       2.55027596      32.78354669      30.26968040
Si      19.82093494      15.40808713      21.11545329
Si      22.76211660       5.50400486      30.02302789
Si      11.00895456      13.78048582       3.14462780
Si      15.05732452      15.08370946      27.85417001
Si       8.89459251       8.75421460      25.29183908
Si       7.03521997      30.27375460      29.40762657
Si       4.32652218      33.33407997      36.61857122
Si      11.24653997      30.48507093       6.19168253
Si      15.66340539      25.62697271      34.35960638
Si      17.22694787      39.73903044      27.46528211
Si       0.45908828      39.27676721      35.23131674
Si      20.21179205      26.65527526      17.71696115
Si       1.05115567      16.49951465       9.50353688
Si      13.78613141       6.77859883      12.44527585
Si       6.42124715       7.56698262       2.69494020
Si      33.65935455      18.48816959      23.59277282
Si       8.92763782      39.53838366      35.93592264
Si      32.43453598       9.59424218       6.77907015
Si      32.23688271      22.76476575      38.80570386
Si       7.19828927      37.22891682      39.68806695
Si       1.56009461      18.60557732      32.65062739
Si       9.76500802       7.47828328      18.41309476
Si       8.66938198      38.85040654      17.32878454
Si       6.50756923      31.87285753      38.03474899
Si      34.57755357      11.83376724      28.71533116
Si      15.66402995      31.66271246      11.64990745
Si      21.69693413       9.83194456       3.97574805
Si      14.81431761       1.47106758      38.60266193
Si      27.70543313       3.72806072      35.66306189
Si      35.30838549       4.72947476      33.18580199
Si       3.77757411      30.40552354       3.57679149
Si       2.95692254      24.74844384      27.29115285
Si      18.40026137      11.15969918      12.19924371
Si      37.47806510      20.65881432      31.14996587
Si      37.36626450      11.94485338       2.49230418
Si      20.04701626       0.05125133      26.84962454
Si      14.38793135       4.89310787       3.32497340
Si      38.38007094      34.87863224       2.00059699
Si       5.23305991       9.77847596      13.86346009
Si      39.96084389      10.05406510       0.62097023
Si      10.52487123      35.16573370      24.44419399
Si      26.91528241      26.96135335      11.18645798
Si      30.17290282       8.52337693      31.29521625
Si      20.68211772       9.15136433      19.43936415
Si      23.91596068      12.90684320      27.26088801
Si       7.60878950      32.47392049      10.60049470
Si      26.53396963      21.35573950      37.24696025
Si      34.61072897      32.67347751      14.16743855
Si       6.90660986      36.49092573      13.63900367
Si      31.75256646      21.55035468      27.66828982
Si      27.39109051      14.06116110      36.69353609
Si      19.63876350      19.33221911      38.24645143
Si      35.72153100      18.27176741      13.05850157
Si      21.13584505       9.83856833      37.47686190
Si      36.58125180      27.26480652      18.90847758
Si      32.84135108      18.72237998      32.23111903
Si      31.92673784       6.78346018       8.39154822
Si      34.61682615       4.94107988       6.04087131
Si      17.99590760      18.03639954       2.54923224
Si      30.12254605       5.49156004      21.75776931
Si      10.48465344      29.75785462      17.28697876
Si      20.74772270      39.81581024      29.09671407
Si      21.62278264      15.68204985      30.77645610
Si      32.36544274      22.24655423      31.19296004
Si      20.22276615       6.65673907      22.36094752
Si      20.10245952      35.80423277      10.60894649
Si      36.79005205      34.91194662      22.60954443
Si      10.85666967       9.64424724      34.30140653
Si      11.91108635      35.09356359      16.02363316
Si      22.56486143      21.92837049      31.28400316
Si      29.50095113      26.86468240       9.63091612
Si      12.10071321       3.58844903      39.20439602
Si      30.73169636      29.57923754      23.20683423
Si      38.37603413       1.50013277      16.73266677
Si      38.67888424      27.82952135       9.37539776
Si      13.21954021      29.14553999      19.97280733
Si      37.06313005       8.65140340       9.98478007
Si      34.59486096       4.85612799      15.22777698
Si       5.63849997      35.47862089       8.83487723
Si      20.18316430      11.08212246      13.85313152
Si      20.36694914       1.56151445      20.18659550
Si       1.01217595       9.59451299      38.03274310
Si      32.33827925      29.86007955      12.80563800
Si      18.93708447      12.48988732      31.08752726
Si      21.56642768       3.82437279       4.31926369
Si      27.82836952       6.32386479      17.04330029
Si      36.37516993      25.59036406      18.87684206
Si       7.09948825      32.00714105       4.58809021
Si      11.92447080      17.19731459      29.35888820
Si       2.13318731       3.33605660      35.44990864
Si      21.41413783      29.79645884      19.40447044
3068
Lattice="40.0 0.0 0.0 0.0 40.0 0.0 0.0 0.0 40.0" Properties=species:S:1:pos:R:3 relative_density=0.96 cell_dim_angstroms="_JSON [40.0, 40.0, 40.0]" pbc="T T T"
Si       5.33571875      16.83982323      10.18914503
Si       2.66199371       5.73765521       4.81417359
Si      29.64206475      34.74030482      10.09008403
Si      16.11823779      35.56733936      13.49241604
Si      24.92792969      27.92528845      23.87923161
Si      39.12741768       2.62565769       4.40253832
Si      38.98006473      22.71895318      15.69358809
Si      37.68110507      36.67266198      35.96213327
Si       0.65647098      16.10651288      32.87638269
Si      17.42031157      27.69862539      32.97548937
Si      27.08075060      10.85232892      29.05856540
Si      38.86410350      17.32279947      12.47941078
Si      25.76633155       9.94348498      13.69753592
Si      15.01005861      33.45797984      29.93902561
Si      33.45533590       0.27145809       7.62839818
Si      37.40362337      23.78075975      37.69967232
Si      15.91017802       8.68438376      25.86089800
Si       8.18062503      11.40843746      16.47304427
Si      29.75096164      21.63598901      22.45282035
Si      19.18082091      37.82248096      40.85807523
Si      20.16553796      21.52536271      -0.03858278
Si      30.45801568      27.96014642       3.04310734
Si       5.20704579       2.28361670      17.19892749
Si      22.13495252       3.35983758      38.26197065
Si       2.18856960       6.61388551      31.50998179
Si      26.54473230      34.00461873      36.85038262
Si      39.39924788      24.26473404      22.80944340
Si       0.19010837      19.37470894      10.45408644
Si       2.90891787      25.06960567       2.08836735
Si      25.01692929      38.30136176      16.82168127
Si      26.24615819       0.31248432      14.19381972
Si       4.83708851       9.63029476       0.55677047
Si      19.61480903      31.83168781      29.79727264
Si      39.32600545      35.27465095      28.69942611
Si      30.83829933      23.52675132       1.69199381
Si      31.15084518      25.05423000      36.65625271
Si       7.45500190      37.36684267       6.09108837
Si       2.53458601      25.61452090      13.01672135
Si      20.78027728      14.88217564       7.03430312
Si      34.35666275      31.80691992      11.78463434
Si      13.02223295      29.91830587      18.28003834
Si      27.39250038      36.57460929      33.20844810
Si      23.78819711      31.48329300       7.46003260
Si      33.90860062       9.35430537      16.60447032
Si      24.73859161      12.66810888      32.59132903
Si      23.92308793      38.02375560      11.16035864
Si      27.36135603       6.48383837       7.35916081
Si      20.52607877      35.76230428      18.41084136
Si      22.30827002      38.49778980       8.39757340
Si      34.02529287      30.63708242      26.52971640
Si      15.30138521      35.04833812      38.17046070
Si      15.29608465      17.24307237      29.74649647
Si      20.17441716       8.87733181      35.38727692
Si      26.65594019      17.90601104      16.83361961
Si      24.34065294      12.05217058      25.46027955
Si       4.58620910      14.63788822      32.09302989
Si       5.64105679      28.42950218      28.61233648
Si      29.33779768       1.29955002      32.86944902
Si      10.38948880       6.89406878       4.13831553
Si      23.64686440      27.74468910      25.84385278
Si      36.93365687      15.45307564       4.14516324
Si      11.61657558       8.22087139      28.72097365
Si      30.27382219      19.99802365      10.22351095
Si      18.69520512      26.89471957       6.82239832
Si      21.07654429       9.23092871      31.42944258
Si      19.88962195      19.95765711      20.52630137
Si      13.77613564      33.48856180       1.61174853
Si      10.56731519      12.28920891       7.93882668
Si      27.43216268       0.50309844      25.16812624
Si      29.40315982      11.96918764      10.45761862
Si      17.95215381      13.38828451      10.68369660
Si      24.92943149      11.30783977      28.22527043
Si      14.33848908      33.01166991      37.49633928
Si      30.11500936      14.71093103      24.62364444
Si      31.19460315      14.69188585      21.24992357
Si       4.73196174      18.88164689      16.52009291
Si      10.86707491       9.04393239       4.96250604
Si       3.92688800       0.81436349       4.99831541
Si      38.85764782       6.04900178      15.64061856
Si      39.48162200      16.11056969      34.91310613
Si      10.65604193      37.85180981      18.00842413
Si      26.75082829      12.41135425       8.74523867
Si       8.27807211       9.51492669      21.35191741
Si      22.41099783      27.89448409      15.56490574
Si       5.85712300      24.50284692       4.48453422
Si      37.73945149      29.93890994      23.29645080
Si       4.40115213      19.37708422       6.62721350
Si      38.42763241      17.11302402      26.45844523
Si       4.55026317      17.03546596       6.79523154
Si      23.04774635      39.11798537      17.81497753
Si      28.52773665       3.74668403      10.25291066
Si       4.89264464       7.55636793       7.20189920
Si      25.87996668      17.91185300      23.37291152
Si      25.03814434      13.80864139      34.62600369
Si      20.42377676      35.23094305      31.85916559
Si      28.39604058      20.72109312      33.12696115
Si      27.30168568      29.73793215       2.11306889
Si      15.67036335      26.35945102       2.96947868
Si      20.18202411      22.06752585       9.90091457
Si      11.88715937      29.50098486       3.13971734
Si      -0.28183451      37.47090656      27.95597481
Si      21.72234249      30.69555657      10.54381920
Si      27.73969872      24.21461146      12.10607847
Si      11.64297120      19.42353795       3.51185420
Si      28.68226868      37.28807500      36.04058434
Si      23.58698116       8.14782488       0.31280494
Si      21.40302725       9.74743857      12.13581850
Si      25.67424974       5.06509777      23.61143013
Si      30.25443368       1.34834007      22.69399906
Si      28.88856887      16.92775904      11.81355054
Si       5.74280035      38.52757723      16.21302590
Si       7.79572743       1.99750968       9.35676625
Si      33.16926693       8.17639648      26.35265062
Si      37.05241517      14.99441485      20.95279356
Si       5.94817129       8.87617581      15.70411498
Si      27.29964095      19.32731279      34.67166629
Si      29.19919005      22.90331654      17.74917154
Si      22.32586113      17.49246663      17.85019599
Si      12.85526374       6.75746615      37.97526102
Si       1.47615917       2.71724692       4.43638159
Si      15.89229558      20.40100848      12.25550213
Si      29.13227800      14.10706671       5.13376485
Si      16.64087925      17.99305990      20.45864892
Si      11.26785593      16.15972063      13.85770435
Si       6.92068084      14.57940300      25.88714501
Si      38.96016092      20.03447431      20.16620687
Si      11.56932365      16.53048928      35.91407789
Si       7.80745725      18.45686574      37.29299839
Si      28.62091866      24.00918008      21.66989255
Si       0.07611171      22.55096059      13.61968299
Si       5.76969653      16.00016099      19.47179540
Si      28.65845976      24.06811253       9.80512222
Si      23.17626132      19.50888400      17.00868907
Si      24.51629603      18.04135448      26.42513208
Si      36.34585699      21.86129223      25.98454444
Si      11.03122042      13.15117940       5.80168087
Si      24.43849966      12.31838291       9.16269752
Si      38.44888808      13.63581680       9.52965515
Si      11.71134597      25.14606404      21.13266550
Si      22.79806235      13.15197599      37.44132601
Si      12.90724760       2.41124978      24.15061060
Si      36.86570563       7.05729394       6.37173879
Si       0.54675394      35.65995905      20.82949439
Si      30.60507333      39.56032161      31.92341104
Si      25.36486350      11.44799298       3.03037827
Si      12.63029525       1.23257458      33.11671758
Si      29.82916010      26.58468904      22.44197779
Si      24.87926934      19.40099076       2.75413930
Si      39.32626949       7.69427742       1.07792017
Si      20.75588268       4.83639755      15.24154653
Si      32.09176388      16.47276503       9.47173983
Si      20.88360140       7.39636902      13.79384109
Si      39.19087533       9.56988940      32.22490488
Si      37.03344174      39.77661179       0.80023995
Si       0.40751938       5.71768839      23.95477226
Si      20.85065945      33.62822553       2.37049393
Si      17.49383619      31.52952723      25.77155358
Si      13.77237611       7.98685104      16.73100824
Si       6.26634342       7.46620808      32.70272106
Si       2.12961847      33.93168208       5.43837841
Si       6.36962288       3.99811776      12.99387227
Si      21.42456626      18.49282761      34.56242955
Si      25.23117485      13.92979767      17.68587973
Si       9.33796196      27.71543139      20.82275665
Si      25.73372031       0.59993475      34.96449619
Si      35.78698285      28.50680339       3.37143669
Si      13.91800100      10.94338459      16.97223581
Si       3.17248362       9.91984488      18.04704185
Si      35.50533692      33.10242340      26.17883832
Si       0.62606027      19.93812351      37.54643342
Si      10.24909697       1.31216090      12.88234166
Si      17.09343581      37.78217980      39.77617362
Si       3.57423045      24.54528727      16.03544960
Si      27.43864968      36.49094212      30.33471322
Si      18.35464863       2.14750862      36.47963306
Si      37.48106876      24.90505842      35.52341349
Si      14.16969710      13.52790832      38.65557703
Si      13.93630861      18.42645800      12.68813951
Si       8.65385700      17.54353339      30.10144620
Si      28.81654997       1.05166550      13.52768318
Si      32.06100851      33.14879652      13.22098184
Si      31.33507590      29.44108083      14.20995783
Si      21.63298332       6.48084299       0.22960516
Si       8.55627513      23.10650185      31.02043810
Si      36.13637952      35.61441466       1.94998278
Si      34.59879435       4.23635589       2.88762717
Si      12.72004249      12.17003125      33.76953677
Si      15.34072150      11.07007481      21.18568364
Si      38.20683909      11.70339979      32.31249639
Si      28.92042540      18.61806958      29.68607368
Si      19.77042621      27.64561820      14.38865742
Si      18.86411945       7.61035862      12.60851536
Si      40.16743876      23.60563737      24.93297634
Si      12.41713574      24.03104854       9.81994968
Si      14.48089045      39.21135034      31.23250032
Si      16.97229033      22.36133969      12.97728866
Si      28.78835649      12.05945938      33.68983867
Si      37.64482794      26.44058130       8.21926383
Si      17.05405068      12.13663943      14.68998751
Si       6.57492580      24.04631073      13.03200507
Si       6.58406967      37.13971479       2.12570042
Si      40.27748095       3.89556858      17.79844341
Si      19.42904980      29.65121005      36.57934561
Si      15.42248937      28.23305437       0.99160940
Si       1.24694417      12.93551263      15.44623433
Si      15.29063760      16.76280168      24.74260702
Si       8.99487514      14.83528959      13.85646257
Si      39.68286367       6.25845485       2.89226287
Si       6.47659638      28.55206607       6.18584776
Si      23.80188165      27.30166908      10.80056236
Si      33.02776182      37.98998108      10.23768342
Si      14.47638839      21.73142292      13.58113193
Si      34.86058680      39.35772054      18.79355855
Si      27.40206945       1.90278442      27.06484158
Si       7.46195320      16.33672308      40.70067800
Si       7.61978316      31.74380432       2.34019190
Si      33.59416374       3.64095127       0.48746059
Si       3.24201258      28.87265369      13.57219333
Si       6.44757755      28.96279357      26.47594856
Si       3.67886039      23.15650876      18.82125274
Si      35.35746512      34.74185477      16.97913059
Si      22.51508408      16.31424250       7.71853175
Si      28.38025898      26.97559589       2.54837882
Si      33.04318703      36.17432812      15.82326191
Si      13.01824549       8.32170382      31.33245851
Si       7.21600289      33.80682232      13.10227640
Si       7.34437365      39.07845187      34.08686226
Si      13.90994876       8.95931665      27.60951503
Si      23.99465734      33.09447759      23.94961998
Si      15.82722855      17.31516980      11.84007728
Si       9.03861181      13.85736789      26.62078873
Si      40.02081560      35.16677092       7.98741362
Si      31.59998118       4.93547973      35.16858715
Si      10.98307518      18.97544770       6.26462899
Si      19.81565232      38.76389013      34.55450700
Si      16.05680768       3.49045765      24.04807876
Si      29.67485600      35.79086908      30.12733693
Si      35.34594514      29.84744071      14.77087804
Si      38.78396951      11.35181726      18.56082187
Si      24.64659640      24.42184511      26.88382243
Si      22.90363137       5.27478816      32.55435767
Si      28.84044704       5.98317524      26.46946196
Si       9.05895458      21.14419656      18.65506573
Si       6.84480247      17.06701427      11.97716869
Si      29.65678658       2.29815517      11.71978148
Si       0.54150033      25.59191762      37.06653219
Si      20.70613729      37.07407056      24.23848107
Si      33.21111754      20.01211809      34.64918261
Si       3.75331082      19.47270143      12.45371538
Si       9.60199703      22.73520902       4.04013791
Si      35.78926570      13.74466004       3.00394346
Si       8.90197872      13.85723585      15.99319835
Si      -0.21692420       7.54907085      20.70952528
Si      11.28975901      14.46250166      26.31535549
Si      30.26298399      20.86614262      17.24812012
Si      17.37346737      11.59108010      40.12009651
Si       4.89326739      32.31811613      12.55310130
Si      34.21499947      37.09392209      24.63822405
Si      33.72629357      34.76601199      12.84425119
Si       3.97933331      38.21260475      29.23002515
Si      34.70834372       0.21166876      31.28533981
Si      30.95477383      29.69165241      39.36264942
Si      36.59037437      34.89975445      14.98433952
Si       7.03908613      18.64167222       0.86064335
Si      24.16349200      14.35107235       0.06795805
Si      37.56795131      17.12650655      33.99850104
Si      21.90404154      14.48293943       9.06136980
Si      28.31189644       7.64517622      37.72496988
Si      33.75142973      21.66753167      29.04846563
Si       9.09097330      19.67504765      29.20870176
Si       9.94299954      15.44542691      37.21667965
Si      17.28861345       5.00287212      13.54555580
Si       9.23651124       0.30360484      38.17249521
Si      16.28854666      18.15503773       1.35655824
Si      14.94784233       2.97346943       2.31498951
Si      22.29260817      36.58997288      10.25295841
Si      21.09620608      16.52523521      25.81806892
Si      36.60847821       5.68550694      23.88577605
Si      34.83575412      24.29000308      13.42342014
Si       2.59103171      21.63526832      20.70145488
Si      16.18571947      13.63253529       2.83033642
Si      13.82896058      22.07679555      38.82969412
Si      32.62160403      13.22466572      34.35990734
Si      16.96687759      12.23605846      18.52158105
Si      14.30032406      12.70703099      32.11417273
Si      23.26552321      39.14658363      26.04021633
Si      38.82983066      20.94067859      22.33172882
Si      39.44311623      34.63970166      12.21037410
Si      14.60372978      30.59320822      21.45010872
Si       1.67875439      39.44650259      19.95100657
Si       8.86048678      27.68309490      32.43718546
Si      13.36357805      29.05342429      10.99604669
Si      32.05277102      19.88548791      12.26116854
Si       0.11098012      13.16453836       2.95290136
Si      15.71276466      22.73976319      28.14873778
Si      15.16859239      23.60140553      19.70097205
Si      31.46594597      23.33041437      17.30226976
Si      25.52801371      11.59106050      36.35026629
Si      36.66683603       9.43893805      28.52862256
Si       5.51535556      25.75981592      39.78675368
Si      26.90880508      21.34841969      14.06937441
Si      40.42787491      15.08157611      14.94383585
Si      20.14274533      30.25071002       3.76829407
Si      11.06887170      22.59424667       8.06280346
Si      21.42033377      25.13924591       9.56250530
Si      10.22279316      25.80309531      17.15672337
Si      15.02748362      37.22384262      24.61645283
Si       9.71420152       8.92583812      23.73692142
Si      23.09827378       6.11426236       4.82559907
Si      11.64113101      36.22101991      31.56888077
Si      35.97706372      26.15736505      32.04735023
Si      39.42266772      31.68383874      11.06314286
Si       2.33505187      31.61886730      37.92243103
Si      12.92942865      25.68977996       8.22999646
Si      26.00786478       3.00515228       6.03836996
Si      32.99298355      24.37579517      29.39305565
Si      14.70434150      34.68177091      11.83109969
Si       5.62649053       6.79902752       5.09974081
Si      28.08261936      39.70072660      21.13124682
Si      10.41307771       1.25767487      31.96430887
Si       7.31571361      28.89938329      11.47831603
Si      29.88265420      25.05630939      17.09374735
Si      10.48623432      23.52482750      27.82986207
Si       1.24482981      12.26606047      30.39231477
Si      11.11105566      28.80547683      15.91807140
Si      26.92251408      37.16428415       6.24280403
Si      37.60194914      35.47146677      20.19633589
Si       2.26686441      31.87129112      22.94517773
Si      13.14890238       1.33469978      15.03553992
Si       2.96295577      17.94506248       2.56481673
Si      26.68853086      25.34924345       9.71600478
Si      25.25135947       7.05828689       4.76539687
Si      14.66549876       6.73919637      18.50963505
Si      23.23593721      18.85358589      21.09056929
Si      33.62552639      38.70844380       2.79544607
Si      25.05889876       0.41405217      21.04861522
Si      15.87718622       0.52522150      36.69223876
Si      15.57204384      20.17259394      30.40184341
Si      23.97904173      34.92962101       2.90887852
Si       1.25674341       8.08128919      24.92433432
Si      24.90233924       7.04758048       2.24577206
Si      21.01246151      36.32346826       6.74924815
Si      17.33222497      33.41967948      32.49902882
Si      24.71135413      29.88514165      17.37606126
Si      30.61383526       5.02750729       4.53192359
Si      22.49201015      32.85645133      35.83136443
Si      18.02522618      21.46985160      38.98848913
Si      37.00941457      20.43974507      12.45897097
Si      10.49221467      13.63197616       1.47917293
Si       5.98135776      20.30661518      17.91246165
Si      11.34307882      20.41549633      12.02265009
Si      38.90799413       4.27040418      10.78436556
Si      34.35641873      16.07619156       8.98885737
Si      33.04627278      35.63530264       4.72528076
Si      37.82050747      14.64955333      33.22977325
Si      32.61778449      12.58151748      19.59046088
Si      14.08335721      19.34215508      10.13447532
Si      11.78640000       2.45482366       4.71919165
Si      31.28506096      18.03544173      11.03056072
Si       3.31558244      22.16607546      27.60842416
Si      11.32142986      14.58008092      23.96925486
Si      25.40217899       5.29433158      19.23259151
Si      20.43911602      15.92670888      28.44586052
Si      25.60677378      21.96671148      23.21955759
Si      36.13758488       9.76985453      33.30183514
Si      17.83293030      13.54633382      30.26942793
Si      33.44534176      23.75945489      36.40799659
Si      10.06834930       2.39385238      23.97619537
Si      18.41787024       2.72428389      33.55347540
Si      34.23423496      19.82802446      13.13287054
Si       3.36401926      34.30735169      37.77330254
Si      27.39462902      16.52151905       7.33001524
Si      15.90088489       5.88067783      37.37732614
Si       3.42968633       1.05087753       0.75921108
Si      22.89535953      18.89956869      14.14740723
Si      11.70134253       8.17923395      19.87053117
Si       2.09918166      37.10413973      35.60029030
Si      14.70125812      30.34174930      12.43267266
Si       6.69049770       4.42767637      21.70643306
Si       3.22959217      33.53548178      31.96197158
Si      38.05710714      37.76711048      17.25304473
Si      33.26428700      26.18460888       8.23845274
Si      20.27073413      10.63946243       5.60129955
Si      29.92444895      25.04902617      13.77277232
Si      24.43057824       8.66601834      21.32539023
Si      13.92138707       3.69543755      33.76460140
Si      38.23825334      15.08655981      11.37815933
Si       3.33733819      19.61185283      29.38494966
Si      10.55121389      38.23396781      24.37967533
Si      38.04302148      36.81811892      26.44094150
Si       9.37356911      26.19924239      13.39096093
Si      20.39403652      15.45729010       0.69694509
Si      15.76988322       2.82549269      37.16735746
Si      11.05513904       1.22646569      16.09094540
Si      29.26797006      38.09706793      16.33210967
Si      14.57284373       3.45343481      39.74535329
Si       0.87314830       1.32111334       0.18151710
Si      26.70667265      10.47232363      34.45994265
Si      30.42235981      31.53824226       6.72642526
Si      27.48762451      38.91286831      32.99562543
Si       7.99684285       2.42556735      20.48308258
Si       8.74029959       0.81309842       6.76941908
Si      14.80508067      26.79318490       6.22366448
Si       8.44137556       7.61576699      31.82056894
Si       8.43314680       4.74968683      33.82163285
Si      27.88199344       5.36647127      11.82430689
Si      37.67980330       8.01059595      33.12238200
Si      19.79926715      31.67953389      12.67938172
Si      15.47434306       4.64579122      27.73873593
Si      38.64271383      14.07784980      16.09991973
Si      29.31618384      26.96501016      30.64836514
Si       6.52045256      33.23866485      36.41585600
Si      26.81685342       0.60856521      22.89996249
Si      18.63005602      37.03531500      22.69060229
Si      19.09620569      18.23334421      10.48965261
Si      38.87910133      25.80504376      28.69772454
Si      25.00302245       6.93927498      27.51619373
Si       8.55957915       5.83881251      16.89392517
Si      20.38093488      21.60968867      37.41998637
Si      13.10182758      28.86290505      13.32337115
Si      31.67198974      25.80843668      18.42193389
Si      15.89638504      18.13185519      22.90513116
Si      33.69571351       9.25170139      12.85015758
Si      29.04287751      16.23121856      26.06146582
Si      39.36701732      20.72025417      34.19747126
Si       0.98192063      25.79586640      25.15400798
Si      21.24318543       2.63498390       9.94629073
Si      23.28354491       1.86245309      20.52053735
Si      21.89744576      39.69770522      38.12073084
Si      22.85214786      36.99007458      25.19680923
Si      23.62597504      15.93162437      30.55069126
Si       6.01470484       8.28363236      26.56018282
Si      29.78591049       3.13238386      40.00433583
Si      31.70107107       8.22080883      30.07612114
Si       6.82495865      31.16544442      11.86724655
Si       7.87498458      15.27637156      23.11383772
Si      23.76323859      13.74584902      29.69418826
Si      19.29820288      17.55703939      27.19253652
Si      28.91161730      38.59325435       2.54314688
Si      39.18542129       8.58283436       5.33085500
Si      27.24357134       8.93533613      25.54879571
Si      18.49830651      39.31919163      30.61499672
Si      18.53750636      26.95051152       2.02795835
Si      20.95357014      32.74270980      20.14572723
Si      17.50870000       9.95326858      18.68547146
Si      31.23319628      28.66933771       6.05110403
Si      13.06859234      16.53005982      16.79068711
Si      37.55024365      33.00281456      10.53519592
Si      25.70521697       9.35941002      18.02555921
Si      24.15293671      15.92809631      20.12590944
Si      20.74901345       5.39797291      10.65356432
Si      23.46773674      23.66371379      37.46989304
Si       1.35351934      37.16019330       5.08922513
Si      29.11600764      16.53385236      39.27236001
Si       8.49935176       1.41318460      22.54082996
Si      29.20122908      32.78463279      35.70841998
Si      28.12502846      39.85530025       0.72048710
Si      13.50499459       4.44349534      29.00527351
Si      19.07597252      22.48909352      11.93342633
Si      35.38859811      19.02064522       0.00375637
Si       7.34366310      23.97175491      25.40738127
Si      30.84037006       8.56365778       4.51015864
Si      17.13108126       3.30133829      26.12757123
Si      34.27182586      16.55944417       2.66953608
Si      36.74228684      38.29853916      13.25838970
Si      29.13452223       7.13159287      31.45026000
Si       3.73465518      28.14396780      11.13290101
Si      20.32335164      25.24754171      34.80231735
Si      18.45618486      19.61247512       7.37151054
Si      14.54609264      19.82937159      16.79305348
Si      21.58097765      39.74875638       3.55003153
Si      18.88675474       0.25391460       4.74301065
Si      10.58489382      37.74510784      34.33549785
Si       0.65658153      29.43556449       4.63914071
Si      21.34925518      14.87341330      33.68383562
Si      19.65042830      29.55540976      29.20852363
Si      36.49673107      27.69233524      25.87257826
Si      15.42901051      21.40938298       5.52133555
Si      31.81741353       2.34444001       5.48334468
Si      16.86793140      17.15361113      39.08658906
Si      25.83368380      18.07151657      39.25855517
Si      38.65054627      22.84927646      11.35234169
Si      16.60004941      36.84135277      26.46107193
Si      11.38472755      19.73513209      28.69292634
Si      16.17682473      23.63899386      39.95334791
Si       5.68015749      27.89383743      34.96767385
Si      21.10579677      19.60016450      12.79267843
Si      21.16672809      30.14962669      30.90514268
Si      25.56569986      24.70029717      31.80605204
Si       3.59579794      21.56302658      39.86777243
Si      13.26433907      31.91875083      17.07067930
Si      11.48266265      15.20151578      32.77365819
Si      25.33266680      29.46722734      14.50542805
Si      11.52842577       7.46241077      39.78502390
Si      15.10865893      32.21162131      15.64274593
Si      21.44815756      34.51331049       8.18686790
Si      22.76886541       9.73932606      38.78773133
Si      37.76360896      18.85718098      10.58649514
Si      24.16505021      34.44116693      25.86673605
Si      33.46822384      33.56184173       6.38509296
Si      19.60695708       9.79274332       2.96146381
Si       3.77301156      38.98451090      33.76841720
Si      35.99508337       6.11622274      10.82228723
Si      10.36812756      17.64100917      32.69696206
Si      22.15619082      23.44999026      34.34396575
Si      15.68469003      35.01880313      40.49013438
Si      18.60641298      25.88367826      31.11546402
Si       8.29144111      14.61377809       2.05836356
Si      37.29911997      18.64764090      19.24576915
Si       3.07181787      34.43367698      14.34520222
Si       8.59538707      16.94523333      17.46953536
Si      24.55286266      19.71316265      11.21755267
Si       5.21120763       5.65712821      23.91697668
Si      28.50709294       4.21614231      22.65460026
Si      30.89792402       1.76916950      31.17317510
Si       7.83527235      31.80418477      23.67391526
Si      25.80645186       3.62259993      34.83715427
Si      15.57705620      15.99689689      33.91393620
Si      11.12427222      33.48189381       9.20977885
Si      36.83338380      11.81755678      34.21825148
Si       1.30841959      20.01298503      30.50490823
Si      11.79125417       3.24315188      14.81147159
Si      21.42427371       1.75519073       7.28433543
Si      23.95073620      23.00809586      28.84605321
Si      12.41546441      21.64791686      27.79289576
Si      25.05214141      29.12214322       2.41657054
Si      25.63388263       8.37312837      15.89283899
Si      18.55707758       5.17479418       5.66164396
Si       3.72673541       9.92146615      28.31957133
Si      12.64603837      20.84629122      35.73708975
Si       7.57495361      13.02853566      23.75577189
Si       0.52270065      24.34578977       5.54910770
Si      38.36807120      38.05581318      14.94017409
Si      17.08150075      26.55173181      21.94577582
Si      38.46666704      35.09769200      34.40233972
Si      18.95604459      21.65437538       6.31736759
Si      33.89221363      16.62061682      27.75718457
Si      10.74347901      33.73611735      21.71713470
Si      21.16154839      19.50414805       0.63469570
Si      24.74558580      14.06157745      24.31071201
Si      31.00121672      15.42678059       4.57639686
Si      22.87610465      18.07641846       9.23223607
Si      27.66640325      34.30740392      29.49321763
Si      31.24537836      21.07345291      33.91440933
Si      38.07712267      19.99654492      27.06559032
Si       4.51519037      26.36812729      28.70568081
Si      32.10065607      39.53500048      36.84772158
Si       5.14539917      20.70483151      24.85935122
Si       2.79782384      35.32092933      39.81836131
Si      10.64201075       6.10794831      37.52036308
Si      17.08150583      11.84714277       4.07430775
Si      35.92547530       4.16883931      25.54684630
Si       7.94280562      11.27288500      29.08536441
Si      31.66654832      11.34452305      10.60394247
Si      12.53160942      21.23917263      22.98602785
Si      29.88606080       3.98622653      24.54705599
Si       7.61980281      10.00288344       1.21585222
Si       1.67082980      16.46414726      16.83853632
Si       7.18168861      39.29439072      36.42924209
Si      26.22601843       7.63686784      13.74079560
Si      23.42879248       1.00376554      11.31834942
Si      10.02733965       1.13494613      18.52168537
Si      34.91078891      14.86741503      31.06771385
Si      26.91897526      22.46126632      17.38781968
Si      11.71662520      32.03303696      10.95834149
Si       1.24965272      25.40649110      39.30163615
Si      29.24311278      18.03665887      34.37530342
Si      34.28061946      21.08631911      15.11364540
Si       8.49031972      29.56112026       5.50479998
Si       9.74258356      25.38779750      24.60474300
Si      39.53241467       4.16429363      25.48853856
Si      25.12488561      19.93576356      24.30352727
Si      27.04765516      38.45762846      15.64599989
Si      13.04184543      10.38561079       3.08259133
Si      31.35846142      12.36788025      21.56758931
Si      27.21195689      13.26847565      22.21459910
Si      19.40352397       9.25732939       9.48392308
Si      33.64541088      22.68622009      16.70995618
Si       3.83272462       4.98539009      14.22490891
Si      25.23305161       4.65062449      27.02713906
Si       1.74561285      23.95999512      14.48995663
Si       1.78317736      33.56769152      12.58522570
Si      38.21180358       0.89299420      31.02186297
Si      39.47591990      18.53841540      23.15517481
Si      24.61464430       8.56178397      29.89448661
Si      32.71844525      36.61527766      27.09695843
Si       5.96326320       3.68340971      15.28688844
Si      26.16304197       8.98131317      27.63713056
Si      21.56750187      23.72521099      24.35557582
Si      34.84926325      40.68192525       3.16553113
Si      35.07186228      39.14714033      10.35209916
Si       2.91728411       8.24040295      14.95786475
Si      25.05250541      21.22813862       8.25680628
Si       3.18735496       1.15150224      28.34738735
Si      20.01681628      11.03673030      19.98768512
Si       7.33515134      26.77210173      14.41437495
Si      21.42988269      13.49364243      29.84362248
Si      36.39827050      16.61782835      29.17232910
Si      12.70810545       8.16812992       3.79025701
Si      26.33893096      35.30893925      12.42310336
Si      17.24289813      19.07754178       9.31375037
Si      35.07061615      24.69483140      30.44602564
Si      22.40320467      23.84331466      27.28392025
Si      38.72470585      32.32452291      26.88786165
Si      31.48744032      17.12682917      36.72117671
Si       7.89853655      22.70973386      35.94378845
Si       4.89872235       8.35581907      17.74280844
Si      35.50454545      15.40367941      17.95995336
Si       4.32437851      38.74324634      31.49509820
Si      25.19373110      26.06446820      25.29295182
Si      33.56291493      18.21209109      36.95714865
Si       9.54704700       7.44818344      34.64151756
Si      14.30237576      12.23331437       5.44721542
Si      32.51893333      33.19882953      27.54231567
Si      32.44511437      34.04870433       1.53865427
Si      21.84838000      32.27232040      33.64635947
Si      26.27784093      15.56090490      28.82718109
Si      28.08874005       7.14025213       9.49333049
Si      18.48298788      35.76156560      14.73558722
Si      18.18994745      25.43140614      27.47993896
Si      12.18873596       2.63876064      34.94877837
Si       1.95066398      37.99023930      11.71906789
Si      12.25108169      15.06379897       2.10734697
Si      29.04316741      26.10621395       6.74398451
Si       6.30911452      27.36487984      37.17106872
Si      13.41391026      32.60782490      21.65292666
Si       3.61975641       0.93185087      31.00075982
Si      34.21072157      20.79768298      22.95726932
Si      19.00013214       8.61031836      25.43017720
Si      15.27828903       6.55325072      15.11081514
Si      24.01104380       1.95156571      38.43251411
Si      16.96241829      20.03126642      19.33072238
Si       9.16525185      19.52669710      15.78636533
Si      13.83100448      24.96864867      25.04921682
Si      18.99068598      34.52145751      20.60437070
Si      32.52806625      21.57545214      18.45464750
Si      31.64517611      21.25277905      36.33668430
Si      29.05512807      34.66196770      27.01438421
Si      27.34615498      15.39139062      32.25553755
Si      35.48267771      13.61395890       5.33212033
Si       1.01408063       6.56532979      14.43646914
Si       5.43030815      11.93975275      24.47364414
Si       5.45064682      20.96628693      34.24487452
Si       5.99976018       0.75127322      26.91220038
Si       1.19202169      28.34712820      24.94855219
Si       2.24791938      28.68246783      29.03454213
Si      20.39353054      39.68817042       7.72961312
Si      32.58385773      26.17762584       2.33436556
Si      32.26028406      22.33847970      10.13938436
Si      37.51275865      25.54526267      16.08771905
Si      31.64789901      22.61817632      28.59917811
Si      36.01726742      37.10418512       5.57662202
Si      23.45043599      15.43655557      17.93572219
Si       1.91609914       4.73791480      32.89942167
Si      30.89067130       7.52951217      27.97941865
Si      20.55598380      35.98449737      15.80625841
Si      12.30574879       1.32837123       9.28564765
Si      -0.13690545      19.42948642      12.78222343
Si      16.74296355       7.00088721      21.18818391
Si      25.89252147      14.06119451      10.18475679
Si      28.01185846      32.49371942      15.18562898
Si      28.36370256      38.22273648      25.95589065
Si      33.11464989      39.93057821      20.26095086
Si      38.81032895       6.08018366      22.26720626
Si      18.86012779      19.36775531       1.09885368
Si      39.20954958       4.94387476       4.78033274
Si      32.21527053      33.76437010      15.48546048
Si      23.41178430      31.89627586      37.76943895
Si       5.02182852      28.72650146      19.45143511
Si      36.86523600      21.94453593       3.20137954
Si      38.91588617      37.84255023       4.20607062
Si       6.25441238       3.67814465      19.52762455
Si       5.01046483      33.29429995      15.03168158
Si      26.13584478      23.39112404      37.98758285
Si      34.18384589      31.46878212       1.38866567
Si      17.17364459      26.11019425      17.53291359
Si       3.88529171       8.12262545      25.56634776
Si       0.56647507      20.68250126      15.19872913
Si       3.41533666      31.19465529      26.30514017
Si      36.31688462      27.53940628      33.91758404
Si      30.65474422      12.61621713      25.54618849
Si      30.85254913      26.26999141       4.62924891
Si      28.80661438      39.31900283      18.92544418
Si      26.93489830       7.48744046      11.50605176
Si      32.82265275      11.05712505      17.81015950
Si       5.17893309      23.23660441      21.09916658
Si      25.67533775      13.11649216      19.84754083
Si       5.14911654      34.52677792      18.20569125
Si       5.30037158      24.64298793      30.64863775
Si      20.50138425      32.48737898       4.39634999
Si      37.45828057       5.26948422      19.92409961
Si      28.36731308      22.73971821      15.55575127
Si      34.88030577       5.10846598      30.14060216
Si       7.15456422       4.16736479       6.70401308
Si      28.34259872       2.16540246      23.78551021
Si      25.60773641      23.30211540      11.71181497
Si       6.32438384      15.45503158      38.83763079
Si       9.82690970      23.46111068       6.26495088
Si       3.96400878      18.78814994      24.18001744
Si      10.74208163      37.07592111      36.58486192
Si       3.70792360      32.32774944       6.12161293
Si      14.79210700      29.60270375      15.97232237
Si      29.97245216      24.12739491      34.84420952
Si       4.54483817      36.80112851      33.36967556
Si      28.02097286      30.15661141      26.18506039
Si       0.24635124       7.82837611      18.42101583
Si       7.87904344      13.59303704       5.13971163
Si      22.28301174      17.38402077      28.52797253
Si       7.71887653       6.04065239       4.33952377
Si      35.42142330      28.42475095      35.90209376
Si       6.69097121      12.42574858      30.70746699
Si      11.01418935      13.22480715      16.81084430
Si      19.68223439       4.71184937      37.30118176
Si      25.08533968      36.34498301      24.83898194
Si       5.95127204      39.31055830      29.89664772
Si      34.14002957      27.08017004       0.81843883
Si      38.19380370       2.08536008       2.31477146
Si      14.23811303      13.92004652      20.20393047
Si      24.41582842      33.00913465      39.57999836
Si      31.56585763      36.63388737      37.56925597
Si      25.26696200      11.82153284       7.01837498
Si       2.83758134      25.56160152      37.57356169
Si      28.08261405      23.21665124      35.90734342
Si      26.53097482      18.99051231      32.47470419
Si      30.91551413      36.39090883      32.03531821
Si      13.75748881      37.71629155      19.22660492
Si       1.14005115      28.45532340      17.31524200
Si      20.56457274      31.81225841      22.27020024
Si      14.41161752       6.97441388      25.25916674
Si      23.94541050       0.69325598      13.89711024
Si      30.41895387      36.49372645      27.57033150
Si      31.27382524      18.41996647       8.43840697
Si      16.09117893      12.81885178      28.49114347
Si      20.06548181      27.60381205      30.45271268
Si      16.92590427       4.53810384      33.43285230
Si      34.52778858      11.86713422      16.40764912
Si      23.15695455       2.89008087      13.63706446
Si      34.49368122      17.92234957      29.62092215
Si       9.56912748      39.83859461      33.99697767
Si      23.59761077      37.13901545      37.27578251
Si      25.41249260      31.23521199      34.74793128
Si      31.58251194      29.95876215      21.14501644
Si      24.45440194      17.80256956      16.01483599
Si      19.01963609       8.60837636       1.01508447
Si      22.43488942      24.25970196      31.85327168
Si      29.60180510      13.19666398      22.90081147
Si       8.04692752       7.94870017      19.65762597
Si      34.33468393      21.99580518       1.82909322
Si      34.96039857      14.11827070      12.49812678
Si      31.79752901      29.98973959       4.18999993
Si      23.82514238      27.01394983      36.19586216
Si      22.51243127      13.13731967      14.61963067
Si      12.67603820       3.48321825      11.81971992
Si      10.15297228      30.53552663      34.20019281
Si      36.00411443      13.11597155      17.74592830
Si       7.56942485      39.27557202      27.85503218
Si      34.82188389      36.54773842      18.38467410
Si      21.44430164      17.11646666      37.39140139
Si      27.69632575       4.80722720      24.78322577
Si       3.47059811      10.13892929      34.78579508
Si      26.49199164      35.39230222       4.41206270
Si      36.78465147      16.27635279      12.80232894
Si      39.64028647       3.93033526       2.51281654
Si       9.77842963      33.46431206      25.19367965
Si      34.74572954      28.60599366      38.66654357
Si      35.15400121      20.78057896      32.50289919
Si      32.80035000       4.52509989      28.17249740
Si      19.06418899       4.48827138      17.17404400
Si       0.55195519      18.52401039       0.13354981
Si      33.12115301       8.00117420       8.88516306
Si      34.56947325      16.92994692      12.34792111
Si       2.72389652      24.45981114      30.78239489
Si       1.97291562      36.15363526       7.12244657
Si      21.10884832       2.35543111      30.37832286
Si      35.01105852       9.54845654      26.86085949
Si      25.03948197      38.14658056      23.33090970
Si      18.78748261       7.22095120       6.79751941
Si       6.09101072      -0.16948709      22.59288680
Si      34.37115415      33.81065975      10.55372289
Si      19.03514412      34.86821537       6.18976102
Si      18.32881318      16.49864154      37.36397409
Si      25.78722134      29.58144381      36.37746869
Si      10.60548622       4.33955343      34.61146079
Si      24.34151112      26.00174719      14.34273760
Si      34.20495732      34.79442040      27.16642448
Si      16.80137348       9.12550632      33.32266270
Si       3.68517143      20.58753330      18.33568933
Si       1.05713375       6.98358243      26.99416395
Si      30.60305416      23.52969987      31.70222424
Si       6.91030774       0.20658792       8.11616704
Si       3.49278171      16.10276314      11.45015414
Si      38.81831947       3.29138454       0.39885075
Si      35.35151857       7.10431735       4.57307259
Si      -0.22154796      32.61098419      13.35248869
Si       4.35767445      27.94093381      26.69863929
Si      15.90560266       3.34493291      12.61330655
Si      27.48645172      27.86907979      26.28862851
Si      10.43675459      14.18823629      28.48629509
Si      31.71304083      33.69627602      18.43479834
Si      35.17202221      34.23648494      38.46479006
Si       3.20710992      12.76029031      25.84183485
Si      26.59108763      18.43922580       4.28410254
Si      34.67277248      15.84939850       6.67157493
Si       3.61438927      24.71309487      11.13206456
Si      29.95648578       5.94296854      10.26810291
Si      15.78131670      15.76417717      16.12855508
Si      20.80912995      27.05727688       8.34259193
Si      11.01918976      40.30278978      25.39603654
Si       6.37308285      21.01395167      12.85986106
Si      32.12227418       0.39341433      33.51656037
Si      10.37998945      10.99355621      17.19890276
Si      29.41235102      20.69144270      15.06267206
Si      31.04831068      28.70960726      19.22570155
Si      29.74667346      31.70836845      26.55832964
Si      11.80005911      36.83136274      28.34991160
Si       0.11631598      27.55120627      27.72729696
Si      31.05878521       7.97116085       6.77570542
Si      28.27495403      17.55251143      22.30853575
Si      39.01966060      17.34915412       5.02796054
Si       8.57057580      39.57092108       1.09097645
Si      35.56772974      11.21934053      30.94192167
Si      19.69556900      21.45709922       2.26491014
Si      24.53751214      27.88918954      12.95464786
Si       8.00743904      27.43719423       8.80786044
Si      27.76577192      17.20759131      20.05201731
Si       1.25241278      17.09846705       8.28009617
Si      -0.31912893      20.45838700       1.14827839
Si      11.84107923       4.36798048      27.35194167
Si       2.93029832      33.01541430      18.46758610
Si      18.70916782      31.73030093       2.63421465
Si      15.26940778      10.64118449      18.87476867
Si      33.42716134      31.86715029       9.62518175
Si      22.10299776      30.80061909      20.80717898
Si      28.21861851       7.07937291      24.48464413
Si       8.82672123      15.82627927      11.73056468
Si      13.68316112      25.21633455      38.58577634
Si      37.29594391      15.61998439       9.05631421
Si      24.99298786      28.76522633      27.48431164
Si      18.29442998      23.80559919      38.94413933
Si       3.48876673      31.95560517      10.70360683
Si      24.42644393      36.75767528      35.10693470
Si       1.31757559      37.22834980      19.25337235
Si       2.23272223       8.07391437      20.64009445
Si       5.42749926       6.99864129      34.84968335
Si       5.41648657      33.65065337      20.37097288
Si       6.18871570      33.48141490       8.40342996
Si       3.11689772      38.55107815      17.00573232
Si      30.64826775      25.57612698      28.14339054
Si      13.73178044       8.86233373      18.90873815
Si      23.41064273      30.03388174      26.30273849
Si      20.06224815      38.68296850      14.17547376
Si       3.84683869      39.25375772      27.12505696
Si      25.72778237       4.34093342      31.46388852
Si      23.49193424      21.05022255      22.74928330
Si      11.72131391      12.92710191      22.20419751
Si      12.16068001      33.41700907      30.40755222
Si       1.31454835       6.52895547      37.04742781
Si       1.34121973      33.54776728      24.31018094
Si      36.20433534      18.70907549       4.19228806
Si      19.10272997      29.96289517       6.62413547
Si      11.76852384      11.99764360      35.91045051
Si      13.38864279       0.82089112      35.83568137
Si      38.63095304      29.79464960       5.77862870
Si      23.82025670      35.30706661      31.14054853
Si      34.85603367      14.97146356      39.64329347
Si       3.85960756      20.53358996      35.92187582
Si      32.79785985      20.18723671      21.17895887
Si      22.48602406      24.25890324       2.59807599
Si      23.30162839      27.59946161      28.62945600
Si       8.64513959      17.57241829      20.14283785
Si      27.76062827      14.11474407      34.18540079
Si      21.92506989      21.54407178       1.52140527
Si      32.69295545      17.02475445       6.19312483
Si       7.63333428      27.77479369      22.44226114
Si      36.85732421       8.54447148      35.64296028
Si      12.10801713      32.02151893       3.71189754
Si      26.37567549      21.08105400      11.79529984
Si      35.55077460      17.54461772      38.02621744
Si      10.75517527       2.43664172      29.01176401
Si      12.82720650      20.11726842       7.67069524
Si      31.48823249      17.71070311      20.05775043
Si      31.64422383      38.62728204       4.05926472
Si       9.52855326      35.25373815      23.03759797
Si      28.45122680      21.99490549      12.41674459
Si      29.68612684      27.67811090      27.09822715
Si      17.72079285      12.56642147      25.73159083
Si      27.45148387      35.27795839       8.22543254
Si      29.24952712      10.89190988      18.36969139
Si      13.25994709      37.87236786      12.26447379
Si      11.00473949      15.07023018      11.26835128
Si      25.14323932      36.87801430      29.99516916
Si      34.98665721       6.45108706      16.07270637
Si       9.13192025      31.62037818      11.90748261
Si       7.58383658      19.41696810      32.50025989
Si       2.95641523      13.09445972      13.65007540
Si       7.01335496      10.64409577      14.57898466
Si      37.39168602      32.26475024      23.28648502
Si      36.26981347      21.67046939      18.50075122
Si      34.15975649      36.64439264      22.33127497
Si       7.71164008      22.84072239       2.64547513
Si      40.51605457      16.03450162      26.53419173
Si      11.60918549      19.92784015      37.78633515
Si      33.76190953      25.50662518      39.10467569
Si      19.31857291      27.18622213      22.29702640
Si      21.33107623      10.34437654       1.08799555
Si       7.60692126      16.57862807       6.98553313
Si      30.81707614      35.51627398      16.19740578
Si      31.41043230      33.92085966      22.77397926
Si      36.95928943      35.49097822       4.14910315
Si      22.55925587      36.49230737      29.55226726
Si       8.23310164      25.29593195      16.00984825
Si      10.14743843      29.79936948       7.15641273
Si      29.46634761      16.22113748      18.82731255
Si       9.19757034      17.88102652      40.31770544
Si      26.36690463      35.43329239      34.99218930
Si      28.73140005       5.36795244      29.94630048
Si      18.21818419      31.90542996      20.81089535
Si       4.40807973      18.05694944       4.68171994
Si      30.68685179      19.16052120      35.85259382
Si       5.79775283      15.11667131       7.33855191
Si       3.62712263       7.62114698       0.80759026
Si       7.96879323      22.82057678      17.41756033
Si       1.49881636       6.89637794       1.52887840
Si      28.39313178       9.86768773      32.93671055
Si      15.69683703      26.78559831      27.17023772
Si      31.50649094      23.02890032      13.84968804
Si       2.26710727       1.63265690      20.58966375
Si      33.80481219       9.82040838      33.01974786
Si      13.89483364      39.40384650      33.88279513
Si       3.74932157      26.89558572      35.86461241
Si      12.84159908      21.54679288      32.15292954
Si      22.47609421      32.16171721       5.63126896
Si      37.25789523       4.87739557      12.34730895
Si      28.07998306      13.12743399      37.62159288
Si      13.45747139      10.51277370      32.05927131
Si      27.43608215      11.43359988       1.91904068
Si      16.96272161      14.22865546      34.60936870
Si      36.65476121      21.57638929      38.03235076
Si      12.93124755      24.66585209      12.02895225
Si       2.56853956       4.56201014       0.20119571
Si       3.91080488      39.39589367       3.12324518
Si      35.27944532      35.65979494      20.51319362
Si      21.43400168      28.24247318      10.26876384
Si      11.48355971       0.43369956       6.85909687
Si      21.16436150      11.93945575      32.90587285
Si      31.72642139      16.17919011      28.56052882
Si      33.00396425      31.24363834      37.89144182
Si       8.80466335      23.91512870      19.32431176
Si       0.53903601      28.01016862       2.77233623
Si       6.57812163      29.70110024      37.14871312
Si      29.56912342      35.45582959      20.29893536
Si      19.57128608      12.14215583       2.85748770
Si       7.06596691       8.66015057      34.56495433
Si       0.13112032      16.76494831      38.62793693
Si      37.22157107       4.92335769      29.99532267
Si      34.85164642       8.12750644      10.48583322
Si      27.54370057      30.26661258      34.97185807
Si      16.44977598       2.10809065      39.30028597
Si      10.85079380      31.41054145      36.60844022
Si      22.37145310      21.48313035       9.27064255
Si       2.45730860       4.48079519      28.95134364
Si       7.49163514      19.56017021      20.63966716
Si      37.04319901      21.19640244      23.83942166
Si      32.35985072      12.11128976      27.34250385
Si       3.88438299       2.81294426      38.51870727
Si      12.85768728      17.55562899       6.23074276
Si      12.12689218      35.18663536      36.39126567
Si      24.93837714       8.87460684      38.52827935
Si      31.24048802       4.44279944      26.41417273
Si      17.13796008       2.20077221      10.26678110
Si      21.73744062      22.88309545      38.85826776
Si      19.24622177      13.95945611      35.10221767
Si      20.82627351      22.18122959       7.64185326
Si      31.85736282      31.61245667      22.79376708
Si      15.64741304      23.14254204      33.47645661
Si      26.68402937      35.84100626      17.89383953
Si      26.16302831      22.80892013      26.09083201
Si      19.42312222      22.03373430      16.25997719
Si      21.00158420      11.84473885      35.78205866
Si      13.07841888      34.93157122      32.91126148
Si      28.38845433      24.25195250      32.02479185
Si      29.01021788      20.73782488       0.71557481
Si      18.11800588      13.67679170      39.32847761
Si      14.15053168      25.55634732      10.23529461
Si      38.45093023      39.58705859      22.95766032
Si      39.78047818      16.45219824       0.92852556
Si      37.64130426      10.55672991      22.75255654
Si      37.56413304       8.85686222      21.12593737
Si      22.00247458      21.50437080      24.99514364
Si      17.01760624      18.12764290      27.13041337
Si      37.85566031      36.24520820      13.53001311
Si      11.87119280      19.41336390      32.34885848
Si      29.61257434       4.61351692      38.18593925
Si      17.06931668      10.47619691      24.87128455
Si      14.99760503      30.08796764      29.94423565
Si      34.79990691      32.03052458      39.18979512
Si      10.01966416      21.94929715      16.66537995
Si      32.92163319      27.35971566      19.67211019
Si      29.07630999      18.77708708      37.52294489
Si      18.39355430      13.92565153      19.33958229
Si      17.35667705      19.32109560      29.12829959
Si      18.06192003      20.04910671       3.20361745
Si      30.76695879      38.81402332      27.70325295
Si      35.30806499      12.24145858      36.19982203
Si       3.73204891      39.34819068      36.09320249
Si      39.76681485      14.10984690       0.82814439
Si      30.90476911       5.49904060      30.83844791
Si      15.28650636       5.77134263      12.58065728
Si       3.78754177      20.56884102      10.37373534
Si      10.30904530       0.16138114      29.88576351
Si      32.07838555      21.76990640      22.76206724
Si      29.57604021      39.25909037      34.01750511
Si      21.58344729      37.63324551      27.06965640
Si      14.30288727      28.50847120      27.95704664
Si      38.59297527      21.38972412      18.27999057
Si       0.68689037      21.74226495      10.95392245
Si      31.31004245      36.07710137      35.29936969
Si       3.60040252      24.58163354      25.86560715
Si      10.23487062      20.26990076      24.30138595
Si       9.91478751      16.00962665      34.32808043
Si       7.64448557      40.47277415      25.25456621
Si      40.25686381      22.10666641      30.71012847
Si      32.97887430      11.93125072      36.29020295
Si       4.09218253      30.85955782      19.78290816
Si      37.79881931      21.08017949      29.13411647
Si      13.88686306      13.50838018      28.04631794
Si       9.28280877      11.50393359      22.01370314
Si      30.29697653      24.98170829       8.38570754
Si      36.39968314      17.33606760       6.09146654
Si      29.69418748      30.18946302       1.28298902
Si      32.02298227      17.27900202      13.13042475
Si      26.06688570      20.08303995      28.02955685
Si      38.27778391       6.51974721      10.50999442
Si      29.24889933      29.68742270       5.30197218
Si      12.45234128      23.72558314      37.24667725
Si      31.14290057      39.25437871      18.68552043
Si      32.23801408      35.95142221      18.02199294
Si      37.83124187      15.07909724      18.06755871
Si      11.54250848       3.91140488      22.95744934
Si      33.02800422      34.23407712      34.55892014
Si       3.41905873      33.86620339      29.63992542
Si      35.47231480       4.60565430      17.43974006
Si       9.89513018       4.31062381      25.32433839
Si      26.68190280      33.44285992      39.12928732
Si      11.81695771       3.80594585      20.62567785
Si      39.40379186      38.72232933      11.98699854
Si      11.08274336      19.54036465      34.56246396
Si      31.43627458      11.65356065      16.00638784
Si      11.41341896      39.51572091       0.26997528
Si      14.21345100      38.32352032      26.52902147
Si       4.89948251       1.36970343      36.38208756
Si      26.18943252      38.29509060      34.85735556
Si       5.77013513      14.53639226      23.83603094
Si      11.52118480      15.15661780      38.93429465
Si      28.27889469      36.63744885      12.46820092
Si      36.00350271      12.73485046      25.96037245
Si      27.85816084       8.72004998      21.69919334
Si      37.61871757      30.39883042       9.72965374
Si       6.56406312       1.19826017      34.73133469
Si       4.58592310       2.15732843      10.49234697
Si       1.03995237      11.32247258       1.83041999
Si      14.92299310      31.86477594      31.66666051
Si      25.05054072       6.64131518      39.25609975
Si      22.46737654       2.96834787      26.38876207
Si      40.09609080      36.93538292      13.34945190
Si       4.91244621      36.90887021      20.34805220
Si      35.04295933      30.42395085      28.78040750
Si      37.16222060      36.05093702      39.88023282
Si      10.56097551      32.12742760       1.05170685
Si      36.09800731      25.73834469      24.62598984
Si       4.14185822      13.56112048       6.73038708
Si      37.21549973      25.59844909       2.79213313
Si      15.21885353       2.86082498      29.25334577
Si      28.81034861       0.33337156      15.76672674
Si       3.05245148      26.77495278      15.49995765
Si       9.72657942       5.64920920      31.70410458
Si      40.51221470       9.88390167      34.96337932
Si      19.70131388      27.18680768      32.73883395
Si       5.49783301       4.29845575      10.83123605
Si      32.29734680       6.76453917      32.24619283
Si      25.14690391      24.18289803       3.41613843
Si      28.07556145      22.87065171      29.63091909
Si      13.65880933      25.87658748       0.84274734
Si      18.63958910      12.96536295      37.14738501
Si      31.55157025      40.23199350      16.31947845
Si      11.72121070      24.82993431      26.07722337
Si      11.64523202      22.01566070       3.12561622
Si      37.28279941       2.49867479      37.31211934
Si      20.96898926      28.17986730      24.20666727
Si       5.68658591      27.49000226      24.81015069
Si       9.54232012      30.58673897      39.42156470
Si      17.78156433      31.76235903       7.36307944
Si      14.15060203      36.70596205      14.10590479
Si      23.74083871       3.54664777      36.55422936
Si      23.66550388       6.98353159      25.32878995
Si      38.65325462       9.95377011       8.86257031
Si       3.12974927      12.09294518      28.99675387
Si      31.75539218       8.18566844      37.73152034
Si      19.37389557      37.05779888      37.82428832
Si      14.66492724      23.79679057       5.06446567
Si      37.63083173      34.87593042       9.11863321
Si      35.26098551      13.24133212      29.41490899
Si      25.75768802       9.03524557      23.72912765
Si      33.20231390      38.51006012      31.88447938
Si      37.55197158       9.13829735      16.06007412
Si      30.23218637      33.28475756      16.65487665
Si      17.34067605       5.92860326      28.36770803
Si       6.61829397      22.97823830      28.50499777
Si      20.91201917      16.91118179       9.79325673
Si      33.18033310      29.52363414      17.19758881
Si      18.78051946      26.10085096       9.03563889
Si       3.97345120       5.56621786      33.68447905
Si      33.30378018      18.15696791       4.09783109
Si      32.13100348      27.74077353      27.38162195
Si      28.81413146      27.42853349       4.81428672
Si      13.87049560      16.30229295      35.50393086
Si       9.56280355      25.20787639       0.06763559
Si      13.38972375      16.11144618      20.29736631
Si      39.34325572      -0.12273772      25.11343572
Si      37.65683839      29.43968370      14.92290187
Si      29.05321109      29.00373850      13.84738052
Si      10.86786269      25.48778147      29.06778130
Si      14.43825306      35.62107415      22.99995639
Si      17.23614780      24.67994001      19.39763778
Si      10.27458160      34.89531858       7.53971557
Si      26.69149846      38.34421243       1.80678916
Si      10.64865732      38.08144518       4.60604409
Si      20.63962359      38.89717337       5.52887867
Si       3.06943339      10.97690270       5.91329514
Si       0.74714252      19.15895629      18.91343078
Si      39.51034501      36.10380965      -0.02635203
Si      17.37637342       7.35593023      14.41299052
Si      13.72280383      21.24377402       3.91147975
Si      37.56465549      22.03353033       7.37361183
Si      16.97073128      33.70364608      16.66319681
Si      21.25359828      34.15568160       5.87146340
Si      38.21197411      38.83080301       9.96358526
Si      12.15187980      25.63560299      35.90797138
Si       8.37928722      16.55975903      38.55632661
Si      38.85582295      28.30294322      17.85330655
Si      11.72270330      38.65138195      19.94551687
Si      35.96025806      32.17152814      17.65667612
Si       4.80177468      17.13150098      30.60070175
Si      39.53277312      18.37581339      34.27725695
Si      10.52755235      36.23637437      11.71163676
Si      15.96876946      29.72815713      34.74921252
Si       8.27186723      21.77387928      20.77961777
Si      34.99210492      22.95236333      11.49603865
Si       5.20107677      19.23255547       2.80601732
Si      35.00293874      19.37204309      21.12303702
Si       9.89447738      33.63746860      30.99621315
Si       6.35782301      36.63186958      14.96500197
Si       5.38989674       3.80755427      28.62644567
Si      10.02188016      28.06135810      29.89547970
Si       0.90227314      33.80334096      32.18407292
Si      16.66053690      29.06709023      20.12611213
Si      22.06362078       7.16390613      20.00767191
Si       6.48679763      32.52336578       6.27566349
Si      20.66520992      32.28056252      37.19591853
Si      25.81080508      16.92066978      18.78994603
Si      36.03622870      33.43892435      20.35676529
Si      36.42401059      11.80116223       4.16566881
Si      39.05813767      34.92491647      23.11281145
Si       2.17250803      27.10760707      26.68804235
Si       6.04874267       8.85291852      11.18957370
Si      36.51106875       3.08083202       3.62092465
Si      11.25570397      18.49790188      15.46568630
Si      15.43535452      24.74877135      13.87398448
Si      22.82666315      20.98816054      15.22354566
Si       7.71993728       4.91096692      11.29976417
Si      36.42546792      38.98080626       3.55610870
Si      37.18062956      12.08946569       8.27724569
Si       3.53939387       7.86368867       5.30361538
Si      12.24016205      38.88829220      36.52780986
Si      32.28530562      30.69984638      19.02669239
Si      11.65329134      16.71207517      24.90559678
Si      21.03693222      21.93004417      13.10546702
Si       6.61096934      25.30683970      28.81572591
Si      40.18816969      34.67337341      26.02307114
Si      21.65827253       6.61256621      24.16094484
Si       1.84141752      13.94440870       4.34190487
Si      39.86301291      29.70889025       9.86591033
Si      33.32579724      15.38416785      13.61472252
Si      26.38003415       9.40380190       2.46061303
Si      19.98862348      34.28361937      10.01553300
Si      18.92049588       2.81782192      39.95561594
Si       5.34472831      30.44001659      14.32373252
Si       3.29341904      36.17066290       4.20149757
Si       2.03930710      14.60533214       6.59012442
Si      29.04258091      36.56252010       7.06265421
Si      31.15320297      20.38292098       4.81402258
Si      17.12162935      22.91613156      10.69692831
Si       4.52195783      22.98558115      33.47504701
Si      14.96247873       1.63617882      24.99371415
Si      37.80973950      39.30237506      33.72906862
Si       4.12285963      19.85930169      20.52853130
Si       6.04501234       2.97683044      25.26517256
Si       2.10160549      35.21206360      18.33112525
Si       4.63002621      14.77265710      26.39093369
Si       9.24691188       8.91851600      14.13461162
Si       7.78547936       1.31408499      39.72359175
Si      26.75776422      33.89116077      26.11207672
Si      10.23014392      25.97255857      19.50282612
Si       9.84223987      15.99483683      15.71844466
Si      39.62503222      33.95885549       9.96676212
Si       0.86847886      24.21299685       1.29234861
Si      37.21116870      39.39226026      18.72658858
Si       5.53228383      25.55254593      35.12321111
Si      23.95654762      32.28419442      30.77025651
Si       4.32502543      23.88368192      13.69681009
Si      38.65529361      30.52187310       3.54228438
Si      13.00810595      18.01665100      39.46783192
Si      30.28671202      33.81014744       7.31930442
Si      22.84766133      29.14531892      11.90983947
Si      38.24112298       9.93668963      34.34620638
Si      31.56147745      38.11188515      33.50855155
Si      26.89817561      25.39343200       7.37506075
Si       3.80346812      16.80902520      15.90927782
Si      13.32991543      17.07861477      14.51842207
Si       7.49323069      26.61489488      10.95076781
Si      17.94679874      33.13344843       4.36064233
Si      34.91139629      38.73469916      23.10475357
Si      21.46079013      12.92412249       1.32459839
Si      26.06683733       0.88485605      38.84357797
Si       4.62056955      30.83830661       0.60727365
Si      36.74178185       0.56790670      16.74615499
Si       3.32263467      19.19169360      31.69781186
Si      11.77898978      10.35418695      18.98046908
Si      31.81317119      27.01329184      29.59528906
Si      31.23534915      32.67324357      20.78880097
Si      22.81901359      27.16822344      23.16549001
Si      13.72602119      13.63790061       0.95992865
Si      38.04523002      19.92535927       3.37814135
Si      35.85787233      26.54782532      38.89405851
Si       7.02829031      15.46310964       9.31177393
Si      14.28993676       8.93176704       7.61156768
Si      25.34818712       3.68974325      13.32473192
Si      17.52250264      39.07924562      23.04650810
Si      10.67941374      11.71479536      32.69145512
Si      30.59327507      23.20506041      26.58096571
Si      21.21221992      40.01419569      40.34810650
Si      35.48729263      24.88831645       4.22023223
Si      24.69386430      27.89098306      16.12968767
Si      27.16890634       2.46211848      14.43624315
Si       1.64796114      21.85004443       7.85156190
Si       4.95423128      32.06411873      32.58882546
Si      32.53654497      24.18854930      12.08738744
Si       1.30727269       8.87935160      36.93812841
Si      17.78955064      27.23072556      24.08322329
Si      32.97907252      24.98951856      27.12312807
Si      20.54174027       0.94470730      24.03875173
Si      25.07738926      35.58792301      27.70579902
Si      22.45438160      22.72548492      20.43402664
Si      31.34983027      28.16629652      23.28852101
Si      16.87144350      30.41988718      22.03857745
Si       9.28130456      12.93328127       3.37048409
Si       4.92451395      35.59825009      31.38541591
Si       9.24325350       1.36724911       2.45151678
Si       7.66250277      33.34879729       4.41122313
Si       6.95129005      29.20451038      33.48714714
Si      34.40030124      39.33581662      25.32068072
Si      28.55084766      37.30183690      38.38651498
Si       0.70788592      29.65016006      26.84576062
Si      34.39399102       9.29865969      29.11527859
Si      35.63096659       1.94445784       9.96170674
Si      18.92959111      35.04926543      35.23979090
Si      14.05189095      37.75248363      35.54974509
Si      12.90544458      37.59023605       5.05186675
Si      11.20727805      24.45191951       3.95423229
Si      18.05477565      30.80829176       4.69615011
Si      28.65942338      35.04307452      35.33617927
Si      31.99481211      28.02296615      31.71143103
Si       5.51592114      22.03341731      38.59423377
Si      37.86925008      23.93982331      24.56577187
Si      23.43512624      17.78301563      11.96183080
Si       9.73607487      18.88102664       8.65915093
Si       9.63167755       4.34133276      18.35817786
Si      23.67335843      21.46613266       5.74214148
Si      33.89320918      27.06657079      24.08263357
Si       7.85350036      28.77770447      29.33125616
Si      17.33343336      26.85694031      10.71925947
Si      21.86661345      15.97443478      19.58742134
Si      18.83640855      15.85218089       9.47621385
Si      17.60970868      29.53158197      24.53598615
Si      23.61061707      17.89233235      35.18778283
Si       8.51837463      29.53527270      17.34943894
Si       0.44412518      15.51954550      24.24070060
Si      38.81869431      34.87574073      32.08764055
Si      38.69508806      23.60862856       0.62764542
Si       9.35971721      32.37196088      14.49205210
Si      32.90889424      14.26915595       9.40185411
Si      13.88767327       7.57249671       5.73525020
Si      17.39669233      38.28834911      37.50038797
Si      30.88851249      29.88319404      25.61169602
Si      29.98799817      13.88236930      34.90273165
Si      31.00952199      31.10906067      17.09396596
Si      17.00936477      34.80051205      36.57383227
Si      35.12109907      22.16972781       6.24274726
Si      24.22379137       9.52125353      33.97811442
Si      37.51968776      23.54751223      27.12777598
Si       5.70693175       9.91431030      36.01926642
Si      32.14155309      31.63188580       2.54295141
Si       7.40377278      27.18666663      27.66019481
Si      15.82301462      12.40407485      24.35606110
Si       3.79233789      14.20327079      20.56426753
Si      10.12583141       1.49512754      20.84330700
Si       9.48698974      17.23946899       5.73576590
Si      24.21734332      10.14553279       8.29078666
Si      39.51277046       5.06031937      36.68408533
Si      18.12002365      25.47412454      34.01078814
Si      17.91425903      23.76530657       2.21784735
Si      38.97483820      -0.08279668      37.47191037
Si      19.06362945      31.73541540      27.51253052
Si      27.93120982      29.33262964       9.34244481
Si      24.03800971       9.23108910       2.35154811
Si      11.86099276      12.95514202      39.69212723
Si       8.63004310       1.44416913      35.82775497
Si      19.29556610       3.50561231       8.95781677
Si      39.54956500       8.24960128      15.18403377
Si      35.10271347      39.17739776      38.93067366
Si       3.37312163       1.13828279      34.61325587
Si      32.24932612      10.16052448       8.66065518
Si       1.27440591      25.06515606      18.69823590
Si      35.40440312      16.39524936      21.87592496
Si      19.91805169      15.97612289      16.88284760
Si      20.96622858      37.90865567      39.33035887
Si      15.76945060      26.14292580      32.35338845
Si       2.97164790      22.58728610      35.19835974
Si      24.33497327      24.75001959      22.70014761
Si      14.39806625      10.48729660      25.88824410
Si      21.43423048      30.23359673       6.48263882
Si      33.60197155       8.38881433       3.66861489
Si      23.51061304      25.22857377      19.02049207
Si       5.57098616      17.61105497      34.80580502
Si       1.93285996      10.03890823      12.59238312
Si       3.38199376      27.44038350      20.54001912
Si      21.49021355      19.91705998      22.25281575
Si      24.50316652       1.88375086      26.84650593
Si      35.24116781       7.82021435       7.89054633
Si       2.81287274       5.09349776       9.01950766
Si      14.16667164      14.68522294       3.42081645
Si      31.52824498      16.85539766      24.87863666
Si      16.05843414      16.93080409       6.19004384
Si      17.67250947      18.43514073      12.77197762
Si      22.67070935       2.25738169      28.62183478
Si       5.88046415      19.15848899      11.50152209
Si      19.11960658       4.95426386      29.55732458
Si       4.44784754      28.66627191      15.58045681
Si       6.30514206       0.44676593      14.97730509
Si      28.64691174      19.22864362      12.23617316
Si      30.74840771       7.27504291      35.49088288
Si       3.50861748      28.33303215      24.53653844
Si      12.28633479      28.92446071      22.13043724
Si      32.80825911      17.98060128      21.99056676
Si      24.74761182       2.76423262       4.06735289
Si       5.32739893      26.60710824      33.03104931
Si      11.29519302      29.07224556       9.88965144
Si      21.96727697      31.67023758      25.46052268
Si      32.74932588       2.44372439      16.91360987
Si      34.48769330      11.82949874      34.03492932
Si      10.31422094      21.94306567      22.64838404
Si      16.87433742      25.56212619       1.11332101
Si       7.89184303      29.54792943       7.77664561
Si      19.34009947      24.02014728      36.55066858
Si      24.98786761      17.74897247      37.08886589
Si      13.21276657      37.10391589      10.04158251
Si      18.44973864      22.77485586      30.87229182
Si      28.24008155       4.53292089       3.49027625
Si      27.08576378       1.14743158       5.08143591
Si      13.85221885      32.92050479      10.52157578
Si      14.99617479      24.63618787      35.17128156
Si      33.42636354      25.56543993      32.68086830
Si       7.00305844      11.13504157      22.47864721
Si       6.51771098      19.69144858      38.82284328
Si      18.99905423       2.61296586      29.37297470
Si      18.92589221      22.02253465      28.69491720
Si       7.13576910       7.05331829      28.22326913
Si      14.65646024      23.01416706      36.83854007
Si       5.20966051      30.55962679      27.70461302
Si      30.79011484       7.81028752       9.10677219
Si      15.77562600      38.16509802       3.13948176
Si       6.91947912      -0.61267402      12.70326343
Si       7.94837040      25.98672075      20.03862579
Si      16.16201666       8.04522691       8.72488032
Si      17.93279244       7.69804095      10.45115137
Si      21.79870757      23.64590296      29.54713512
Si      22.34919920      25.89692539      29.94156606
Si       3.94766005       2.58410572      24.28062471
Si       1.21566663       1.90932748       6.62948537
Si      28.92899629      12.61526668       0.05102367
Si      22.96324809       9.85085400      10.38015917
Si      26.94437610      18.98330475       1.70932397
Si      15.44234685      14.85940819      31.85975873
Si       5.01009653      22.43215735       1.53239451
Si      36.01657835       8.91741569      31.11195804
Si      28.86555836      35.03524081      14.97555124
Si      17.49982046      33.75037578      14.06463615
Si       5.95194527      24.83921941      10.90746473
Si      13.30310068      20.89529933      18.48078135
Si      29.60011895      36.90477794      33.91506417
Si      15.16147831      27.64472492      10.50936730
Si      20.29730058       6.52659844      35.44321923
Si      11.13990171      14.23795929      35.60370575
Si      22.24097543      30.59354822      35.24618495
Si       1.44132305      23.43972970      36.76792798
Si       0.36232527      19.90681318       8.16993923
Si      19.01488679      13.67459925       8.60580999
Si      13.51471043      21.15999789      11.51354011
Si       9.34179768       5.01677847       6.86383792
Si      27.92140404      36.62934315      27.62731347
Si      33.77540260       6.66155179      28.04662019
Si      38.30062335      38.10511560      -0.26402864
Si       6.12415738      14.22614169       2.90343211
Si      39.12412683       2.58025439      19.37018065
Si      39.09249655      37.83262593      20.89624708
Si      12.86326303      21.77285121       9.34002500
Si       3.48403024      27.81659266       5.47572302
Si       8.82577166      37.25756446       1.42453949
Si      29.39156188       8.84878870      23.47684144
Si      10.28005163      19.24252040      21.18899062
Si      34.72879490       3.27784810      28.67169258
Si      25.40063440      27.36562404      37.90600995
Si      29.76246697      20.70182004       2.94380308
Si      19.20063101      37.79361120      32.26163875
Si      17.22580736      24.30376496      32.17629553
Si      33.27016985       7.64807602       6.04337757
Si      24.88104016      37.26604509       3.76740846
Si      21.93582395      37.99319587      19.55538615
Si       5.78030545      16.97371505       3.10899471
Si      33.34144842      18.64414049      26.69466504
Si       9.76812282      30.20244836      13.67367560
Si      27.71007247      16.34368269      34.93435780
Si      28.10414938       3.21842158      30.65672633
Si      11.26636409       7.76512033      22.40884828
Si      17.49552728      15.51748446       0.65481392
Si      32.52315809       4.99523105       2.08403478
Si      19.20239389       3.52358115      27.21408771
Si      16.20468960      11.00940324       6.09008375
Si      35.01676129      32.54945357       4.93156842
Si      36.33721667      33.80980217       6.41829538
Si      32.89832255      26.42357313      12.73135605
Si      17.62201519      29.10012622       1.76041625
Si      10.02628450      21.01402879       5.58594071
Si      31.95789702       6.71015127       3.59046671
Si      34.55774479       6.13063594      32.23416227
Si      22.51620824      20.21885024      19.31439356
Si      33.06508780      35.20743764      23.83780446
Si      33.62334847      36.99987992      33.64126327
Si      23.75748576       4.22642799      10.10572251
Si      14.89968956       1.33083943      20.55521790
Si       9.90957633      16.63933525       7.96987399
Si      18.73894783      12.57066583      21.23111335
Si       6.90612401      37.42334080      17.92944181
Si       2.99306069      16.25615748       5.21371035
Si      24.04216612       7.45209760      35.08011851
Si       2.03512912      21.33610471      13.15549574
Si      11.21779647      36.12133868       5.77227030
Si      36.17582339      19.21438975      28.60532939
Si       8.01203985      27.84282445      24.76191517
Si      10.24753270      37.81134099      29.82011894
Si      33.20712398       1.93756412      26.13534397
Si      22.64054457      15.00695964       5.60073572
Si       9.73100297      36.95003017       8.54195611
Si       2.14155196       4.25125170      15.68485687
Si       2.89863885       1.51614830       3.00152320
Si      21.92352790      35.22561772      38.01990220
Si       4.69078434      21.53487676      29.40948011
Si       1.40778538      35.41604634      37.08453496
Si      11.59707562      38.38977907      22.27915029
Si      12.81484727       6.52954141      29.82867417
Si      17.60536732      10.63376091      29.21861913
Si      25.01542845      32.85272941      14.23488977
Si      12.34004037       5.40492630      33.43596508
Si      30.06371414       3.68845012       2.27233129
Si      13.89574456       8.32431247      14.41226724
Si      21.55130451      15.55706335      13.08346813
Si      20.71935298      29.96325694      26.48476289
Si      30.39715540      38.02806816      30.15190023
Si      10.63589238      38.06878973      26.72395052
Si      29.35491694      35.24675316      37.57294000
Si      16.03909322       5.30190164      25.55059702
Si      31.50157956       8.39790969      12.90575107
Si       2.58723445      18.64311280      38.96359862
Si       4.80659539      34.95269544      24.10444093
Si      16.16266606      32.36248598      39.65851737
Si      37.85880543      27.24234575      12.10258745
Si      40.01281996      28.26387286      38.06997438
Si       5.99793460      28.47290776      39.22192723
Si       1.89429866      19.79652478       1.58718263
Si       9.87608814      10.99609053      24.83733079
Si      21.45703814      25.46260138      16.12604732
Si      22.84732751      10.36977680      17.56923068
Si      36.32668483      16.87129399      40.14324922
Si      30.60317144      36.34426000      25.22961400
Si      34.44205114      20.33770642      17.86817286
Si      12.56119243      34.88060961      10.43774002
Si      35.13027441      33.72449741      31.41908856
Si       8.59480911      37.38129038      23.39173817
Si      21.53292865      31.58655438       1.42165730
Si      19.74110287      19.63540960       5.40201911
Si      33.00660814      15.79506798       0.84071251
Si      11.28154744      38.36782003       9.59505137
Si      19.79709175       4.74985383       3.70933581
Si      31.83486417      26.89553145      25.20709427
Si      38.96339408      28.81003567       7.88816695
Si      22.77057982      28.03882222      17.88445806
Si      39.35647430      37.42816715      23.19721906
Si      13.24049032      26.12594725      19.64079633
Si       9.69317655      19.53585836      31.47683020
Si      26.22006967      23.41921695       8.45559786
Si      34.57209972       9.83802300       8.90232980
Si      29.52358557      29.56051951       7.62982158
Si      33.49174639      28.50325613      14.23587461
Si       7.09677210       7.54623430      17.56758852
Si      14.57927582       6.17087570      20.78876040
Si      12.28466540      31.85659478      33.93254108
Si      31.45321956       1.73076218       3.24424114
Si      19.43843764      14.36547677      24.28674844
Si      22.66188263      22.74678203      11.23197984
Si       7.97186277      16.94182637       3.96190441
Si      30.74447611       4.04782172      16.90433886
Si      14.96099157       8.53491919      12.32910739
Si      27.87970923      18.29086383      14.25227892
Si      32.64063160      18.06694990       0.35855541
Si      20.16332413      36.77249965      20.50335790
Si       2.06663270      29.53464009      23.11825714
Si       5.74153482      25.18054343      26.63348847
Si      33.36999732      16.32724814      35.56432094
Si      19.56453117      29.62654609      34.07633312
Si      37.62677873      31.07987350      36.63350537
Si       7.32326669      11.47674365      19.88611161
Si      29.55700171      15.36409586      31.45566809
Si       4.51217671      25.65332357       7.52356452
Si      19.59019134      39.15940859      10.34462803
Si      22.59239170      39.95564091      28.14471608
Si       0.13514106      14.08637565      35.91767926
Si       1.56095401       6.90113505      33.75458484
Si      36.84449493      11.56365621       0.16514688
Si       0.55417419      29.06365096      15.12047929
Si       4.06087758      10.04343285      11.59139786
Si      38.11273998      33.55156968      21.45464235
Si      28.99822972      37.52628779      21.25590224
Si      18.09989679       9.03858505       4.60194025
Si       2.40528321      21.95734439      29.76619348
Si      20.26560669      24.91967996      32.47452128
Si      26.74120598      37.47284272      21.86338328
Si      21.02598570       3.93523727      28.63863566
Si      39.65552280       7.77050649       7.80804240
Si      19.14293283      34.73267444      37.56042259
Si      33.83282810       2.07296719      18.96765092
Si       8.75310791      36.18983934      21.03313376
Si       6.96298343      33.31159797      22.10251495
Si      33.23742920      29.96463907      -0.14880158
Si      22.34075257      12.78467930       7.17181036
Si       8.68518811      30.74249833      37.23711079
Si      37.46729830      31.09566751      25.32586040
Si       1.56247272      20.69350709      17.32902875
Si      28.92571622      19.63224868       4.86381038
Si      23.69490886       3.10761219       6.44933165
Si      11.11030377      37.46916182       1.94019640
Si      39.31550795      33.48022245      37.07010590
Si      29.58386119      19.11419018      31.88702481
Si      40.20409974      31.55964600       0.68636253
Si      17.82683180      37.08117060      12.90986521
Si       1.91241087      23.15713873      -0.53122547
Si      18.70674415       9.70629579      23.36859354
Si      12.33551426      22.39876480      30.02012219
Si       2.87270588      10.44714930       3.62968151
Si      38.45657795       5.88783684      38.61403816
Si       0.41923536      19.45852745      27.91931558
Si       3.12097904       6.70000273      29.35771082
Si       9.53901040       4.76201256      27.60408052
Si       0.11165542      15.95242604       6.57295577
Si      18.82216492      34.98551569      12.53948839
Si      16.76111039      13.65279741      16.46318142
Si      16.67719890      37.85431393      30.87783531
Si      35.24242790      27.97973779       9.41958340
Si      34.38058154      14.15157967      37.21057472
Si       7.38839138      36.84735839       8.38352988
Si      31.89859783      37.00421134      22.86695005
Si      26.92269084       1.48778009      16.56347742
Si      17.43617233      38.75059929      25.37245781
Si       5.85977126      21.76957927       3.62210708
Si      36.50101228      16.24080828      32.10696403
Si      22.14331982      25.45409325      36.71429849
Si      12.12842877       6.93947270       7.67611398
Si      33.23599677       8.54313977       1.35076523
Si       3.77987375      37.03523833      14.30825694
Si       4.48018645       5.08597371      31.44234562
Si      25.42216725      17.67654055       7.88289416
Si       7.48416398      13.42101930      38.61278278
Si       7.25773214      13.23409780      21.43914691
Si      22.05823334      12.01280269      20.62796563
Si      32.03796658      30.07476067      27.65434110
Si      37.52332339       1.78954060       6.71790662
Si       4.69125313       8.38871253      29.82062143
Si      38.58225568      15.31678888      37.18439340
Si      30.31015103       0.61313176       4.97204944
Si       6.09841565      35.17393044      10.71038290
Si      17.13399520      10.57191902      16.44634953
Si      11.25043452       5.88236293      19.69434063
Si      29.05829396      39.29714430       6.46741689
Si      13.23515786      10.33140053      35.14478686
Si       9.36570250      13.20715860      20.39575206
Si       4.04658250      39.87230288      15.29636310
Si      23.18345214      12.29069294       2.79319024
Si      25.45140499      26.43313627      33.39185005
Si      14.29079046      24.81195695      29.85600536
Si      28.76674026      35.25545998       4.99340287
Si      26.53117633       4.14564406      20.94687011
Si       3.44593637      14.75825383      24.09694432
Si      17.60343962       2.76787703      17.83422908
Si      31.23136527       2.29125552      27.35996421
Si      14.02522694       3.42010879      19.92666514
Si       3.25871017      31.13623803       8.51210525
Si      20.54370171      10.32231625      27.89199127
Si       5.14711894      37.81467100       6.15097443
Si      24.92688173      13.77280646      21.98018924
Si      33.79608289       6.36634210       0.65917905
Si      38.69710622       0.41076208      28.50384499
Si      23.59752876      30.09530879       5.57095229
Si      33.21870782      31.82759938      16.72838583
Si       6.48837780       4.98700050       1.04863328
Si       7.85867360      36.59122466      27.31250221
Si      18.89427215      14.39064801       2.72727156
Si      28.88816284      17.49839460      16.22406608
Si      11.46714055      29.97168019      12.05802017
Si      12.32773467      15.13548813       4.81407263
Si      37.24826657      29.07666974      32.40345352
Si       3.94140290      24.06987375       0.22696648
Si       2.54269428       3.51135447      18.29107532
Si      33.66208492      26.26775464      14.94854500
Si      22.98852624      36.28010919       8.02411393
Si      12.87377616      34.91006648      13.28913161
Si      13.35946422       9.17826124      21.20842113
Si      28.04423874       4.19252241       1.17390341
Si      33.39265461      30.23448574       5.90089086
Si      37.68809214      10.79213178      12.62167977
Si      27.44451098      36.19231357      23.70946810
Si      28.86358847      21.03048531      19.13067163
Si      36.63668585       8.58263493      37.98420021
Si      15.34961840      33.59335185      33.75185135
Si      23.98368036       2.14525847      34.68134397
Si      23.15069552       1.13071288       4.62562428
Si      37.21710944      39.11788777       5.76626725
Si      33.89374515       8.61738045      36.85119041
Si      12.56984064      32.26816452       7.41778819
Si      36.58619737      24.63633514      11.89199098
Si      23.34831900      38.88211195      15.27048362
Si      34.16730422      24.77930629       1.30529796
Si      22.61924522      29.49440447      22.88121200
Si      35.52125121      14.92503755      27.79576135
Si      36.90735614       9.16828830       5.33624065
Si      23.58863919      33.58744280       8.49077587
Si      37.57232268      27.61765624      27.96291545
Si      35.07956843      37.92837583       7.56939345
Si      35.28700162      24.78236724      37.45200012
Si       3.70892782      34.01021662       8.71526040
Si       5.84922870      38.08173364       0.09959274
Si      22.75361957      31.95965858      12.23737058
Si      11.12585473      15.14390727      21.69074371
Si      27.21471767       5.60016698      14.38188839
Si      16.54041373      32.51142741      36.83929094
Si      32.07975330      18.12265848      33.43676444
Si      12.68023611      33.87584529      18.23491069
Si      19.72546198       6.20078829       8.69644104
Si      24.69967461      23.49663229      17.96362572
Si      30.72088509      39.94576946      25.64279046
Si       9.26700982      22.71782209      11.23785672
Si      31.50388468       7.46603521      19.85909106
Si      20.83324389      20.96761347      29.57788881
Si       8.68720653      24.05330814      14.06578248
Si      31.87608530      26.87132219      38.76269322
Si      11.36544259       2.56958806      25.92057861
Si       9.55571863      10.28449863      37.12638739
Si       6.00385787      22.73569624       6.93568112
Si      22.73344026       2.94919202      32.85896394
Si      28.95408243      21.59029747      26.09481963
Si      37.80061765       1.34266440      21.53466581
Si       7.19178332       4.81562997      27.50370031
Si       8.30189245       2.40440632      33.70593408
Si      13.07501640      16.44514195      37.71776755
Si      33.61086773       9.75624067      24.26137707
Si      23.95687169      37.51710011      31.92431711
Si      18.64230236      36.35241050      17.12735608
Si      13.06434059      17.94524869       8.54065927
Si      19.94919675      25.90203462       4.22069541
Si      39.73151891       0.91118602       8.83279147
Si       1.36818905      40.73245614      30.35222945
Si       7.32765139      19.55827509      24.34571021
Si      35.95874420       7.18098869      21.50546747
Si      20.70867417      15.53695884      22.69046141
Si      37.09197874      28.29446459      21.26379711
Si       7.38239802       9.01998325      23.45126032
Si      20.64424647      35.52533996      26.00701080
Si      12.02506002      33.05943277      14.46421838
Si      19.38968617       7.65461785      15.59171177
Si       3.45892262      39.06758679      13.16641584
Si      15.37837607      21.02705901       9.12727778
Si      19.48319810      40.02092316      22.15263040
Si      17.98777368       3.33494583       7.01103266
Si       2.58930609      11.12438042      16.11414312
Si      28.62857201      34.59083313      18.32508952
Si      18.45875762       6.57916277      38.03926541
Si      14.23828847       9.88235250       5.46130549
Si      28.17258319      21.05015001      10.28102550
Si      22.57134332      10.10948682      35.54278728
Si       5.31462266      19.01528888      32.93588321
Si       7.67183064      34.24647321      33.76194539
Si      13.96626305      16.12509451       9.72562839
Si      11.79790448      18.45471492      17.75394340
Si       6.77719973      33.39100804      27.88066928
Si       9.59534178      29.02405881       3.36756334
Si       3.27569625      27.18627353      30.52896082
Si      14.02479254      23.55278298      31.82442523
Si      23.56825170      39.44757749       1.48017718
Si      30.29178305      15.67533668      16.70715533
Si      28.21788236      39.22186501      10.53413297
Si       1.95893184      33.99772999      10.28369989
Si      14.73572940       9.85947914       1.53804141
Si       4.38982544       3.19684173       0.78361059
Si       6.14455620      26.53139251      18.63457431
Si       1.00293552      33.74292022      38.68688279
Si      35.70687994      11.25485109      11.15436137
Si      25.69884979      30.33222642      25.87579119
Si      13.87129956      36.84395343      29.46365972
Si      29.07423538      17.85879002       9.05296010
Si      27.79071212       1.53194850      10.50628126
Si       0.26429807       4.44138995      34.54615522
Si      33.82408422       6.05544822       9.96171830
Si      14.77985296       1.31013437      11.53877368
Si       0.32293552      11.60514786       8.60399026
Si      35.97894193       9.19936713      12.26702810
Si      20.32705390      23.68572316      20.14609275
Si      16.69179206      10.29230346       8.27660395
Si      23.68114689      30.12538798       9.37526764
Si      38.54170501      39.96328813       3.26292407
Si      16.41990430      38.98189317      17.14148331
Si      32.03107766       9.02006687      10.70165908
Si      29.69189474      13.56025954      15.87321707
Si       8.97102936       1.12978988      28.21175422
Si      20.39536422       7.75989422      37.44031790
Si       1.46474944      30.66586249      16.58141378
Si      37.30284062      32.87726530       4.48814699
Si      39.14262487      11.86631288       0.55461858
Si       6.17286870      17.95888440      27.91905628
Si      16.13069079      19.91519359       7.19645117
Si      35.73821915      15.57549226      10.82061590
Si      24.22134825      21.60768064      12.57314671
Si       7.86047459      22.43996729      22.99668548
Si      37.75115869       8.75320262      13.75575378
Si      23.60623551      23.14900343      14.74358036
Si      35.97178881       2.11703863      12.74246713
Si      27.19084458       9.49452640      36.79888968
Si      10.08880783       2.21189671       8.09431305
Si      30.45453948      38.73413024      39.34042024
Si      32.00117912      21.47415444      15.54088020
Si       6.84046860      17.93787057      18.67876633
Si       2.63221161      10.37076787      39.17228180
Si      13.21254774       4.49150535       1.85185583
Si      26.50681393       6.33262795      21.81545656
Si      39.64685950      31.00896199      29.54250325
Si      39.59531166       9.01402798      12.32927825
Si      28.74715492      34.24026452      23.86625560
Si      14.77871920      18.43042816      27.78348492
Si      37.04642205       4.05902545      39.05556718
Si       4.39236913       6.07340205      17.99853196
Si       5.67030376      22.47550743      17.05836565
Si      10.31916603      34.23922178      15.55747800
Si      32.79199397      10.25012311      30.54798543
Si       1.79666536      26.37802298      28.88790473
Si      15.34049229      33.36602903      25.05550914
Si      11.99103952      30.72158489      14.22920091
Si      13.23467715      15.34704919      31.21024236
Si      28.17917537      22.22793424      38.03930582
Si      25.47730755      16.67729350      32.87379227
Si      25.19913750      32.35308637      26.97095041
Si      35.50825263      36.91190336      38.44807061
Si      31.17619169      35.52431963      11.69094399
Si      32.08058341      38.02031851      16.91689584
Si       6.68218767       9.58255422      18.65940767
Si       4.70359445      29.61306626       9.57183508
Si       3.32308649      18.73167213      14.64338272
Si       2.53519377      19.06016856       8.47353182
Si       4.10882096       3.93491414      26.19685710
Si      30.59576368       5.26070688      28.52090917
Si      26.90203572      22.44413415      21.31486949
Si      27.98494165       9.33287247      12.51108959
Si      19.46741945      28.83505716       9.11011155
Si       7.48561658      21.17266878      15.81062225
Si      38.69806739      18.92766536      29.43154631
Si       3.94753455      12.31662580      39.21751954
Si      31.59151621      32.84765218       5.16082395
Si      31.54790916      17.06268943       2.18180689
Si      15.77025712      27.47812126      16.23530164
Si      22.37203859      37.53758120       3.42117787
Si      21.93706826       8.22201915      29.48769665
Si      15.43342798      33.59231247      22.34856777
Si      23.17781430      38.70468751      30.05157802
Si       8.41219085      35.53313746      10.95856496
Si      19.74586861       9.44986205      13.77659726
Si       7.55216462      26.90759406      40.03741771
Si      31.59869374       8.53926822      24.22878142
Si      20.26549959       8.02300153      27.48446587
Si      35.22300349       2.45674282      30.81794997
Si      15.94460682      13.45640768      40.20016915
Si      12.39654994      20.47560696      25.20564036
Si      32.58702692      14.98438251      31.38412726
Si       9.41841731      38.17879053      19.97907527
Si       6.42278360      39.96827752      32.10839931
Si      25.02106411      26.97011849      30.10582774
Si       2.86810286      34.37996242       1.97237638
Si       2.16127075      -0.56313501      39.61320551
Si       5.22426032      10.60299169      17.12418656
Si      21.40355069      31.83060090      27.73965387
Si      31.54038102      36.60462433       6.84790530
Si      35.89795258      18.37028036      23.05325264
Si       2.45119136      16.88418422      34.18201424
Si      15.71178391      19.18591560      38.83484487
Si      37.75299398       2.60394558      14.19818732
Si       4.97310153       4.74550363       6.04158238
Si      32.78602469      28.91763817      10.33393980
Si       4.36582902      12.64815078      16.34368404
Si      12.56749863       9.47129489      39.14814009
Si       8.07097305       3.17583857      28.94113913
Si       5.01320433       5.46952302       8.27920493
Si      23.49434547       4.03304251      22.17832843
Si      18.99073102      17.24526827       0.09379525
Si      17.83000415      28.61887395      38.70694618
Si       3.14478280      25.72226812      23.85925542
Si      36.90447217      25.58995818      21.03484032
Si      12.67706996      17.21042279      32.54085632
Si       7.12776086      37.69195758      20.25007360
Si      15.60967409      38.08488941      32.96065269
Si       3.99370824      19.09845881       0.79246877
Si      37.98840180      13.13620785      35.78444520
Si      23.85546717      19.30930954      29.20580015
Si       5.12981006      34.87507267      13.29473195
Si      18.87424423      31.88805476      18.55277048
Si      30.40291238      39.39272640      21.40619685
Si       4.95112865      11.00428202      30.01081216
Si      26.09241518       4.90108091      16.32630012
Si      13.15759855      14.18283643      16.67446081
Si      36.40560162      10.52455240      14.55858289
Si       8.00373621      21.02718459      37.58335456
Si      18.97121704       2.01826591      25.42173708
Si       4.96595004      11.86522479       1.28832383
Si      11.02420816       3.13525586      36.93209896
Si      17.40395201      30.90165842      16.85899854
Si      18.70463649      25.02100797      21.20216774
Si       1.70810025      26.32412983       5.08946000
Si      14.36159485      34.57559802      15.07911579
Si      35.52116051       7.27664925      29.49868570
Si      15.69877765      39.35784474      38.72595336
Si       9.66432460       3.68825527      21.55705938
Si      10.92549697      18.02558054      23.09519575
Si      19.72956050      15.57497664      14.57547223
Si      13.37127398      35.32143239      40.19459115
Si      15.24425807      25.08852752      21.82721822
Si      19.01381630      20.13958192      11.86420934
Si      12.17410524      21.78770594       6.14987247
Si      13.91882681      11.19912334      23.69693635
Si      26.08608859      20.86027546      38.47207981
Si      14.25685399      28.81919959       7.28540306
Si      31.24292431      32.48907703       9.01374344
Si      36.41259167      37.45891367      34.15302741
Si      17.44953882       0.85944816      16.16991833
Si      22.12669570       3.84712112      11.75642490
Si       4.43989745      13.25788359      11.54313095
Si       6.89203751       1.70767706      13.08108744
Si       1.07170208      38.86168385      37.61045445
Si      26.21906025      10.91406911      26.29868807
Si      29.49184185      24.71144332      29.99953561
Si      16.24326990      26.78122803      19.76041034
Si      16.32141576      26.57518689       8.00788028
Si      34.58478396      28.86444446      18.96492440
Si      14.51213800       8.20454548      38.80318514
Si      17.31543577      11.50716311      22.77271655
Si      18.79037033       1.28715532      14.28589180
Si      34.14908841      26.78731381      37.00817148
Si      21.38436224      23.21181149      16.80347705
Si      31.74719117      18.82545093      38.32132228
Si      29.38359718      12.07751023       3.06730642
Si      13.87246147      22.21927410      24.65101446
Si       8.63815332      35.26391483      14.27778251
Si      28.57572994       5.51786331       5.59601221
Si      13.96114679       6.83071840      35.90100267
Si      24.84670730      39.46121659      28.58687225
Si      14.30908650      18.25121459      20.62087941
Si      39.90073186      24.23804669      31.63790674
Si      15.38870896      24.48474161       8.54685447
Si      15.89575789       8.77433505      15.56791117
Si      15.29241606      15.32521496       1.46055750
Si      21.01604837      22.43745105      31.40521717
Si      23.66569067      29.62559865      33.64596145
Si       7.29520701      28.23015817      19.77978602
Si      27.54552718      16.95721365       2.72671279
Si      15.61060341      13.00711743      10.02193585
Si       2.50582325       8.05847811      38.78942520
Si       6.79432353      15.54822931      14.28042659
Si      19.90012105      19.24930784      18.28182978
Si      11.18842346       0.51144098      27.73251355
Si       9.78631093      25.48656584       2.39201222
Si      19.26806250      11.11125461      38.45707078
Si      31.66571063       6.57314746      25.51642544
Si       5.53348717      18.39872400       8.44039578
Si      17.75930838       2.25076894       4.22135042
Si      24.12087458      16.74429734      22.32981219
Si      37.15439499      10.16051045       2.64494133
Si      14.88496633      12.95956190      17.69962174
Si       3.10823496      30.05397240       6.09429365
Si      12.38500937       4.51112717      25.06957383
Si      31.35164097      26.48652394       6.91580488
Si       3.17234417       5.57320218       2.52444434
Si       7.22723690      32.25130045      18.08549140
Si       2.37813505       3.80153893      21.49678066
Si      39.13829968      34.65782846       4.44432029
Si      26.24087962      32.82798589      30.63757259
Si      10.17802001      39.86797922      11.02916991
Si      38.83715500      16.40214337      16.40405306
Si      29.29414616      26.70079835      35.33634365
Si      37.92717163      11.53786794      10.42808817
Si      33.45670139       7.05589147      12.05202448
Si      32.15560727      35.17395096       8.76520106
Si      32.43860992      22.89616985      33.02879937
Si       6.37133413       3.67152057      34.15405419
Si      17.84408491       6.54106475      31.40457554
Si      34.94320534      30.69954589       3.47520471
Si      23.36455108      27.78636902       5.18917236
Si      38.09266814       8.73574148      26.52224717
Si      14.99957390      38.99155227      20.76284526
Si      32.71314901       0.91817722      23.30018126
Si      12.40335022      25.14669673      16.56996960
Si      15.37477107      18.48825682      18.53857929
Si      29.78450024      30.75248053       9.63778846
Si      35.88974192      37.72166187      26.16300585
Si      38.97709350       8.46548285      38.17164653
Si      16.77004637       4.93141083      17.44134534
Si      31.65102975      24.83505775      39.91320281
Si      24.07384747      28.00452785      31.99284436
Si      27.66108570      10.41659437      23.77012129
Si      36.63410284      13.41061413      11.00928409
Si       0.66935572       3.48321872       8.28929721
Si       2.33185023      20.20084031      26.76935975
Si      15.38703763      28.00873700      30.97254406
Si       6.14139973      26.78567017       3.99634970
Si      16.12053926      30.57380439      14.29154150
Si      13.24154652      14.35344052      36.65759321
Si      26.85468615      26.95770381      31.57905820
Si      29.35755086      28.49043543      24.49509075
Si       9.78795711      34.30065246       4.74696673
Si      31.62540697       5.60145839      18.43363004
Si       5.52839397      30.79926069      25.38750779
Si      36.43892894      12.57644317      22.85040972
Si       8.75161758      17.36544045      22.48478101
Si      39.29850008       3.98609038      13.08696826
Si       5.20827852      13.98330859       0.29216988
Si       6.20352124      39.39834948       4.77023878
Si       1.37373650      19.26539691      35.42867818
Si      17.25113804      36.03392861      21.07006161
Si      13.29562980      32.20363329      12.68827360
Si       1.50648624      14.83536111       8.86892852
Si       2.95366419       7.97850457       3.02927305
Si      10.80767516      21.95850810      26.10497404
Si      36.51841409       4.10809951       9.71965490
Si      16.66029010      36.93985528      10.51976001
Si      18.70752706       8.83212585      38.68726434
Si      26.02732910      19.81407392      15.61541018
Si      35.36462712      40.30493596      29.02954643
Si      23.31173851      38.02621552      39.43605149
Si       5.52058892      34.84583722      29.23815094
Si      32.44458460      21.05590723      38.53924725
Si      26.08422304      22.04102680      32.73628449
Si       2.15607710      15.27596777      30.37434461
Si       1.87158900      11.29193275      19.44319540
Si      30.47162831      26.49127088      32.64109549
Si      39.17869598      25.08036857      26.47942731
Si      10.56270099      34.76407686       0.28774546
Si      26.28375068       2.89902055      22.92367101
Si      32.60226086      38.11585444      12.79851198
Si      30.25102691       2.84925405      34.38473083
Si      37.54350143      34.68105601      27.28490542
Si      21.39841213      11.54103912       9.90212156
Si       9.58754361      11.08212078      19.41020834
Si      30.13906219      29.41825575      32.08535543
Si      27.95363590      30.56429116      23.86956447
Si      11.56878709      28.19689840      39.28149640
Si      34.04447885      11.43782592      25.84467619
Si       9.55867118      13.71404963      22.68798990
Si      40.47882681      38.14345074       0.62702283
Si      35.51236420      38.15988496      32.10267356
Si      11.03882225      23.44939475      24.30086310
Si      23.35534948       8.38724557      13.77416365
Si      32.61668133      11.98929520       7.24804380
Si       8.28482230      28.72239254      38.73376536
Si       8.58830690      18.62111962      11.70365721
Si      11.05131966       0.69644306      35.60926996
Si      12.41072112      27.87895944      37.10906537
Si      17.72821176       3.69943471      38.13092441
Si      36.30595059       4.81889861      14.48990561
Si      33.63583680       6.48469973      19.97417494
Si      22.97567606      12.78709902      34.14320485
Si      22.36168442      33.92800050      27.28550873
Si      17.50185635       6.99904484      26.27222737
Si      14.29934938      19.36928959       5.82607844
Si      31.81825447      33.46225819      39.34857105
Si      24.91422034       9.32294025      36.21796907
Si       0.47144289      17.42977503      15.06100110
Si      22.48970164      13.29753038      17.77411890
Si      26.92730529      21.82833759       0.65700932
Si       6.35169977       2.14532688      38.05762167
Si      12.62637253      35.13805456      21.58096512
Si      22.52051273       8.13573439       3.77344180
Si      20.87179463       8.60613904      39.57367635
Si      29.90311797       5.26082799      13.01524769
Si      27.62624219      26.94085598      24.13248464
Si      37.85334563       2.29221584      35.04004740
Si      23.41388978      32.51870683       3.50566216
Si       4.49966263      32.80415139      27.83706798
Si      11.22887799      16.50543488      30.82800123
Si      29.52680935      29.31201706      37.53437189
Si      34.99199671      23.81160827      32.62412583
Si      30.20324311      23.04919914       7.04893942
Si      24.72466390      24.56494230       7.04601255
Si      31.59996878      31.54401122      33.12375589
Si      24.13810787      38.04934747       6.98659416
Si      35.72607994       8.29030693      14.82069962
Si       2.92468566      12.70202952       2.10478837
Si      20.77868077      18.24824215      24.24899677
Si      31.36567173       5.90597962      37.29867439
Si      10.43443665      21.90769224      39.08424496
Si      11.56852674      33.64970314      38.47808938
Si      31.48853593      36.70249424      39.91835248
Si       8.03703935      34.05325153       2.19781905
Si      10.57859469       3.56609325      32.38930269
Si       9.56066563      15.38811063       0.22477785
Si      26.17642610      23.69066951      28.51278364
Si      29.56551138       2.86974203      21.04041269
Si      31.20102783      31.85111782      28.94838258
Si      38.29385677      25.82980707      32.28157565
Si      17.56063122      21.31869928       1.28874741
Si      18.76408567       4.68662457      20.03884726
Si       8.16193806      -0.71317452      21.62243929
Si      24.24668404      39.64900137      38.01590013
Si      23.16372935      25.88834864      33.38606240
Si      26.61811055       0.07212899      19.32395968
Si      28.34765684      19.22068462      23.96521279
Si      39.08126156      13.96476390       4.90792267
Si      13.88037974       4.06638390       6.95016723
Si      30.63579829      27.28299654      13.59167205
Si      28.86567008      39.98077854      38.13545509
Si      22.95692340      18.47831630      23.39812108
Si      21.81886653      11.34860408      30.72574673
Si      31.89683083      24.10975094      22.61432531
Si      33.64786001       5.15509868       6.85270374
Si      18.62860558      27.02984598      37.16717416
Si      27.49061363      15.72561136       4.72221590
Si       9.69542429      12.64687855      38.81855284
Si      37.43809329      27.21588124      35.95850232
Si      38.52181613      31.23650850      21.49835781
Si      36.56356734      20.60494962       1.28849042
Si      19.72614033      30.32780609      23.89005638
Si      28.44169162      35.61488301       2.69222130
Si       2.16689989      22.94665574      17.03241419
Si      15.50086386      10.80393282      35.55981523
Si      38.70307790      16.85774527      19.84211316
Si      14.82910310       5.42802241      23.53758616
Si      16.16310767      34.71860344       3.50828010
Si      26.07678857       2.59144894      25.24770232
Si      27.02407484      10.61898415       6.02011496
Si      13.08952959      14.43063734      34.31045981
Si       9.45249554      19.49007045      38.61914008
Si      26.21173581      31.38315977       0.16229870
Si      17.10016954       2.04174512      28.11128109
Si      39.66311016       1.89897325      26.95923799
Si      25.39516217       7.15758820      36.98771309
Si      37.12071939       6.99844852      16.90763241
Si      23.35760555      35.33395615      23.60539599
Si       2.40640896       0.78647051      37.40020657
Si      39.71410835      31.59294453      23.89556672
Si      14.55668554       0.31845128      16.62155763
Si      25.90646676      10.87401745      22.27134343
Si       0.37335386       1.37816057       2.84719210
Si      26.44131512      21.38506813       6.36547631
Si      33.63486603      28.45854913       7.77109692
Si      10.50762521      32.83136800       6.43648254
Si       1.09822629      11.78941113       4.92211343
Si      26.26405909      12.27623729      24.12442441
Si      30.75291410      12.96685039      36.92929113
Si      39.25325981      23.23502632      20.00626350
Si       3.25563210      26.31689396      40.12493087
Si      22.37795011       9.95315874       6.38815135
Si      22.83976904      -0.01554611       6.65537649
Si       5.90887396      37.05873684      28.54103055
Si      30.83063349      19.57547698      28.70374730
Si      19.76057857      16.26617480       5.42949961
Si      24.13140161      18.55739143      18.93071392
Si      36.14691709      36.83339088      16.24778415
Si      15.07080098      19.24958752      14.57549673
Si      17.49927110       4.85511437       0.59719681
Si      27.57352231      20.20060763      17.34624862
Si      24.78830805       5.53971327      33.93420672
Si       2.67631250      24.66021532       6.44007788
Si      35.01072332      38.86180056      14.74650727
Si       9.95674243      36.85597975      39.40185906
Si      31.09635563      13.58349706       8.06655864
Si      28.88876005      30.95052893       3.35536073
Si      21.34544875      18.24917345      19.84233764
Si      21.48403545      22.25307937      22.52351110
Si      23.63780345       4.51301959      17.88791502
Si      27.75161583      25.95952488      33.51091075
Si      16.24881066      22.29047353       2.98133011
Si      13.76439479      25.36217518      33.30390485
Si      15.99356311      19.54538435       4.20397966
Si       2.70535455       2.75210770       9.21162733
Si       3.30899709      16.32472966       9.11605761
Si       3.37916557      11.95521405      21.12159900
Si      15.94041218      33.22468365       7.40329341
Si       1.08818699      24.83421992      34.90813022
Si      12.04594835      12.39515547      24.47009528
Si       3.38484618      22.54315674      37.74097031
Si      26.65569565      14.28906062       7.33258087
Si      19.14490968      25.09459177       0.71748030
Si      27.28356319      12.27875694       4.10843218
Si      34.39617615      13.11623752      21.41239597
Si      15.44730724      39.33997454      29.09306851
Si       6.32708865       2.11670959      23.09453615
Si      25.91431343      29.84461684      22.94392990
Si      25.15577883      30.97849156       3.85458159
Si       2.40511279      37.54970727      30.84722653
Si       4.47996113      28.68137556       7.42315778
Si       1.57870677      18.10681012      11.86625060
Si      38.68510301       0.33075634      15.44256756
Si       2.65393714       9.66875623       1.42019863
Si       4.39102842      36.44603147      11.70903449
Si      36.77747807      12.30681378      20.03847125
Si      12.21082916      37.34057262      39.86626777
Si       4.54521251      35.44436315      15.86606428
Si       9.82640691      21.22117467       9.51230352
Si       4.01170217       3.97685039       4.03655721
Si       6.21208655      27.99399398       1.63566235
Si      27.32452161       3.11396961      12.18035728
Si      16.29254720      36.68274361       8.21219474
Si      37.29924769      33.94015729      18.43738415
Si      19.05667185      11.57588550       9.66605817
Si       2.41306179       1.11927865      14.15336606
Si      33.85503844       8.00039658      30.99506315
Si       1.82585317      22.20448670      24.02439722
Si      26.32408661      14.64387232      25.96455948
Si      10.14788715      28.35782070      22.93844310
Si      17.07866530      19.69327355      36.69286892
Si      13.14965515      13.63767225      12.31994307
Si       1.62493545       2.98196860       1.66900320
Si      25.44249112      11.60836407      17.39530827
Si      34.27722933      16.99617798      32.22970165
Si      18.98399966      16.27429399      11.78551707
Si      33.41657251      14.55714973      28.77650834
Si       3.70907499       7.47244499      36.85970638
Si      39.92119353      17.77249925      36.51632514
Si      23.18432161      35.81017481      33.34763064
Si      38.98058410      21.60827814      37.69788231
Si      12.93800252      33.89872263      23.55660311
Si      34.79325772      27.26450178      11.61547321
Si      29.63574250      18.48295219       0.48121114
Si      37.96824521      38.02509746       2.06155803
Si       1.67836808       4.89145817      26.11806169
Si      13.80886535      17.84934934       4.10015122
Si      12.56651132      39.12994438      17.50973678
Si      29.76059524      24.69363035      38.51804040
Si       4.04844320       2.90430797      32.20761499
Si       7.05534819       5.87108966      19.23749599
Si      20.13001130      11.89098932      26.18949963
Si      32.11796647       2.67868692      32.96483000
Si      34.20718673      27.60109083      28.47725928
Si       7.61530941      38.67055359      38.66015243
Si      16.58101417      21.72978182      31.84555198
Si      31.58643990      27.00273978       9.67722276
Si       0.67806185      36.17728063      10.92878519
Si       9.57700906      18.86332647      18.41107496
Si      30.48264296       7.87590339      33.23255922
Si      32.19400005      10.45100737      20.48859834
Si      35.57759215      18.86499336      11.46439469
Si      19.42416704      33.34334134       7.93689098
Si      23.60676046      31.62106022      28.54012512
Si       1.12307330       7.53303915      22.64176899
Si      21.84807946       0.01439874      20.75434884
Si      12.40000603      11.01699721       0.91062054
Si      24.33124006       3.42878675      29.80591706
Si       4.33488296       4.73187265      36.61824585
Si      27.06028959      20.33778439      22.34649316
Si      12.51693601      15.18158571      28.97222546
Si      13.66674995      23.59216264      27.36279198
Si      13.14597071      25.00855219      14.34383895
Si       0.04600084       7.62274643      35.40088843
Si      14.82379691      20.37213310      32.62330029
Si      31.32198290      31.52682303      11.68683477
Si      24.12711000      30.75332223      24.17709449
Si      15.83630127      26.62729568      12.51821666
Si      23.44259003      28.48700804      20.92182814
Si      32.07435806      15.12017872      23.38840475
Si      16.21390563      38.95775142       7.62182422
Si      15.00198920      28.16020314      33.28732024
Si      32.46606327       9.82356315      27.87658544
Si       1.27286260      27.84773546      19.58315343
Si      30.58127182       5.68437374      15.22462773
Si      30.16005043       3.74358907      32.21264327
Si      10.03922487      38.93700660      31.87532019
Si      31.11542404       1.43478772      13.84205984
Si      28.64326709       7.11043695      34.46442811
Si      37.52521732       2.80894864      26.60566079
Si      36.41066241       6.99166527      12.96837350
Si      26.60055610      28.71068232      30.03154590
Si      16.00538005      12.11061705      38.27799318
Si       3.69311528      21.14308714      23.06236433
Si      26.56636164      39.31987164      26.99907465
Si      35.66797890      25.75234191      10.03834010
Si       8.45948694      38.35775035      25.88123631
Si       8.48495496      15.99020313      31.85914434
Si      23.74433974      10.38432059      31.67083540
Si       9.52959732      14.92588426       6.15436998
Si      13.19300009      31.52107152      29.47458979
Si      33.60805942       4.41250544      18.85613898
Si       7.60988596       7.26712483      15.28942758
Si       4.51859487       3.94965299      22.45661590
Si      16.16045027      29.15930129      17.83103915
Si      17.17297979      24.78490538      36.05024694
Si      27.20183379      38.82642566      30.46012771
Si      23.37603702      14.95655943      11.72471379
Si      12.56735404       6.00428722      23.26246650
Si       1.89889416      18.19080211       5.98568969
Si       6.64252090       5.16999056      32.36050374
Si       8.50980465      34.40455775      35.95364909
Si      12.73752203      16.65261408      22.49174199
Si       9.38697255      21.04922755      35.18961522
Si      15.58438789      37.62826844      12.49169990
Si      39.70415708      29.98615168      36.49921479
Si       1.57235222      19.20048707      21.75270150
Si      35.14488325      32.36922849      23.97376645
Si      35.52012163      30.96160080       6.59095297
Si      32.79696955       6.47183665      15.21270654
Si      27.01089621      29.19183114      32.29656875
Si      31.73680167      36.36595824      20.28233461
Si      27.38353606      38.78404582      12.81547539
Si      10.21966942      10.81893297      28.69946743
Si       7.33898538      30.51624916      15.56743627
Si      38.66361028      17.87531750       2.42099345
Si       8.96122422      29.31574791       9.85414191
Si      12.82979141       8.09027219      33.66445832
Si      22.43769397      29.78134529      37.44432114
Si      28.03555153      33.13623729       7.42612895
Si      21.36693269      37.20649960      12.89155254
Si       6.06923918      23.70673557      37.03697387
Si       2.80868347      29.77813135      34.99147868
Si      33.48936016      16.63467644      38.69804953
Si      37.15691439       6.08554623      26.13663686
Si      12.98870186      11.50051543      11.35204367
Si       9.07059318      28.29561088      14.86512474
Si      19.63391940      26.96694158      11.05471965
Si       0.74932226      26.72190390      15.02741046
Si       1.34083533       9.50609911       8.87193713
Si      33.18290578       3.43783116      20.95200598
Si      33.20583366      30.80781276      14.60928586
Si      36.86774852      31.66104841       2.52330529
Si      36.77309317      35.99185910      32.35437601
Si      29.51067150       5.05723105      20.18586840
Si       5.48033779       9.60162843      24.68793594
Si      31.00649752      12.89044407       5.81661296
Si      38.37752872       8.21106960       3.15653712
Si       8.93347745       6.79963566      25.81109535
Si      34.24398173      22.62427568      34.51088419
Si      24.10274124       4.35567194      15.20781226
Si      38.96941511      19.64813163       5.52080470
Si       3.40137801      24.78757843      34.48878467
Si      26.86103267      36.11474608      15.56484858
Si       7.16212027      17.21934433      24.21590068
Si      16.88520973      37.13630080      15.76472823
Si       9.91810472       9.04878079      32.95889270
Si      22.75991927      24.37449698      12.92587149
Si      23.59723989      10.83401556       0.69226585
Si      32.77468130      27.22614399      16.90377693
Si      13.77676947      19.05698944      37.50414068
Si       8.09905622      30.24412861      27.51885355
Si      29.16376109      15.30186187       3.11466244
Si      28.94757226      27.03530800      37.63817422
Si      34.85185414      27.95384790      16.07448302
Si      26.67422931      19.07630320      19.18981824
Si      17.48499101      25.14454411      15.41142707
Si       3.46746951      18.24071278      10.47099293
Si      17.41263383      15.75966731      30.94385038
Si      39.74971835       8.29162191      10.09829202
Si       2.75065177      32.53162107      15.95223314
Si       2.99424628      35.17248782      20.50644690
Si      37.14758124       8.30026129      18.87436709
Si       8.54655215      23.60906085      38.32379162
Si      28.84533500      14.60647079      21.17844694
Si       6.51815353      17.98268612      22.08673406
Si      38.00957605      30.96401112      31.22874375
Si      19.76776834      17.66794956      13.51124250
Si       2.62331451      11.72202301       8.09990618
Si      21.88543677      27.15479334      31.87247543
Si      19.39018370      37.98853966      18.64510147
Si      28.85458266       4.28498213       7.98604958
Si      22.83932322       7.68250390      31.59132192
Si      16.91626790       4.67290423      30.31828900
Si      31.96878904       2.81615332      10.38869212
Si      28.47211399      31.90378576       5.46609653
Si      37.42636915      36.70313967      10.58427040
Si      27.54809032      30.83687134       7.57387666
Si      29.39244482      37.50465719      23.57743169
Si      29.11307285      12.02410115      28.89457821
Si       0.59508436       5.80043053       8.68399225
Si      17.68184664      26.52366026       4.17647224
Si      19.39358405      25.23562972      18.64375303
Si      25.30404100      32.23987663       5.83127560
Si      35.10941110      33.09158531       8.29122987
Si      19.42328823      23.08031421      25.76756212
Si      17.28053488      10.29305794      37.51481973
Si      12.84538510      11.43343820      20.77711505
Si      25.66639700      30.53606700      28.87927615
Si      16.07637963       8.42555871       5.63084775
Si      21.64018741       2.27360119      34.82845223
Si      34.34582332      36.49098480      28.78808750
Si      18.92800999      23.35434075       8.38347484
Si      11.95437638      13.43567788      19.92136317
Si      32.53103873      37.04207757      30.17649215
Si      30.68277459      36.09010288      13.91995178
Si      21.28384352      37.00986339      34.02736949
Si      15.30751437      33.12388993      13.48521665
Si      18.31388874      39.84727683      35.99953274
Si      39.59514072      24.59539949       8.03362294
Si      17.09671626      34.59166675       8.92831821
Si       5.81774873      26.73925613       9.30536762
Si       1.05250466       4.62216724      38.40463050
Si      13.92624901      13.79827199      24.30047880
Si      25.20561559      39.71849133      12.16896105
Si      24.34656156      12.00122596      38.79173774
Si      22.05053300      11.91135010      39.29028051
Si      27.39054773      25.98656818      21.99615266
Si      32.32398779      38.23737934      25.44136777
Si      39.67799449      38.32217758       6.59628917
Si      30.81082657      36.35881991       4.62578954
Si       8.02764721       6.31917710      21.34233809
Si       3.48942429       7.31484844      10.40417216
Si      29.85116619       9.08935977      36.68816277
Si       4.22906380      25.37821860      19.35954797
Si       5.17663191      13.31977899      28.15699298
Si      22.92838547       9.91573850      20.01744782
Si       5.27726488       6.06075737      12.71031124
Si       9.59478450      12.64189797      30.04563763
Si      -0.11066707      25.92827828       3.65218009
Si      39.41755070       3.73003128      23.18023882
Si      30.16819465       3.47677427      14.52446587
Si      21.78183859      33.45419161      17.33645701
Si       9.18360513      28.48044780       1.11691091
Si      27.88490421       6.73541942      19.95551634
Si      14.93124088      13.10103717      22.29688762
Si      18.88428033      34.52485551      27.63505433
Si      17.12659400       2.70420029       1.47194793
Si       4.06911206      34.14834798      11.32384488
Si      20.55408007      20.48638013      14.89866147
Si      22.04688936      33.95504593      24.96116434
Si      27.29697983      38.53257300      23.88531435
Si      12.45623783       0.31704693      11.40341226
Si      21.80961419      35.27707963       3.74736086
Si       5.46150770      15.20673813      12.37318720
Si      13.52586452      17.14445232      26.26312738
Si       8.23605016      29.74341537      21.30887815
Si       1.75496099      35.88770280      15.64228164
Si      30.14615804      26.26876464      11.38915417
Si      27.62343286       2.28936958       7.80834575
Si      36.49446969       4.55627349      27.79329360
Si      34.26199578      18.83053607       2.05848766
Si      34.14685901      28.68156765      21.95583383
Si       6.55909899      29.42273080      31.18110661
Si       8.56076851       3.67380826      31.18636364
Si      36.12687007      20.04724307       6.12459852
Si      25.57568208      18.88106825      21.25444037
Si      16.21836998       2.62015161      15.21356942
Si      13.06388223      31.04385353      37.31446230
Si      14.97156118      29.66197338       9.36168154
Si       5.28393311       1.24420577      20.89623134
Si      33.85850130      12.53308389      31.88146814
Si      28.06258385      24.63616673      24.30083309
Si       9.08869058      35.70639690      25.30665416
Si      39.84108157      26.37710560       6.51850427
Si      24.59324128       6.95656844      17.45507326
Si      17.63690667       6.96148726      33.70901470
Si       5.92825881      30.16161596      21.08016098
Si      28.03234029      18.94267431       6.92685346
Si      25.56812260      24.27919035      15.37160042
Si       9.32800226       9.64137671       2.79097222
Si      16.64613003      35.52073605      24.51577157
Si       1.36926786      20.87358305      39.56637652
Si      24.18065194      11.15214082       5.04222098
Si      26.39699504       5.00763905       4.86930642
Si      11.45388962      11.25894354      38.11518446
Si      25.77526924      14.61941022      38.37916477
Si      33.40216408      39.15973639      29.63536387
Si       3.84550991      22.08941517      15.62593785
Si      30.95418127       0.71068315      29.07681520
Si      35.35462032      36.45965485      13.73131236
Si       8.80589464      31.62151753      30.45766932
Si      17.77999200      29.78622583      27.80205138
Si       2.11936348      35.88974868      12.76405771
Si       0.88690134      28.47713193      34.61162188
Si      28.94348164      39.49208485      29.02544701
Si      15.42433583      20.45665886       1.76132849
Si      33.23107899      17.25142571      17.52500883
Si      26.39539276      15.67109199      23.86905945
Si      34.30235836      11.89110164      23.55414528
Si       9.86307739      24.88687990      36.54172116
Si      15.18169890       1.16290482       8.15147580
Si      22.04848070      14.28891888      21.21566172
Si      25.64929369       5.61849959      10.22064376
Si      21.79857989       6.14245301      28.39962957
Si      20.67212956      25.67638685       6.44620589
Si      37.48402829      39.42058105      26.47846435
Si      15.23686985      28.26710519      14.09020360
Si      26.52493233      16.98974537      25.80182725
Si      35.65263301      10.15449774      21.56506486
Si      13.32698143      36.32061052      38.06580722
Si      12.84197271      30.21909046       8.53921012
Si      20.12298508      26.31665358      28.48513044
Si      37.12298306      19.87271435      17.24614181
Si      27.07919443      16.70838789      37.35999290
Si      31.58514863      18.92548986      23.76420614
Si       7.65725121      25.43804093      37.14279728
Si      30.15416390      22.95085934      36.98787120
Si      25.63628499      31.84154428      37.00903950
Si       9.06309936      29.90600148      24.34297996
Si      35.87710596      35.17244184      35.78354499
Si       0.03360970       6.73336023      30.57695731
Si       3.42561410      32.83823501       0.28570203
Si      19.35197353      32.28119332      35.04086858
Si      15.52459780      39.48786842      24.21879392
Si      36.35021516      14.56983062      15.92948555
Si      12.09770696      27.24292355       3.76220888
Si      16.95870147      34.33028702      11.26200221
Si      16.70492724      16.00541069       4.12700023
Si       9.50405405      39.00277576      13.81859181
Si       6.87660739       7.10894433      24.71667528
Si      16.96201327       0.95765254      26.03035345
Si      24.87338606      36.97150761      13.20955035
Si      27.39828985       1.95954855      21.07225256
Si      33.80402465       5.11564022      38.66766138
Si      20.29861154       4.66265114      22.14316176
Si       9.91273200      27.18784182      10.16164325
Si      38.40518290      30.99765516      34.41584219
Si      22.95403608      36.45907513       5.42818601
Si       8.79111754      11.29062459      26.89534571
Si       8.99670732      15.86721172      25.40284654
Si       3.41726463      12.51081987      23.40514949
Si      27.03233243       5.83841465      27.96608046
Si      19.69060618      32.21207812      25.29665264
Si      29.41918184       2.10186866      25.87444721
Si       7.34234912      29.69404384       3.45808311
Si      27.52677711      38.86430296       4.73569843
Si       0.96443885      29.62857234       6.96259743
Si      14.48315647      11.62577870       0.00479787
Si      32.94521335      32.38066175      25.37914452
Si      10.75401378      35.11122807      17.69563560
Si      17.15000270      32.23546481      12.31752467
Si      19.19645051      37.79186405       7.01942389
Si       0.02851043      32.39192884       3.92679364
Si       7.14263697      11.79494273       2.66213426
Si      22.31516791      34.24146790      10.35615918
Si      17.76766586      40.02975980      39.61965134
Si       4.39580997      29.04589084      36.56507949
Si      25.18391168      36.68918204      38.95299507
Si      36.29413187      36.44508800      30.10024303
Si      15.47837756       3.39377377      21.77275254
Si      19.63666557       8.68203842      29.65268747
Si      36.94846308      19.38301468      35.10496046
Si      25.19239069      40.15834653      24.54039154
Si      33.13482054      13.70517703       5.23924196
Si      14.57378096      27.47840728      18.25759440
Si      25.26819933      20.16354409      40.56321995
Si       5.75185922       5.34923064       3.25225552
Si      16.29487218      29.96914682      31.90198792
Si      19.27086295       7.26107760       2.92784933
Si      14.15398609      22.03953930       7.39341643
Si      17.61576226      16.85393287      24.42780370
Si      26.46165764      18.47399099      11.81095624
Si      16.73122296      22.75718559      15.98453181
Si      27.08699340      16.75182744       9.65014068
Si      24.26975418      16.36275399      38.84987524
Si       2.39901324       0.88887511      23.79320074
Si      20.43323672      13.55860134      13.60706262
Si       3.97732203      15.70494527      17.97830061
Si      27.35534196      40.31975989       2.89595559
Si      11.35505200       3.32196165      17.12114638
Si      38.73435603       6.16232063      34.10703994
Si      22.60042720       5.84329609      14.18498251
Si       5.06395193      20.31242222      14.68333337
Si      35.83772722      22.16570543      13.54411722
Si       6.22801742       5.60770904      16.60013881
Si      12.42127890      31.21340515      31.67464155
Si      10.36891467      33.97503764       2.49322484
Si       4.11302780      14.51143440       4.09884499
Si      29.98203726      32.20224627      40.10333612
Si      27.43186561       5.68681822      36.76501064
Si      28.29450892      27.36623911      12.33937045
Si      11.89365486      24.08954448      32.66099224
Si      17.48104180       9.87340365      14.22740791
Si       9.60377651      34.89914644      38.14532489
Si      17.95497026      21.28804096       8.94368432
Si      22.34058077      22.41840131       4.05473429
Si      37.24060355       3.59837591      16.26595850
Si       2.18501325       5.78764643      18.76153189
Si       0.54350168      38.58727819      29.85364485
Si       0.74585915      30.82404335      34.56465592
Si       4.31343486      29.21053649      22.50508707
Si      30.35693191      13.62728826      30.08727277
Si      12.22607932      28.61357169      25.72231632
Si      17.10304953      13.84818241      22.81538956
Si      40.46874516       5.86920495      11.52124287
Si       7.53509610      19.62415475       8.29365324
Si       8.46002742      39.37813122       3.43177592
Si      26.83019160      19.20778951      36.97316655
Si      30.83998406       9.34023667      39.56642012
Si      13.26448706       0.42868984      26.08377541
Si      34.30507029      40.02938582       0.97240182
Si      36.69811544       6.69263698      31.44650189
Si      24.31746839      19.28639147       6.34571868
Si      12.85656747       5.05429935      39.59656113
Si       5.24963045      17.11310309       0.82282836
Si      23.72894801      34.00771375      29.19000771
Si       4.97386847      11.42341344      33.51181264
Si      35.00053448      21.31249193      -0.32003100
Si      29.44372016       1.13287901       2.18576386
Si      27.96024876      21.87933599       8.09116675
Si      13.70222773      27.27283909      35.23972585
Si      23.82792882      11.87765336      19.08446777
Si      37.06965995      38.72240333      28.68539610
Si      32.58651754      15.30308497      16.37274909
Si      33.04944209      10.70518655      14.58212094
Si      21.03778814      14.78591823      36.38174543
Si      38.12738466      27.15520483      38.93112867
Si      18.79652826      27.55293701      34.87876918
Si      38.39697670      33.60095500      24.94027330
Si      37.14001682      39.13503319      21.06127914
Si      11.68690304      26.62275710      13.45130533
Si       7.81211088      27.30009888      17.16529804
Si      36.67573196      39.48799594       8.31075056
Si      13.06680450      14.74471567      14.39300166
Si      21.06729078      39.64067959      16.65937149
Si       8.60057368       9.17004014      28.26382984
Si       2.48069976      31.72823674      28.38198104
Si       8.26514834      13.88083791      10.53487298
Si      30.26703964      21.79576476      39.03280359
Si      25.07156508       5.38754145       7.95273561
Si      11.67270054      22.91345769      35.18193113
Si      25.75902472      36.91900438       8.26961287
Si      12.07481590      24.13691035       6.11716285
Si      25.43049050      35.34968998      32.84132844
Si      27.65950306      28.15506692      18.40284755
Si       0.71489032      32.35574534      18.03485699
Si      19.06076491      17.79038081      20.11947576
Si      25.25249719      20.28929875      17.78157814
Si      20.35578730      14.68962514      31.56016351
Si      32.97079255       4.17939698      24.64587287
Si       7.30474633       7.08399637      12.09712795
Si      16.11396788       0.09710991      10.02908357
Si       2.92209764       6.82216952      13.08362454
Si      21.71985993      34.88928611      34.94103961
Si      38.83790180      33.20735961       1.66051559
Si      36.88794569      15.51201314      35.56555122
Si      35.22435154       0.94397650      20.49119966
Si      35.17940220      26.94099697      20.18040393
Si       2.26470033      29.11962876       9.57825481
Si      36.08299233      17.55229732       9.58885127
Si      37.86511512      27.60948650       6.19052573
Si      10.90520225      11.07646104       3.78154065
Si      15.20045328       7.73045965      30.68489922
Si      10.07857702      39.09005529      16.09684999
Si      12.66047587      37.50256500      33.25678137
Si      20.62630966      13.48343105      38.29127090
Si      17.61173835      24.82732160       7.10751717
Si      33.72854088      15.14126403      33.56647927
Si       9.76430190       5.95288541       9.13209940
Si      36.67105801      23.80432307      22.54719414
Si       7.86634763      36.89597796      32.16802880
Si      19.62248260      28.17271928       4.73740714
Si      33.15982784      28.17147375       4.79652270
Si      18.86390340      38.83139806      16.51402048
Si      35.59538371      29.24548821      30.73913897
Si      39.19838871      32.94695922      30.79890430
Si      23.85254303      35.37459001       0.37754176
Si      11.31153288       9.93828788      31.28619666
Si       0.57224298      38.71707821       8.73517400
Si      20.63680191       3.40601854       5.80508420
Si      11.38478211      27.80290924       1.59240868
Si      30.93703439      17.68500556      17.76145669
Si      16.17361656       1.06476469      18.59785913
Si      37.46191681      26.75345508      23.00125129
Si      24.39075715      14.88908733       4.03397033
Si      26.33543799       7.06158043      34.83662533
Si      34.81624884       2.62977647       5.72259735
Si      30.25064701      32.62408132      37.80704326
Si      30.45843248      18.93661970      13.70587472
Si       6.29190959      10.40906129      31.84901673
Si      37.97442924      23.59522984      13.47795758
Si       3.14303389      31.67337663       3.29198158
Si      10.80386495       9.97300757      21.08856909
Si       3.62467767       9.81051145      37.11082454
Si      32.63148462       9.10729009      34.92857853
Si       1.87320718      35.82911917      27.86722146
Si      11.43692428       8.13567306      16.93413894
Si      11.91726413      36.32309938      19.67669670
Si      16.73092219      29.16193917      12.51055049
Si      20.48884908      29.46924397      13.08936356
Si      11.61210805      27.71696795      20.23278772
Si      13.98235619      30.53999194       5.70598588
Si       7.45950863      13.83177148      28.35725591
Si       4.69327726      10.69914967      22.61546646
Si      -0.13868449      25.60793783      16.89850691
Si      29.35460872      32.16506006      33.44491834
Si      27.51540339      13.70165129      17.18807650
Si      39.28242526      19.57534880      31.61558445
Si      21.23573097      26.28766314      25.82615159
Si      15.85487351      14.99202236      29.35812075
Si       5.08555386      34.71384080       2.67898000
Si      21.81947431      26.30737174      11.56504047
Si      12.30194168      22.60281260      13.79142959
Si      21.16971611       8.12431874       1.84939821
Si      17.14190020      39.33045044      12.94405143
Si       9.11215838       8.18271319       8.76736380
Si      37.88096105      30.74773178      12.57231747
Si       3.26974542       0.94857570       7.25265766
Si      36.59075062       0.56898822      14.40019959
Si       3.60716964      11.97455770      31.67904247
Si      11.87249561      10.09276839      24.00162760
Si      26.62853108       9.26498089       7.90164659
Si      22.84590534      25.18937195       4.72766956
Si      27.59224272       6.76336714       3.86018099
Si      30.04066382      23.93968346      11.70297397
Si       0.26199935      11.72043321      27.62848405
Si       1.35283066      37.74847723      21.54469517
Si      28.59387257      11.10845990      16.12164008
Si       7.96402829      21.17895582      39.92975371
Si       9.21096368       8.57754350       0.23232693
Si      24.84116023       8.49769218       6.57924316
Si      10.54486317      17.37642888      11.31312935
Si       3.26434880      19.24594795      34.04670235
Si      31.52703713      25.42120780      15.45281429
Si      33.22647169      25.37449891       4.64774885
Si      32.50161366      19.22780206      18.57921836
Si       1.52110405       2.50146605      34.15735103
Si      15.54726662       8.86592104      20.39776405
Si      28.92934231       8.79464936       8.05264103
Si      33.52760751      22.07231989      13.11438892
Si      12.24692257      26.93300146      10.10186069
Si      12.57166451       1.45410285      17.87137558
Si      14.36426066       6.69576863      28.06605266
Si       4.58663616      10.50472773       7.64577777
Si      28.28843505       0.88090436      30.80645543
Si      14.28691672      19.78394367      22.40262185
Si      12.95701157      26.20040112      23.24691276
Si      29.44728876      18.73232012      20.62772385
Si      38.03030015      35.29524663      37.83105392
Si      18.34719758      29.59597302      18.57349620
Si       6.18322140       7.24329562      22.47494486
Si       4.88460506       9.23714045       3.50054715
Si       3.92842159      33.39065846      25.63046731
Si      16.64956093       8.05886229      37.84691577
Si       0.76985144      39.30567653      23.20391494
Si      19.56075436      20.37274487      23.51790586
Si      22.60519321      37.44705442      22.90278133
Si      20.07498113      12.72299529      11.44406919
Si       7.30029839      11.50178063      33.84681612
Si       1.35548811      31.79314884       9.72800571
Si      11.27423435      14.15789756      30.68165566
Si      33.58430898      25.65558324      35.02533961
Si      26.82882425      36.32405477      37.11747288
Si      36.91758159      21.57559449      10.40093407
Si      20.45767585      37.12696111       8.89125657
Si      24.97695591      17.63858501      10.19175620
Si       9.75287667      31.54885825      26.52040509
Si      11.79273692      29.53129912      35.55406074
Si       9.87560784      28.31855344      34.93408606
Si      13.17208187       2.30306486      21.81632181
Si      15.19301996      37.24822862       1.05381231
Si      10.14097346       9.80960165       7.41635356
Si      37.68890484      29.23374232      29.66795500
Si      18.78392446      33.31048150      22.60970531
Si      17.95640471      38.15667559       8.98236950
Si      33.10779032      20.34832806       0.68098089
Si       4.81410782       6.87611565      15.21729885
Si      24.90513494       8.54434205      12.01601965
Si      12.74654667      31.90247795      19.51207667
Si      12.06500759      27.09169891      17.84728093
Si      34.87789795      35.03421738      33.35486145
Si      16.16857241      32.25506050      18.33310108
Si      36.92209290      32.78645271      30.21872376
Si      24.98129553       0.74422103       6.05073006
Si      37.97283149      35.44224901       6.86283373
Si      29.22169171      25.67091937      19.26513436
Si       0.47095271       6.95891892      39.18137796
Si      31.45776757       3.55800240      12.55990066
Si      14.49573547      27.31580550      21.86301540
Si      32.07321244      33.21899667      36.44931207
Si       5.58878408      40.08202781      38.89100508
Si      11.63107169      18.37044811      13.14698182
Si      19.75055361      14.17339710      26.61002728
Si       1.56222983      16.96953237      21.00893147
Si      21.87828975       7.75860616      34.21522149
Si       0.75593214      34.36251385       0.94209189
Si      37.54265726      38.09894438      24.53407175
Si      37.35890585       3.40262969      31.78216217
Si      20.53391544      14.38009875      18.49394697
Si      10.09392635      26.26278124      26.98671551
Si       6.23359396      24.44952900      32.79777742
Si      24.43830489       1.65833885      18.48203260
Si      29.51082354       6.87943697      18.26155158
Si      38.55620709      17.35415181      31.87353182
Si      32.52795036      12.72964567      29.95343120
Si       4.86235034      10.93189324      26.52321425
Si       5.46959618      38.14690230      37.55946724
Si       8.66329083      20.27461703      22.54940077
Si      31.99435898      10.51970552      37.89185250
Si       5.68429181      31.72852300       9.88899934
Si      35.47376775       6.68417455      18.53978977
Si       5.66164165      26.80590539      16.35109723
Si      34.67911619      39.04420214      34.12027054
Si      10.69795878      30.96330594      20.18382272
Si      15.39654892      14.65647674      14.08995980
Si       8.54678536      12.54534093      32.14793431
Si       0.52638266      33.96708069      34.49779586
Si      36.37095268       1.15594463      39.01402964
Si      18.73163604      34.35749519      25.29430616
Si       8.14472769       3.58961269      23.34727011
Si       1.32922398      35.53015183      23.04443051
Si      35.53297563      30.75521022      35.61345127
Si      26.22708692      34.30086195       6.47664537
Si      21.46320606       5.88231245       2.49662340
Si       2.55814053      14.96121320      27.48900010
Si      15.63138600      13.07397588      36.16627175
Si      28.19155718       4.10985457      17.02597115
Si      24.02575416      31.14342343      15.51132458
Si      24.17803731      23.35561150      33.14651898
Si       6.50772008       7.98661697       0.73724145
Si      21.97390761       9.92973164      24.95648440
Si      35.49358215      10.56635110      38.52001279
Si      25.38092009      29.25379802      10.74547981
Si      30.74424443       0.77804716      35.38285361
Si      30.71055048      11.33927835      30.47519363
Si      39.59866814      29.31797922       1.05891884
Si      19.02947582      40.08253622      32.77469417
Si      31.77077389       5.30846020      20.76384654
Si       4.94915862      32.29126233      17.50310297
Si      34.88972285      11.87925529       7.79886645
Si      33.91837806       2.51576891      11.66884889
Si      19.14513949       0.39003908      28.62265810
Si      24.60210309      37.33645901       1.43314361
Si      21.32066727      34.48366882      22.78917402
Si      22.54276543      16.23585548      23.98967506
Si       8.72175341      32.45567069      32.65608366
Si      35.42060633      36.46636012       9.37950762
Si      27.85227063       8.99142142      15.41527038
Si      27.90706580      13.94218772      24.35971598
Si      24.14888703      10.76147700      12.19687720
Si      13.31844609       8.33787349      23.40508198
Si       8.01416056      37.98203847      15.93365823
Si      18.84208284      34.17580198      18.00404827
Si       7.63135945       4.93804274      25.19925462
Si      16.77775887      33.33218505       1.71084951
Si       7.80349022      34.12435939      24.13703723
Si      28.76532074      13.82382281       8.26024787
Si      19.75103159       0.96476081      38.76959866
Si       4.76290689      35.28939043       5.81221681
Si       8.96018618      17.68374648      14.34001339
Si      38.01582284      19.82333032       8.03836895
Si      36.34239871      29.78945115      26.92572490
Si       2.30766389       5.31005194      35.31432750
Si       0.75898814      12.00545716      12.05832430
Si      38.75445394       6.86290821      12.78726244
Si      27.81794485       9.82622678       9.85073090
Si      38.56370928      28.22316000       4.03050566
Si      29.76347783       2.83822714       4.44588093
Si      26.89025522      16.06038885      39.86545753
Si      26.86712126       6.51064168      17.85122557
Si      25.63814285      23.16967033      34.98029948
Si      34.49642069      25.79745437      17.62764842
Si      15.38643334      15.27065649      36.97297037
Si       6.15817001      24.26346389      15.61078563
Si      27.70687768       5.64460066      39.10016111
Si      35.77632751      13.97257309       8.36610570
Si       8.39552578      33.85680002       6.58715980
Si      10.67493618      22.33120760      31.68398442
Si      32.83658899      29.67450060      24.31086344
Si      15.25281889      21.03247750      26.13975612
Si       5.86725496      32.87590352      24.40380063
Si       4.74928503      32.56402815      22.35103147
Si      22.75931759       1.25845108      16.88471192
Si      14.58084441       2.03511580       4.43987718
Si      36.89624261      16.70733718      15.11132724
Si      26.79989044      31.49649354      16.93695112
Si      38.27620093       5.12411981      17.72428988
Si      35.59051495      22.94190293      28.32651794
Si       1.72128055      36.40186411       1.60779342
Si      30.97324089      10.61579515      13.48126024
Si      12.28278992       1.99742098      30.74503078
Si       4.28639596      20.07040627      38.18710652
Si      23.05057657      16.59183012      14.56892961
Si       5.78503407      20.14044039      22.66827327
Si       1.54915736       7.96002044      11.56221450
Si      29.62649347      13.96655891      18.18732703
Si      13.54970157      26.93957315      12.05124282
Si      36.18143595       1.01394943      24.06701042
Si      35.14535121      23.64608201      39.49531188
Si      28.97885919      23.32892625       0.26607509
Si      13.88862636       3.76307751      36.11614062
Si      34.62457241      11.38080207      19.84199067
Si       4.42428321      16.83931648      32.90340966
Si      32.96476113       0.50777768       4.56287632
Si      16.80542039      16.52025036      13.82563112
Si      13.38549041      19.28888374      34.13926537
Si      14.87957955       8.73747909      34.62020660
Si      35.52972430      40.55216686       6.55668913
Si      23.44626797       5.87375840      36.72099561
Si      18.48381363      38.39549289      20.77746916
Si      22.97790275      33.44102756       1.38822354
Si       1.04941011      25.94101478      22.81144983
Si      22.94185686       8.27674327      36.97050804
Si      23.15543243      16.64827122      33.24462690
Si      18.10477978      17.61182886      22.25894347
Si      10.57217337      34.43593722      13.22612819
Si      19.44663918      37.77105746      26.09798160
Si      19.09963878       3.61157876      14.10671859
Si      37.67328429      24.08179065       6.22327507
Si       3.60148743      25.15121157       4.33442167
Si      36.19227404      30.94575685      33.36416247
Si      33.82233796      24.87442436      24.93098554
Si      28.62138437      10.22600151      38.51828839
Si      10.25417922      25.69490416       6.86212342
Si      17.36764451       8.53571444      30.25383016
Si      16.88404918      15.21822360      11.70625725
Si      18.97777928      23.07004258      33.14491000
Si      40.13000420       2.04628483      24.65924550
Si       8.70046559       1.80991140      14.57856804
Si      31.65777137      30.29078659       8.29061852
Si       3.98460279      36.54196710      17.86675051
Si      14.96414277       0.05609301       0.96214246
Si      18.40391054      12.92044371      28.07564883
Si      17.57553936      16.12944181      19.37096439
Si       4.18321486       2.66433822      14.14216268
Si       1.00589445       0.32003583      28.06611578
Si       6.72017502      12.36972156      26.66121362
Si      29.34424405      28.16453947      40.14102309
Si      37.54593133       6.22543515      36.13410416
Si      29.90800610      11.09830796      23.91371753
Si      34.44317514      16.67333841      15.23247079
Si      37.46945855       7.76682747      23.20937414
Si      20.12647748      36.85314340       3.28561856
Si      37.24264818      12.71463349      14.78888098
Si      38.55192380      30.11155365      27.66428174
Si      26.67159115       2.34916775      18.73772604
Si       1.96125222      38.17323284      28.02303991
Si      19.50288149       1.74159089      16.90215300
Si       0.31436421       5.09209288       0.58919626
Si       4.42875334       6.77283059      27.40972384
Si       5.21826974      12.51290987      19.76791131
Si      28.27074013      14.61138668      29.63604872
Si      33.44957370      34.87832753      30.24666015
Si      16.94656713      37.86650331       5.67175312
Si      33.02985236      37.90657072      19.06555478
Si      17.21242726      29.02326542       9.78807276
Si      33.22968064       4.09544959       4.79487725
Si      18.07145417      35.85284441       2.73256785
Si      39.82143728       1.68820823      36.17681997
Si      15.23538090      22.99741220      22.90070930
Si      19.83885221      25.52551758      38.51156418
Si      33.89831216      35.87934802       1.27818564
Si      25.97967352      34.36361179      23.94313386
Si      24.65004985      13.92268570       6.16185948
Si      12.64806300      16.58352839      12.00271101
Si      39.10920196      29.42265888      25.13650595
Si      31.82756758      15.56506745      19.16014466
Si      29.40680739       8.52543609      19.93951991
Si      24.74978377      36.24830309      21.96219357
Si      10.91008831      11.70346288      15.02046772
Si      28.41886676      11.15569139      30.96828780
Si      10.69296223      19.45457442      26.46188822
Si       6.46805872      12.81384808      15.30273945
Si      28.80040292      18.45599369      18.37134744
Si      20.11901600      23.15744105       3.83353953
Si      38.22314994       9.70860616       0.59918640
Si      24.83710808       0.52089791      16.06581835
Si       7.47691883       3.86247200      17.54172851
Si      15.43452239      17.60564359      36.67865487
Si      36.67275038      23.39121032      20.23243749
Si      21.64054165      19.61973987      10.50395187
Si       4.52252382      17.82063021      26.24941617
Si       4.79768198       2.48140570       8.17273518
Si       4.05322088       3.05109700      20.03076716
Si      34.64141109      38.94634896       5.08696081
Si      18.90178934      11.80812763      13.26829360
Si      39.25734099      21.46808863      24.58255126
Si      18.46072804      30.47323749      11.16418041
Si      11.55317889       8.20252323      14.58809252
Si      21.59899492      27.48318036       3.66553718
Si      23.20059936       2.46080120       8.65532779
Si       0.09186985       9.78056865      19.72317343
Si      16.82503353      27.93778112       5.84853020
Si      26.02881660       1.05872691       9.02190584
Si      31.63423695      26.93413245      35.32929876
Si      15.14195107      26.62112912      24.01214695
Si      13.49453223      34.03914482      28.23728079
Si      31.59222813      13.04010958      32.25390682
Si       7.45756460      25.16081751       2.35739717
Si      33.37157837      25.73725975      10.53635350
Si      34.07916124      29.17401368       1.90018424
Si       6.21714874      15.97008829       5.18908748
Si      22.79536125      11.74949655      23.71384203
Si      32.53698818      23.95735285       8.45544183
Si      30.91800450      21.69727229      24.80588939
Si       2.15378419      22.54841876      32.02825521
Si      17.72970203      20.71043597      17.21418381
Si       8.77766013      20.81753304      26.43534489
Si      33.31344060       4.02750270       8.88827416
Si       6.56542778      37.82275824      10.98396033
Si       5.40318302      12.24525170      35.94133578
Si      35.10645599      18.91552654      15.48121407
Si      28.05177534       3.75660109      28.36759006
Si       9.82805550      38.49412750       6.77106315
Si      15.97686857      23.25351199      25.86909805
Si       3.83855480      39.01698422       8.46765880
Si       9.83249550      14.97925667      17.83894687
Si      -0.00575222       5.56314367      28.53759077
Si      22.99928171       5.00816332      20.09639086
Si       8.08642978      12.25882478      36.65884965
Si      17.46019922       6.78925635       4.34987229
Si       5.97888733      25.44492278      21.19685146
Si      28.69580380      22.58614083       3.86157931
Si      32.28818617      19.85310854       2.82564774
Si       7.67601322       1.09126936      18.57518257
Si      20.60160418      29.44665903      38.87487629
Si       2.17397712      31.24972537      12.52168596
Si      26.32952317      16.37158938      21.65549425
Si      23.24900655      14.47279011      32.35642244
Si      12.23896622      29.62993379      27.84299951
Si      34.43520727      26.65922462      26.33446726
Si       9.19252251       2.47032492      16.77772225
Si       7.70544429      32.55718372      25.88427034
Si      13.61427523       2.08289206      27.71885946
Si      29.91142775      10.79335369       1.16759340
Si      10.06004861      22.56472205      36.85755315
Si      35.52652806      30.44237550      22.68100901
Si       9.68408323      12.50890882      34.95129357
Si      21.89076173      29.66043228      28.50133587
Si      10.58520375       6.15762031      29.18117802
Si       3.02198471      16.07588146       0.39539874
Si      29.99836241       9.92529887      11.45559039
Si      25.47783456      38.84269172      -0.14751351
Si      13.32514772      27.25315950      15.01906974
Si       1.42827684       5.89133797      20.98604390
Si      37.21123586       2.61113341      29.57188870
Si      11.65325911      32.58321663      27.44257163
Si      16.56174262      13.21502447      20.61743986
Si      21.37463741       4.52967108       8.55909551
Si      26.87123494       0.59908886      28.94982044
Si      22.00618259      33.85776361      30.78850069
Si      37.95593890      22.48734880      31.01180031
Si      36.12253585      23.51302611       1.62337765
Si      28.95131199      33.23223719      20.74887212
Si      27.59102767      13.77744660      14.83938249
Si      38.79231317      17.43067959       9.02183264
Si       7.52927139      10.99025955      24.93280992
Si      20.25001406      16.49936920      34.98009052
Si      25.28163352      12.45676479       0.90400246
Si      36.11607548       4.44726053      36.70211646
Si      34.03562981      33.34326684      18.33010902
Si      39.57350974      26.61161638      35.18126258
Si      24.61518359      30.55602110      12.54816503
Si      38.94116138      13.61287982      13.43095565
Si      13.58495278       5.35691570       5.00647699
Si       1.76543211      32.42584144      30.49747363
Si      19.40143330      15.54064329      20.73061423
Si      23.09018796       5.38445148      30.21288188
Si      11.59836451      13.30781863       3.52671496
Si      14.86589684      15.50726557      27.28775159
Si       8.90465785       9.14987784      25.93150004
Si       6.83682091      30.90449124      29.37932252
Si       4.21632479      32.88395723      36.10655662
Si      11.65885686      30.90471622       5.73246892
Si      16.15352714      26.60792255      34.62698898
Si      17.30654275      39.29222015      27.65566134
Si       0.45908828      39.27676721      35.23131674
Si      20.44285812      27.03454882      17.55111255
Si       0.47249977      16.59786303      10.44126872
Si      13.25183221       6.91890991      12.31054194
Si       6.48545665       7.57417845       3.05222184
Si      33.87605546      18.65440379      24.22000171
Si       9.50463707      39.03689951      36.20821486
Si      32.43563018       9.82700698       6.33933792
Si      32.96659162      23.33951996      38.66950155
Si       7.53239973      36.51690874      39.60568853
Si       1.38898080      18.49784056      32.84103573
Si       9.82944933       7.17877392      18.34924505
Si       8.62206133      39.03427141      17.94292826
Si       6.47407355      31.77376979      38.25498826
Si      34.46027586      11.43515379      28.15282097
Si      15.70558247      31.48326436      10.63605520
Si      21.73745345      10.35307543       3.78557521
Si      14.43793614       1.31190168      38.37775654
Si      27.98046817       3.64617701      35.73274066
Si      35.50736308       4.38769620      33.49192951
Si       4.17494153      29.61155730       3.75514769
Si       2.47672225      24.34296484      27.91851498
Si      18.07191758      10.48955797      11.50558870
Si      37.08233343      20.31586987      31.23957979
Si      37.58099508      12.43628109       2.22007518
Si      20.09832955      -0.00709292      26.50963985
Si      15.04093671       5.16231031       3.16992018
Si      38.44969669      35.42762848       2.33137833
Si       5.03652806       9.71488181      13.70575106
Si      40.56054939       9.55656045       0.35427286
Si      11.27151909      35.18089670      24.60497055
Si      26.25064438      27.11764338      11.20267587
Si      30.07454563       9.28309160      31.40106742
Si      20.66641466       8.89886150      19.25366410
Si      23.61354699      13.09185438      27.44034361
Si       7.72933435      32.77107638      10.40849989
Si      26.58924877      21.43221180      36.24779019
Si      34.59594513      32.65388282      14.17411068
Si       7.05017472      36.13062971      12.77744937
Si      32.11521494      20.81072883      27.16930344
Si      26.85047608      14.62640229      36.29052240
Si      19.63876350      19.33221911      38.24645143
Si      36.45390705      18.46212974      13.60785817
Si      20.98686090      10.02764656      37.27522439
Si      36.73565214      27.53440623      18.52009050
Si      33.25105839      19.01749773      31.60431519
Si      32.06609076       5.96056969       8.39857194
Si      35.39258720       4.86918799       5.30105198
Si      18.19213448      17.76014922       2.67978564
Si      30.09897315       5.90704229      22.30116320
Si      10.73674324      30.17408565      17.79373541
Si      20.94787190      39.35533729      29.71546976
Si      21.35636285      16.54669683      30.52063682
Si      32.26716975      22.12569753      30.81371087
Si      20.18593642       7.00078504      22.36874851
Si      20.10073723      36.36418752      11.09735732
Si      36.75530161      35.05163289      22.65352074
Si      10.91912016      10.10368666      34.80653676
Si      12.33758646      35.37560981      15.97578366
Si      23.07828839      21.31356940      31.28682321
Si      29.26700087      26.88801610       9.29878744
Si      11.85593040       2.97864214      39.12666040
Si      30.06082209      30.10107100      22.93259321
Si      38.61651803       1.92265015      17.17093771
Si      38.65108086      27.69493018       9.93511672
Si      13.68758785      28.80501191      20.23872829
Si      37.12938417       8.50678547       9.95448288
Si      34.07035132       4.49752507      15.13543773
Si       5.35585696      35.67728247       8.53574900
Si      20.99186628      11.37773923      14.26627337
Si      20.26893047       1.64922831      20.15096617
Si       0.47728166      10.63397006      38.26687046
Si      32.84174063      29.90985903      12.46614469
Si      19.27147152      12.17923029      31.53116542
Si      21.97203467       3.88269125       3.92860641
Si      28.53153948       6.28785210      16.20574879
Si      36.47478384      25.20915012      18.75433969
Si       6.12765958      31.58537183       4.15036937
Si      12.03935968      17.48105811      28.84590897
Si       2.68673615       3.13203133      36.10371677
Si      21.32987632      29.54274260      18.97673348
3068
Lattice="40.0 0.0 0.0 0.0 40.0 0.0 0.0 0.0 40.0" Properties=species:S:1:pos:R:3 relative_density=0.96 cell_dim_angstroms="_JSON [40.0, 40.0, 40.0]" pbc="T T T"
Si       5.15995508      15.63903490       8.99221524
Si       2.42562534       5.96006650       5.09074506
Si      29.48644686      35.39296269      10.07279992
Si      16.28542552      36.20654894      13.81927223
Si      25.54597036      28.11096019      24.03051801
Si      39.15624015       4.29161704       4.55993842
Si      38.96513029      22.91374993      16.91569865
Si      38.49284650      36.24989339      34.96184999
Si       0.24557484      16.35592619      31.34587817
Si      15.68985872      27.03769383      33.22052868
Si      27.54723443      11.02869749      30.11599167
Si      38.77984001      18.34075842      11.81099844
Si      25.71559302       9.90801412      12.78426805
Si      15.44885092      31.97236382      29.31983080
Si      33.51022208      39.52206345       8.16498112
Si      37.22730094      22.87346766      37.70423959
Si      16.13969805       8.69479270      26.36100997
Si       8.43318810      10.57790705      16.82795048
Si      30.31423237      21.14366862      22.08767138
Si      18.71506408      36.70003766       1.47877737
Si      21.54046080      22.96433753       0.37223616
Si      31.05627896      28.36330649       2.54260055
Si       6.81720941       1.92194692      15.62861560
Si      21.19715323       3.29084472      37.40357443
Si       1.73769431       6.94971887      30.59490413
Si      26.78501417      32.82227138      37.11095460
Si      39.07064876      25.67167215      22.62357197
Si      39.98646469      20.83698565      10.71728926
Si       1.09551217      23.91927676       2.62890207
Si      24.23257296      38.69056050      16.23401048
Si      26.62752977      39.60565997      14.13549245
Si       3.91160139      11.30958809      39.86529352
Si      20.00152151      30.38898448      30.05572883
Si      39.66870983      35.39847305      28.91859958
Si      31.33855414      23.40989299       2.17566741
Si      30.09494329      25.01263979      37.33805447
Si       7.57225565      36.52991824       5.65224901
Si       3.28725038      25.13104031      12.87314087
Si      19.51880282      14.31419210       5.96953821
Si      35.45117679      33.00944818      11.89316067
Si      12.97242127      30.72798700      18.86646562
Si      27.46091607      36.47713475      32.80335167
Si      23.64692634      31.43617125       6.69207358
Si      33.78646833       9.13591012      16.51879305
Si      25.56351201      13.32556293      32.23772174
Si      24.54509496      37.50464584      10.68283627
Si      28.15862141       5.63126943       8.00604957
Si      20.47586656      35.12777370      17.55685415
Si      21.82131760      39.13424925       8.62506792
Si      33.29633252      31.17722476      27.29465182
Si      15.27328658      34.90421780      37.85318453
Si      17.92728029      17.26186358      28.92802822
Si      20.06842973       8.33160001      36.40402273
Si      26.12550674      17.75193098      17.04391513
Si      24.50579993      11.77160954      25.70035160
Si       5.26571427      14.88476136      32.30539312
Si       4.96296396      28.49222656      29.86399603
Si      28.68366199       0.26866022      33.72380686
Si       8.80324201       7.21800186       4.15980417
Si      23.92148308      26.13507553      25.28064738
Si      38.12229400      15.03493117       3.55687250
Si      11.70199878       8.10230479      27.99525656
Si      30.89543391      20.29523043       9.63994251
Si      18.41678043      27.39697222       6.84289466
Si      21.74824726       8.68865223      31.45793845
Si      19.12468913      20.65667338      20.18367981
Si      13.65277986      32.86210137       1.54963322
Si      11.90016428      11.31911434       7.36923053
Si      26.98509170       0.92724657      25.05291218
Si      27.89690913      12.62062539      11.31540613
Si      17.63678825      13.07490705       9.83323070
Si      25.43846108      11.36544341      29.19734760
Si      13.91514728      33.04192462      37.92532493
Si      30.56380640      14.00946665      24.64369363
Si      31.19298779      14.75798743      21.85351633
Si       5.69046733      17.96304691      17.10540133
Si      10.84967851       8.02317225       4.86857688
Si       4.85333455       0.50801919       4.68991497
Si      37.45355380       5.49587070      15.95127963
Si      39.41520655      15.71355705      33.64714167
Si      11.45170870      37.27653298      18.63252088
Si      26.58082953      11.12792844       7.88277208
Si       9.38457068       9.07089709      20.87236104
Si      23.63066127      26.58458560      16.86149580
Si       4.51729025      24.08949209       3.53626929
Si      38.34702329      30.64996539      22.35057159
Si       3.14848748      19.72415786       6.42207465
Si      38.18495134      17.68200214      26.67315320
Si       5.47007701      16.93919901       7.02985970
Si      22.81873577      39.16116276      17.84896679
Si      29.24290968       3.56698967      11.18871049
Si       4.27058189       7.70626411       7.45133838
Si      26.72208718      18.76361350      23.21475698
Si      24.58686720      12.72089135      34.42416317
Si      19.39032021      35.47951667      32.50654297
Si      29.49577411      21.09171370      33.15597300
Si      27.31491124      28.67462791       2.46518321
Si      16.29092808      25.82246519       3.00746784
Si      20.21411442      23.22958330       9.99428786
Si      11.33100098      29.29673264       3.42775285
Si       0.32962876      37.59155072      28.30481811
Si      22.22477766      29.74465362      10.62805240
Si      27.89289033      24.40418500      13.56783974
Si      11.32525855      19.23773052       4.34079142
Si      28.11975275      37.55208507      35.98422371
Si      23.95775908       7.54104872       0.27029824
Si      20.98506321       8.62504539      10.89811565
Si      25.37872678       4.93395413      22.65639549
Si      30.30560199       1.29604003      22.47297332
Si      28.95440353      17.95602562      10.38328279
Si       5.46335304       0.16719297      14.80277305
Si       7.18928092       1.44406818       9.65416359
Si      33.79711508       8.32243090      25.79349722
Si      36.79348887      15.70490239      20.62749923
Si       6.05393411       8.67008884      14.74358976
Si      28.20963715      19.36520332      34.00394870
Si      28.80633418      22.98682407      18.96626096
Si      21.64793059      17.12163975      18.00151273
Si      12.89059045       5.99011799      38.37022427
Si       2.45535640       2.39851783       4.52619010
Si      15.69902446      21.38314651      12.32300648
Si      28.77456456      13.68064738       5.49305714
Si      16.85247016      18.10822147      20.85866331
Si      11.99339523      15.11913608      13.86223129
Si       6.43355260      14.57173249      26.09439060
Si      38.78199921      20.83119509      19.88991682
Si       9.94525439      16.99279488      35.82673460
Si       7.99000801      17.81730319      36.52557985
Si      29.72274750      24.28469256      22.92887671
Si      39.68816485      23.22672090      14.60667783
Si       4.96375044      15.43630356      18.95721246
Si      29.77293179      23.86134443       9.84179019
Si      22.71280284      18.98078957      17.10727769
Si      25.05426629      18.26429449      26.70356196
Si      38.14585277      21.65875752      25.31832875
Si      10.63522418      12.78632023       6.00158432
Si      22.86208708      11.14719506       8.58068776
Si      39.56280535      13.47548680      10.03287782
Si      11.58343560      25.51803745      21.70952000
Si      24.16445318      15.05767949      35.83586301
Si      13.66264502       3.41510669      24.84381418
Si      36.26762795       7.09944203       6.11940196
Si       0.70929335      36.12354201      21.02085395
Si      29.79654926       0.01195017      31.70979990
Si      25.15032298      11.45807790       1.73380878
Si      12.76657127       1.23164151      32.80285627
Si      31.99196174      24.99634027      22.68759120
Si      27.49943283      19.39705541       3.77622652
Si      37.70647483       7.26451327       0.76417676
Si      20.69053436       3.71035102      14.28336733
Si      31.90961920      16.38660648       9.41872252
Si      21.22113740       7.09472002      13.89746363
Si      38.85307166       9.81357168      32.36077733
Si      36.46142416       0.18234718       0.79497109
Si      39.40071229       5.25272098      23.89735541
Si      19.59207060      34.61237632       2.52885261
Si      16.80239095      31.49923660      25.46144018
Si      14.23718272       7.73358757      16.20105171
Si       7.15919376       8.24688948      32.67999532
Si       2.34726996      33.20922273       5.29089811
Si       6.85104183       3.83063812      12.20365091
Si      21.91021401      17.88743478      34.99144182
Si      25.61500443      12.87403527      18.15453331
Si      10.20011734      27.35223517      21.94223310
Si      24.12213601       1.00052995      35.63702377
Si      35.95019577      29.43611816       3.59544189
Si      14.52744085      11.50153820      17.43900194
Si       2.78853508      10.08946066      18.25640677
Si      35.58696203      33.10566943      27.06576009
Si       0.11615570      19.67529643      37.75081596
Si      10.52513602       0.65086590      13.04162870
Si      17.09245109      38.11425716       0.36796077
Si       2.99499875      24.26042659      16.05981152
Si      26.76762682      36.89127744      30.64398982
Si      18.39216621       1.64403188      35.94749546
Si      37.01524928      24.59225173      35.93538140
Si      14.71277074      12.84198746      37.95591639
Si      14.93866208      17.21721259      12.34827480
Si       7.47149272      17.27362709      29.58564107
Si      29.13912565       0.90735481      13.48084469
Si      31.42704554      33.59205331      11.89694896
Si      31.35143480      29.75866852      13.88638224
Si      21.92370797       6.35793514      39.65173481
Si       8.24232807      22.45282650      30.39785846
Si      35.94796182      34.71108701       1.03031357
Si      34.04066951       4.30316686       3.54432558
Si      14.08766014      12.08619672      33.33163134
Si      14.37794727      11.34462732      21.07580376
Si      38.42995615      12.21015013      31.92374187
Si      29.11748286      18.49887627      30.92097380
Si      19.59235409      27.06791900      14.82480201
Si      18.06912472       8.78972881      12.96673367
Si      39.85654907      24.67303096      25.82124211
Si      12.33294593      23.83375912       9.81692375
Si      13.90549633      39.32395638      32.39401093
Si      17.20099092      23.04221610      12.67356663
Si      29.14913046      12.25131332      33.93909172
Si      37.48548739      25.80304390       8.90398809
Si      17.51427348      13.32652633      14.88729007
Si       6.60567379      23.55139351      11.73739094
Si       4.73242997      36.96906798       2.91699621
Si      39.27353013       2.97822741      19.03341061
Si      18.21567279      30.86493605      37.64632973
Si      15.77297296      27.69556185       1.72600272
Si       2.02419458      12.82578399      15.24360419
Si      15.24189007      17.05616122      23.77967130
Si       9.76576153      14.40540487      13.84776235
Si      39.28953374       6.27318480       2.30950905
Si       5.62894952      27.99657908       5.42086668
Si      24.27559038      26.93311010      11.20747697
Si      31.73587472      38.25953315       9.21244156
Si      13.65671174      21.94560096      13.47379581
Si      34.98065836      38.24953760      19.04047795
Si      27.23611278       2.81745670      26.30463968
Si       7.66350650      16.38250076       1.07877565
Si       7.62487355      31.41625258       1.55668162
Si      33.23592683       4.02087404       0.16411670
Si       2.38969348      28.82826209      13.33272358
Si       7.06383126      28.80605309      26.67626798
Si       3.02215455      22.21421407      19.66106641
Si      35.69637195      35.13813088      17.61323435
Si      21.12590050      15.48478864       7.86724688
Si      29.06890435      27.26444748       2.22907070
Si      32.73665951      36.98391987      15.91930692
Si      13.02634271       8.01000795      32.15497063
Si       7.92861905      34.18303790      13.75684312
Si       7.89802837       0.08204538      34.47751976
Si      13.77026848       8.51387486      29.21165032
Si      24.01183866      33.79353226      23.61287024
Si      15.92965427      16.79133475      10.25616012
Si       8.38554480      15.36939837      27.38328596
Si       0.52518699      35.09756421       7.21127295
Si      32.25652955       4.01362161      34.48775504
Si      10.55307609      18.98757527       7.47779758
Si      19.43915328      38.86614769      34.06599634
Si      15.92401713       2.92861134      25.07289186
Si      28.94185122      36.72147299      29.64837832
Si      35.44399947      28.60887650      14.84610081
Si      39.19528535      12.43759525      19.10311236
Si      25.35265168      24.39708640      26.49999637
Si      23.01032479       4.90295095      32.24674803
Si      28.78376082       6.74770381      27.17739951
Si      10.90614559      20.57151368      18.06523149
Si       5.94142011      16.66604233      10.98286817
Si      31.36313550       2.56769608      11.49527271
Si       1.53574963      25.71766272      36.86975165
Si      21.00555386      37.41323615      24.16902993
Si      33.09468657      20.04619745      35.40120374
Si       2.79906595      19.71700367      12.80777183
Si      10.17290802      22.81509845       3.23538050
Si      35.91249175      14.03077787       3.58729639
Si       8.46840807      12.80596737      16.92772259
Si      39.15649456       8.93855687      21.86685907
Si      10.09022750      13.90636016      26.69410899
Si      30.86193416      20.68999714      16.44296783
Si      18.43919947      12.32935063       0.59996317
Si       5.15974960      31.07382666      13.59203970
Si      33.91581710      36.57163786      23.97408602
Si      33.42865635      34.57189149      12.73008987
Si       4.88482297      37.73447252      28.99660793
Si      34.90073863      39.98413661      31.52240987
Si      30.76500308      29.69616884      39.41170672
Si      36.10050115      35.49014433      15.28956670
Si       7.42697288      18.73007721       1.07668943
Si      24.10536270      14.25165898      39.34500324
Si      37.82715046      17.32254544      34.09745379
Si      21.00242167      15.38075193      10.20811825
Si      29.07948002       7.28381281      36.44299206
Si      35.97480506      21.73024923      28.48052065
Si       8.75152590      19.42198514      29.44341470
Si      10.68484040      15.28040253      37.02079278
Si      17.00260205       5.67022579      12.27075623
Si       9.19144519       1.91656171      39.58592669
Si      15.77870148      18.04441442       0.87672129
Si      16.13076737       2.74014735       1.89374107
Si      22.72787140      35.93804495      10.66711726
Si      21.32136237      18.00600000      26.94303265
Si      36.17163949       6.21669081      25.92142770
Si      34.87640328      24.92068182      12.98338570
Si       2.57295414      20.73879046      21.41807578
Si      15.98735978      13.73000794       3.95407644
Si      14.87313126      22.77073953      39.43789974
Si      32.43191117      13.18873895      33.89036137
Si      16.90283499      12.09152114      18.20734445
Si      16.21518448      12.56999656      32.51894684
Si      21.90082218       0.03389819      25.91987201
Si      38.98326874      21.16811422      22.25278255
Si      38.93405705      35.33008656      11.39244888
Si      14.79707957      31.57471278      22.92633028
Si       1.29347187      39.52853384      20.07643223
Si       9.55873611      28.95657267      33.25287359
Si      13.67664739      29.48287955      10.66114004
Si      31.19485666      20.62237187      12.13176972
Si       0.33265826      13.21116355       2.47181288
Si      15.29738405      21.91313678      27.33473163
Si      14.79597446      24.01836095      19.45630439
Si      31.90489381      22.97081864      17.54819321
Si      25.41187575      12.61834856      36.62667146
Si      36.88937710       8.79764013      28.54129891
Si       5.47509183      27.15472935      39.02714719
Si      25.79953789      21.72669475      14.73976823
Si       0.61606317      14.54551482      15.83978347
Si      19.23067728      31.08200174       2.31195473
Si       9.80487165      23.64910448       8.98848249
Si      21.65971080      24.89436323       9.44282415
Si      10.15884190      24.65893251      17.56468725
Si      15.20531470      36.67000645      25.22256875
Si       9.96434387       8.82751268      24.06228153
Si      23.72072989       6.48530010       4.16297207
Si      13.03909073      35.90869817      31.15635405
Si      35.41861306      25.36180093      32.66618609
Si      38.03297534      30.51594351      11.62203803
Si       2.23632853      32.53905717      38.21166537
Si      12.16631566      25.99271001       7.28471548
Si      24.20410859       3.70802380       4.76566438
Si      34.03652024      22.96955846      29.06008719
Si      14.55999938      33.90983639      10.86361129
Si       6.41863173       6.69513366       5.13838065
Si      27.15029126       0.36107737      20.26786853
Si      10.28983684       0.93509339      32.37059538
Si       7.70848624      29.21603589      11.78782444
Si      29.71185605      25.10330101      17.78942676
Si      10.69746733      23.56877516      28.82903854
Si       1.78868042      13.15077438      31.02212757
Si      10.56077012      28.61211151      16.65132185
Si      26.55274623      37.57617024       6.46393440
Si      37.09377886      36.22023827      20.32235432
Si       2.36844073      32.15076187      22.99580495
Si      13.22641646       0.15206332      14.83060989
Si       2.08673172      16.34483389       1.96158876
Si      26.44917631      24.89862910       9.98060577
Si      25.66563808       7.01435090       5.27285516
Si      15.78080509       6.11942994      17.17104402
Si      21.94547968      19.36700247      21.39183712
Si      33.69405306      37.26348828       2.99922684
Si      25.44430396       0.54801796      21.90792391
Si      16.03039810      38.62033404      36.82644479
Si      16.12980134      21.04414528      29.30673774
Si      24.24866937      34.99740216       4.02945426
Si       0.34398469       8.16099891      25.42942212
Si      24.04940401       6.03818898       1.89628410
Si      20.48157991      35.95765970       6.20387025
Si      18.00189276      33.65749640      32.69505723
Si      24.44118927      29.56870119      17.45285135
Si      30.75990413       5.52418839       5.90233682
Si      22.61687837      32.56341703      35.95914022
Si      17.59557324      21.72515816      39.08655931
Si      37.35808679      21.36127384      11.56712006
Si      10.04633232      12.98165785       2.21523496
Si       5.97871401      20.18993215      17.52538784
Si      11.14701980      20.87467245      11.93585113
Si      37.90538269       4.85086294       9.85756557
Si      33.97889567      17.12617879       9.28160312
Si      32.22973492      35.71871105       3.75342084
Si      37.85800366      14.21350260      33.16694106
Si      33.37814613      12.68762852      18.82449785
Si      14.50402348      18.92800991      10.78897201
Si      12.10917123       3.56406849       4.82311917
Si      31.28709295      18.06239739      10.61442054
Si       3.44400017      21.62755223      26.25542523
Si      10.88077913      13.98170055      24.56000584
Si      24.86430348       5.61847951      19.15736507
Si      20.97591971      15.92782648      27.85351352
Si      25.66718578      21.86191185      23.93449830
Si      36.38256503       9.68577299      33.07898950
Si      18.48755295      14.43284104      30.43053081
Si      33.69670202      23.96222959      36.41591857
Si       9.81758817       3.50957212      23.52384099
Si      18.65849199       2.72405686      33.95105007
Si      33.56381876      20.52786210      12.58212953
Si       4.16373667      36.28258003      37.84984749
Si      26.43414024      16.96625931       7.43177141
Si      16.27248764       7.06769706      36.60270994
Si       4.14678473       1.36235138       1.14858118
Si      22.99230221      17.82848547      13.70547302
Si      12.80840742       7.30227057      19.36774979
Si       1.37594464      37.47959781      35.86089402
Si      14.11078025      29.16224743      12.93131036
Si       5.66924791       4.21834905      22.33815537
Si       2.68600472      32.95753592      31.97889346
Si      38.95441399      37.05111198      18.06454132
Si      32.96402139      25.99582483       8.13186657
Si      19.72867207       9.31820822       4.84243650
Si      30.07987127      24.52517562      13.92053366
Si      24.45290627       8.68463826      20.89471367
Si      14.62793078       4.21113117      33.43396041
Si      38.11191642      14.11117080      12.04506188
Si       3.57477687      19.97830656      29.27308649
Si      11.23430203      38.51430424      25.23554946
Si      39.99543029      36.88990729      25.93206484
Si       9.16570726      26.39478688      12.65901805
Si      21.79635681      14.83699026       0.63253954
Si      15.53052183       2.60420071      36.37428642
Si      11.08658715       0.07562932      15.69163937
Si      28.23580747      39.49166609      17.19235732
Si      14.86794450       3.69426423       0.08444646
Si      39.53550444       2.41018982      39.13124015
Si      27.15193014      10.12818716      35.03432399
Si      30.29536421      32.25936061       5.82473177
Si      26.84463556      38.81266860      33.23768475
Si       7.01646339       2.17486495      19.77141877
Si       8.42611895       0.44660502       6.90309148
Si      14.32680729      26.51989573       6.32783589
Si       9.57331956       8.24699767      32.48252703
Si       8.78486810       5.34826218      34.23141100
Si      28.44813660       5.62882823      12.18064465
Si      37.43252083       7.78629280      32.48787344
Si      20.30771447      31.12532681      12.99061170
Si      16.28023168       5.25114123      28.12282736
Si      38.86314833      13.86446845      17.24085974
Si      28.89855380      26.16906147      30.64214227
Si       6.13797506      31.82701917      36.36400321
Si      24.89186048       0.69656464      24.11449057
Si      18.71134258      36.77564818      22.84457822
Si      18.78247162      17.80818573      10.75906133
Si      38.26813675      25.69978222      29.50886114
Si      23.74338014       7.14404245      26.94757145
Si       8.06352900       7.32187330      16.70386949
Si      20.17161786      21.40915453      36.87525173
Si      12.57296599      27.98287358      14.11622424
Si      32.01054730      25.00797582      18.65648526
Si      14.84664269      19.20048759      22.99201208
Si      33.49875582      11.21995440      12.66274826
Si      29.52973470      16.70738745      26.80386171
Si       0.09053411      20.41843576      34.15962454
Si       1.83923737      25.85394603      25.36270819
Si      20.75915706       2.24310843      10.37719109
Si      23.60655732       1.62024851      20.98682416
Si      21.53637472      38.73229981      37.35738334
Si      22.37124680      37.81262586      26.17598691
Si      24.21915710      15.37173242      30.07183733
Si       6.60389328       8.32174172      26.13029815
Si      27.87933340       3.84924542       0.10285697
Si      30.90415236       8.85568602      29.99150652
Si       6.53687219      31.23686174      11.67515677
Si       7.52632125      16.32128210      22.88583534
Si      23.13585525      13.68194160      29.07948016
Si      19.66960664      19.85291060      27.18717195
Si      29.85813320      38.89707812       2.03702452
Si      39.56560241       8.71653383       5.37460079
Si      26.22178755       9.31112605      25.06469949
Si      18.15227734      39.22308416      30.99467970
Si      19.63755907      27.00862113       1.31307323
Si      21.54175972      31.84955415      20.54459837
Si      18.40281939      10.32784927      17.92686440
Si      31.03842055      29.08420863       5.91314594
Si      13.77985145      16.64739113      16.49285392
Si      36.91197648      32.15529134      10.29721196
Si      25.44810824       8.98509705      18.87129169
Si      24.55707433      16.33089103      20.36748260
Si      19.07464566       4.92406859      11.36335815
Si      22.87995532      23.23659588      36.00130994
Si       1.86494772      38.05258641       5.58593307
Si      28.99053399      17.39981824      38.81358752
Si       7.07143897       1.27233152      21.81752530
Si      28.70888559      31.46606355      36.70793723
Si      30.31729944       0.26832874       0.26273447
Si      14.18483202       4.92406937      29.27708534
Si      18.47354208      21.19966886      12.08869266
Si      35.16138781      18.67660936       0.80240766
Si       7.09077740      25.12920200      27.22789936
Si      30.42380053       7.98506077       5.08298043
Si      17.26736787       3.64125220      26.79826821
Si      34.15683603      15.46432497       2.83491159
Si      36.65795433      37.19873268      12.39406326
Si      27.91212862       7.33177689      31.26874882
Si       3.07323072      28.34133646      11.19451760
Si      20.81281858      25.68313457      35.73555026
Si      17.67464731      19.25530584       7.15557819
Si      15.59859106      20.12437499      16.66997817
Si      21.75272595      39.33628955       3.84845057
Si      18.25270277      39.28423108       4.12523970
Si      10.99752606      37.23328114      34.51084066
Si       0.35738353      29.58282395       4.80102719
Si      20.90884250      15.21808001      32.69548911
Si      18.03898059      29.15621396      29.33310549
Si      37.28358679      27.20123053      26.83790620
Si      16.51991756      21.96605802       4.84860372
Si      32.79517419       1.22196153       6.50182134
Si      17.72853386      17.13667213      39.64707098
Si      25.05761883      17.45617795      39.30848788
Si      38.86560826      24.12873036      10.99624926
Si      16.73952793      35.42315581      27.09967657
Si      11.13557331      19.24988382      28.67278040
Si      15.83458588      24.84648926      39.49575191
Si       5.63155579      26.70184888      35.22264182
Si      21.10428546      18.56712311      12.26936464
Si      21.43654188      30.54677954      31.97233367
Si      26.68684640      24.32603330      30.88115243
Si       3.68048319      21.16299552      38.99996758
Si      14.68181548      31.97449369      17.64911845
Si      12.69327971      15.96537768      33.50443912
Si      23.82067324      29.66890090      14.42207138
Si      10.36823556       7.60828427      39.71598375
Si      15.26644602      32.41641253      14.83693864
Si      22.16373126      35.56275713       7.59749883
Si      22.48648511       9.93447861      37.50963443
Si      36.78686093      19.46701523      10.33220911
Si      24.80380901      35.38558408      27.17035801
Si      33.23293757      34.05518366       5.11758598
Si      18.60032392      10.56378498       1.99295826
Si       4.42737097      38.50899219      33.05313952
Si      35.33104418       6.29467443      11.20675871
Si      10.03122814      17.18829031      32.00015898
Si      21.97310849      24.54723644      34.19752999
Si      14.96835538      34.87359860       0.17969013
Si      18.44579901      25.87464020      30.72716655
Si       7.49001408      15.21332260       3.15350259
Si      37.77967909      18.88125463      19.56501524
Si       2.54807109      33.68833357      14.07922391
Si       8.52173342      17.15056437      16.88191984
Si      24.65286862      19.59401620       9.80538145
Si       3.72113335       5.81456557      25.02740005
Si      29.34077586       4.63484548      22.97336903
Si      31.23646108       1.76030022      31.23203647
Si       8.67905569      32.02181157      23.47450033
Si      25.45826706       2.86690841      35.55076700
Si      16.52074836      15.55880778      33.61521975
Si      11.17574480      33.27906326       8.16659994
Si      37.67282485      11.59134231      33.99436291
Si       1.81577856      21.33861599      29.79517103
Si      12.07980428       2.03346625      13.73912617
Si      21.55671118       2.08857920       7.38099750
Si      24.44193632      22.80782496      29.04774083
Si      12.01139487      20.98095513      27.24923048
Si      25.15148440      29.43078138       2.37262284
Si      24.39434044       7.18447626      15.70235274
Si      18.58551001       5.14587699       5.23393888
Si       4.26979607      10.38754923      28.13106076
Si      11.90594079      20.18229532      35.32767565
Si       7.89273863      13.02700120      23.03675300
Si       0.87199706      25.12213241       6.96278225
Si      38.31554972      38.41289578      16.17033829
Si      16.05345896      25.66808604      22.66784498
Si      38.73748870      34.54009599      33.38901130
Si      19.17964043      21.27404859       6.09944294
Si      32.56051780      17.25197287      28.35183904
Si      10.80378906      34.87390494      21.45133749
Si      20.82277732      19.37431489       0.99606016
Si      24.98197871      13.71369819      24.06177020
Si      30.94392615      15.97239164       3.66905105
Si      21.98496380      17.66489593       7.39258990
Si      27.74124495      34.26902150      27.93559830
Si      30.52032473      22.52782450      34.78975874
Si      38.69190294      19.94002629      26.78909193
Si       4.25334526      25.54978886      28.16261865
Si      32.41007398      38.60052994      37.49567377
Si       5.44431183      20.51650693      24.46178684
Si       4.71672082      35.45352842      39.88109493
Si      10.45450321       6.19621936      37.84458721
Si      17.81651986      12.32829521       4.59617481
Si      36.68973187       4.01968042      26.61252761
Si       7.65506442      11.14625563      28.03836069
Si      30.16085407      12.70494065      11.09900017
Si      12.23974445      21.58765124      22.85754821
Si      28.36896400       3.76149684      24.86921081
Si       7.36732212       9.06808601       0.88820296
Si       1.58013927      17.63716574      18.14114812
Si       7.35568146      39.22867483      38.34924488
Si      26.11467167       8.39593737      14.46599269
Si      24.66991204       1.62856696      10.41248251
Si       9.12638957       2.39624581      17.65023598
Si      35.62196696      13.82789581      30.81934414
Si      27.64019225      23.72509688      17.23941499
Si      11.14827350      31.77149366      10.28415845
Si      39.83414207      25.84194072      38.39134714
Si      29.56353793      17.48324620      34.41214637
Si      34.57898785      21.08147301      14.63713503
Si       7.84600929      28.33072828       5.99638899
Si       8.71872238      25.97808657      25.72292814
Si      39.73996884       4.84115073      26.38078762
Si      25.19280965      19.59089466      24.56368302
Si      26.49597684      38.40816396      16.20072222
Si      12.70187391       9.59574122       3.51273907
Si      31.84278171      11.55776792      22.13450688
Si      27.46149776      14.94244658      22.10063845
Si      18.81108729       9.47173343      10.30620962
Si      34.07535209      22.88242631      18.65663383
Si       3.51898128       5.63824454      14.76469268
Si      25.33152441       5.89772983      28.15634744
Si       1.62588904      24.57607623      14.34390880
Si       0.86732943      32.45717147      12.96300064
Si      38.33727449       0.50426335      31.28339613
Si      39.16021654      19.04293500      23.03389162
Si      25.44440142       9.47721294      30.34261280
Si      32.40669267      36.91322348      27.51008715
Si       5.87068152       3.73775973      14.39204228
Si      26.93260014       9.28273128      28.66808846
Si      21.11471663      23.48090089      24.77333621
Si      34.66013654       0.65523706       2.84165958
Si      34.50549440      36.24069939      11.83093934
Si       3.02779793       8.93377509      14.05924783
Si      25.18755059      21.93269586       7.18132308
Si       2.66393918       1.49839679      28.39078833
Si      20.22208971      10.74488323      19.47865176
Si       8.12742656      26.95708526      14.63175209
Si      21.37789051      12.77868330      30.26088744
Si      35.11608042      15.51899124      29.01032253
Si      12.61108126       7.33062932       3.73015012
Si      26.32114310      35.41183849      13.55190581
Si      18.05895831      19.38350467       9.33456374
Si      34.89786779      23.48128500      31.21800298
Si      23.19519531      23.30735512      27.01788318
Si      39.99660065      32.52721155      28.90790007
Si      31.05776905      17.10006131      37.58438731
Si       8.22234443      21.97573737      36.44562748
Si       4.50053274       6.83656721      16.92320219
Si      35.63778491      14.85795712      17.62922741
Si       3.81403847      39.15220474      31.09474314
Si      26.24894527      25.95383129      25.00714590
Si      34.17452047      19.60573377      37.49087773
Si      10.25534690       6.71579943      35.41499008
Si      13.59860395      12.21509171       5.95172601
Si      33.76717745      34.94929083      27.30597723
Si      32.17038305      34.07190961       2.02956376
Si      21.33929789      32.03954843      33.89040975
Si      26.03858943      16.02344489      28.43310243
Si      28.18618953       7.24788726       9.66408231
Si      17.69453823      34.70608508      14.94048414
Si      18.54787393      25.06796266      27.36837434
Si      11.82004280       3.24151238      35.90241195
Si       0.98744856      38.66066497      10.42203869
Si      11.96131586      13.83229795       3.19977229
Si      27.59493959      25.63971717       5.55672336
Si       6.94153781      27.36547499      37.09286667
Si      13.52655724      33.37159620      22.03012631
Si       2.88529855       1.39668532      30.79602332
Si      34.44981478      21.04555169      23.17374401
Si      20.10550942       8.26944828      25.63006895
Si      15.50324591       7.31258727      13.72844216
Si      24.99714111       0.75318948      39.40769681
Si      17.01113734      20.10480286      19.75342373
Si       9.88950167      18.62969286      15.45018380
Si      13.04567016      24.27062297      25.82911376
Si      18.96517028      34.89249206      20.45148751
Si      33.00082505      21.23321183      19.75830491
Si      31.06960852      20.72698110      36.29720392
Si      29.26838710      33.93567478      26.25090674
Si      26.48198422      15.60716551      32.11290609
Si      34.58114654      14.10555195       5.59115249
Si      39.70343457       5.87104589      15.45929828
Si       5.87933984      12.05721323      24.10518026
Si       5.94869371      21.30906359      35.56378989
Si       5.39878297       0.86450165      27.44108143
Si       0.95049041      29.44119440      21.91500437
Si       2.84703123      28.41606670      30.72482181
Si      20.01191207       0.23054224       7.80789720
Si      32.26970070      25.59493867       2.51223658
Si      32.55924432      21.94431872       8.97355129
Si      38.02706461      25.06630138      16.33404253
Si      32.18706250      22.09437398      27.92288261
Si      35.80935700      36.82001965       6.00713851
Si      23.13598296      15.37272675      18.60309973
Si       1.88669557       4.46486337      32.44228175
Si      30.35731488       8.31052698      27.59567282
Si      19.95616177      35.46486219      14.64124611
Si      12.83403378       1.60953968       9.32487737
Si      39.00466538      20.44868916      12.96659867
Si      16.69856232       6.65604135      19.25039802
Si      26.99857383      14.23064954       9.86783667
Si      28.79857343      33.12843609      14.67972239
Si      28.11872868      38.16053295      25.80744916
Si      33.06971775       0.84580198      20.60500696
Si      38.44086306       6.77251382      22.31643143
Si      18.61908521      19.70604476       1.78513904
Si       0.26041486       6.46568987       4.52917101
Si      32.14852375      33.32521047      14.14725049
Si      23.78796300      31.91639479      37.97988160
Si       4.08467592      30.21378519      19.33250254
Si      36.85861227      21.70619035       4.33197153
Si      39.67247861      38.60447211       4.65112245
Si       5.53667111       3.68575745      20.02903852
Si       4.79458961      33.19722961      14.32930826
Si      25.49264983      24.75756554      38.20837357
Si      33.85149169      30.88153061       1.44730092
Si      17.00590982      26.57744333      17.05331885
Si       2.84163490       7.99971098      25.60759985
Si       0.72848074      21.16378683      14.49210147
Si       3.08094242      31.12596521      25.95080164
Si      36.57658502      27.36878707      33.48719488
Si      29.90547991      12.25583201      26.11845981
Si      31.44401144      25.54869019       4.60989272
Si      29.52110859      38.52170256      18.93360994
Si      26.71078219       6.85847257      11.55857237
Si      33.48235682      11.58736866      16.67046988
Si       5.69990274      23.50501034      22.82261163
Si      25.03407736      12.54847987      20.36178124
Si       6.36247975      34.75225464      19.35017077
Si       5.25439180      24.91992929      31.65294403
Si      19.29075888      32.80783669       3.98331075
Si      37.56518822       5.46284551      20.59478982
Si      27.89692994      22.84817139      15.09338284
Si      35.42770138       5.45456245      31.85852639
Si       7.81268973       4.32382614       7.07858565
Si      29.29867801       1.55141066      24.59738023
Si      27.19946084      23.28828071      11.64410847
Si       7.18645579      14.74941165      39.46523374
Si       9.52967388      22.92796737       6.68580850
Si       5.00498229      18.23332558      25.06449567
Si      10.35169174      38.02445385      37.39314835
Si       3.09634966      31.36686152       6.66581873
Si      15.71595504      30.10840130      16.53984004
Si      29.03494276      23.23337476      36.33185019
Si       5.18616968      36.22546977      32.83628430
Si      27.20552856      30.33962402      25.42349188
Si      39.99375963       7.81192210      18.19122076
Si       7.89535491      13.17116540       5.39349267
Si      23.23606402      18.48467367      28.27579979
Si       7.55425285       4.67242732       4.72737853
Si      36.45322682      28.32321280      35.57192994
Si       7.66043198      12.43944035      32.69389454
Si      10.71905177      12.88213010      16.43678911
Si      19.87701468       5.17934224      36.73660194
Si      24.60039490      37.53829187      26.22047709
Si       6.13991133      39.00111902      30.41890080
Si      33.64751092      27.91758016       0.33483716
Si      37.10871144       2.48511289       1.45593044
Si      13.28493562      14.90663337      19.65712057
Si      24.79145631      32.76655829      39.96136562
Si      32.16012286      36.36362142      37.07474302
Si      24.69763057      12.32682828       7.45528176
Si       3.16560605      26.76631572      38.32174772
Si      26.85963373      23.92891394      36.29949245
Si      27.04930072      19.15145326      32.02973571
Si      30.48892622      35.56536255      30.99211159
Si      15.36104367      38.39653872      18.87957246
Si       0.51731740      29.51728617      15.65713086
Si      21.04079491      32.59861971      22.68336954
Si      14.42411125       6.62307604      24.74217626
Si      24.38814268      39.78914055      13.69273668
Si      30.35937078      35.62368133      27.22258345
Si      31.02830627      17.25051597       7.42871765
Si      16.73939518      12.01810717      28.05102263
Si      18.19292343      26.78613504      28.61450638
Si      16.95333056       4.36727402      33.49486763
Si      35.76569406      12.15449310      16.16768376
Si      23.35149478       2.73219626      11.99248267
Si      34.57224587      17.93023941      29.58497273
Si       9.72050983      38.81426372      33.34899938
Si      22.94765962      36.74822112      37.56714961
Si      25.31547885      30.21548099      34.61042673
Si      31.37446393      28.50959073      20.71796555
Si      23.96878429      17.00853722      17.03760834
Si      18.64713610       8.48629018       1.04309458
Si      24.44261777      23.62889901      31.46642667
Si      30.04473607      12.88472885      22.70922450
Si       9.17427927       6.64302226      20.46717418
Si      36.08078041      21.61704805       2.01889108
Si      34.36593405      14.67934116      13.90270558
Si      32.48945525      29.64259404       4.07145445
Si      24.51099578      26.70236495      35.70024388
Si      21.98057013      14.88668775      16.41129487
Si      12.62404875       2.82973869      11.37204091
Si      10.69838551      31.13446329      33.25549469
Si      35.77245103      12.79185153      18.41689677
Si       7.07028738      39.93004978      28.57059058
Si      34.64982516      37.13091182      17.15578553
Si      22.54288217      17.44877923      37.16157482
Si      26.63846486       5.36129672      24.74664109
Si       2.92590626       9.87052960      33.92251570
Si      26.16955241      35.48302069       5.33720608
Si      37.35706325      16.37983498      12.30180507
Si      38.97526062       3.94198098       2.19397669
Si      10.90513207      33.03245880      22.75533895
Si      34.60571719      28.98960550      38.49267936
Si      36.19332125      20.24790507      33.07719569
Si      33.21465135       3.99546245      27.53808383
Si      19.70591824       4.68360764      16.12253911
Si       0.97802566      17.58479969       0.47521548
Si      32.52758647       9.70989853       8.55966889
Si      33.84345389      17.28326654      11.53750384
Si       3.08948391      24.65762700      30.81051308
Si       2.84548484      35.02640851       6.46936448
Si      21.20139147       2.03090637      30.35383775
Si      34.72177670       9.50546531      27.52632605
Si      24.40384721      38.29490063      24.11580985
Si      18.23516339       6.25694378       7.49249394
Si       5.78424015      38.54828773      22.68351898
Si      34.07124204      34.21351460      10.58514353
Si      17.93721076      33.99569496       6.29043281
Si      17.61653441      15.49452910      37.93365860
Si      26.42265617      29.30133853      38.41526804
Si      10.60816555       3.88927672      33.90017705
Si      23.15399697      25.46143419      14.85036677
Si      36.09167156      35.40883204      26.68326611
Si      16.06787444       8.33705517      34.15596675
Si       4.26175576      21.56522781      17.80414076
Si       1.17026042       7.34104604      27.52652060
Si      30.25589363      22.71280375      31.49998382
Si       6.36453224       0.19794569       7.94140682
Si       2.35981907      16.05691791      11.29162800
Si      36.00956067       3.46132994      39.56233370
Si      35.28577304       6.18434320       4.11513210
Si      39.23343952      32.46878502      14.60922714
Si       3.98816630      27.69010028      28.03463340
Si      16.84500733       3.30083396      12.14602813
Si      27.04980196      28.00646004      25.77113515
Si       8.10895006      14.90571680      29.59427652
Si      32.52319238      33.74066720      18.61017957
Si      33.95158075      34.96576070      36.88320236
Si       2.77915930      13.51094365      25.59314272
Si      25.25533860      18.62603143       4.41487824
Si      34.15982773      16.13661723       6.31959105
Si       3.63326573      26.19023965      10.55758111
Si      30.44078200       6.77362675       9.86766544
Si      16.04509155      16.39434347      17.19551493
Si      22.35843342      27.08946337       8.61120763
Si      12.20172834       0.56567811      26.30202017
Si       6.27915243      21.24578978      12.15332135
Si      32.56905445      39.91556776      34.07718859
Si      10.73343043       9.96955937      16.52735316
Si      29.02334506      20.85677129      15.11781644
Si      30.82775120      29.49209318      18.48352301
Si      30.82859206      32.32533082      26.87826389
Si      10.96736590      36.16768107      28.86124430
Si       0.40054614      29.04387287      27.95787032
Si      32.16783529       8.36128842       6.60558800
Si      28.93673491      18.02009750      21.95551557
Si      38.46355678      16.48336843       5.21572814
Si       7.87490551      39.53105270       2.32610010
Si      34.26095996      10.85337063      30.02850270
Si      20.25780133      20.96543466       2.60454925
Si      24.20368679      27.18690974      13.50106614
Si       7.99261003      26.20234611       7.13444438
Si      28.75988989      16.82285963      19.93358772
Si       1.02553049      17.31670644       8.54350863
Si      39.26446255      18.60955006       1.86949338
Si      11.83467181       3.71184558      26.80363946
Si       1.66789820      33.76600547      18.07645279
Si      16.87285079      30.95769069       2.17632438
Si      15.35865439      10.13172509      19.32647801
Si      33.81670439      32.65521147       9.06923754
Si      23.25660955      28.54550246      19.52500173
Si      27.73376251       7.47365503      25.25927647
Si       8.70179003      16.03271418      12.75194709
Si      14.08577739      26.38429733      38.92078254
Si      36.92821290      17.08335150       8.42830007
Si      25.35502013      28.77281645      27.33050366
Si      17.74543973      23.89793436      38.62968141
Si       3.56989210      32.28271491      10.79595430
Si      24.09204095      37.12759313      35.66701382
Si       1.23318795      37.62101466      18.68272826
Si       2.82141967       8.51952139      20.17444559
Si       3.81343373       7.76484422      34.18969602
Si       4.65765362      34.12385622      20.73808159
Si       6.24915630      33.07071271       8.24785369
Si       2.69280366      38.39635058      17.02879822
Si      31.20969591      25.12096408      28.40986602
Si      13.88125056       8.93090430      18.11469569
Si      23.64059956      28.48076284      25.77956187
Si      19.81397826      39.42277857      14.75342229
Si       3.28903726      39.86569572      26.83269425
Si      24.75421183       2.79015918      31.62855128
Si      23.58682169      21.27629957      23.28642350
Si      11.84730749      12.63967092      21.87074876
Si      12.19544088      32.94914150      30.54039277
Si       0.89544100       8.08030248      36.67690539
Si       2.18220659      34.10383243      24.27736483
Si      35.88841326      18.71890402       4.64482455
Si      19.89347281      30.94984488       7.53796034
Si      12.60641627      12.16505665      36.39194309
Si      14.69212157       0.50208653      35.98921833
Si      38.38897443      30.26773444       5.98796480
Si      23.60031674      35.12667310      32.62227804
Si      35.38942934      15.79363904      38.87400625
Si       4.22890946      20.56333248      37.06092662
Si      34.14591091      19.92465601      21.27331822
Si      23.36433773      24.75314593       3.58094105
Si      23.53536400      28.29233626      28.83357416
Si       8.39747405      18.07372280      19.82782753
Si      27.02143119      12.44604330      34.81816357
Si      22.27449124      21.25413680       1.80120397
Si      32.22901474      17.16248014       5.31495015
Si       7.88165555      27.48929835      22.32993020
Si      37.82153852       8.47443056      35.52040046
Si      11.95131226      31.40062093       2.66854136
Si      25.86555919      21.56613321      12.38242328
Si      36.30447262      18.51902156      37.41089368
Si      11.62920290       1.39857802      29.68262553
Si      12.64042984      20.06295688       7.44413387
Si      32.20735878      18.02058148      20.45034680
Si      31.61031172      38.35732724       3.50014162
Si       9.61690103      35.61159045      23.23746948
Si      28.94253652      21.96741079      10.87563242
Si      30.72038565      26.66064410      26.79475781
Si      17.84698980      11.36940201      26.08765681
Si      27.24692065      34.79878860       9.95209055
Si      30.06971494      10.74720948      18.52057810
Si      13.86919671      37.94071690      11.86765742
Si      11.16842636      14.98517748      10.46164842
Si      24.78921434      36.91881889      29.42668380
Si      34.09701245       5.70428058      15.21277417
Si      10.18273666      32.12285619      12.30311591
Si       6.96911259      19.81151633      32.67704853
Si       4.00068041      13.40739433      14.06851072
Si       7.69567305      10.42212886      14.54656065
Si      38.29381783      32.32780694      24.09595822
Si      35.46539230      21.41328944      17.42500985
Si      33.86862363      37.91006728      21.93243927
Si       8.07718794      22.84411565       2.15151404
Si       1.72591847      16.69825201      26.08497447
Si      11.65092009      20.25657095      37.57155053
Si      34.46520496      25.32953341      39.46033238
Si      18.51961890      26.18061910      22.66249522
Si      20.73140346      10.67304261       2.36522965
Si       8.18010807      17.02314470       7.18609008
Si      31.55050809      34.91545526      15.88019927
Si      30.44223895      33.44628550      22.85316664
Si      37.80026581      35.52104904       2.64316213
Si      23.08752036      35.52949075      30.41397913
Si       8.09136910      24.48726657      15.03803963
Si      10.08191133      29.02768144       5.44962025
Si      30.13616252      14.99656630      19.12348178
Si       9.73571127      18.69275210       0.28899513
Si      26.80254886      34.49821823      35.45655977
Si      29.12443212       5.63390668      30.47263084
Si      17.93808350      32.35101870      20.61957307
Si       4.15992712      17.95862518       5.41375038
Si      29.87657480      18.70841215      36.41521477
Si       6.24469888      13.76849162       7.08582643
Si       3.89970972       7.49045052       1.34763601
Si       7.21772257      23.01366138      16.75532520
Si       1.09331205       7.73744034       2.02019121
Si      28.96122284       9.95493026      33.64458229
Si      16.48429020      25.77901195      26.59604351
Si      31.48797493      22.50418071      13.45982691
Si       3.31148168       0.72299693      19.80812093
Si      33.91624131       9.38637427      33.29305298
Si      15.50012723      39.38302316      34.02176102
Si       2.86921387      28.88517871      37.35016793
Si      12.53465074      21.88501782      31.24762531
Si      22.08099732      32.25853524       5.03612102
Si      37.06299016       4.87363274      11.95447305
Si      28.92379397      12.98417619      37.57340253
Si      12.46745789      10.52043030      32.47614229
Si      27.46182123      11.17409931       2.36363051
Si      17.72852174      13.59390398      33.96657019
Si      36.98493120      20.80617286      36.74269050
Si      12.38081890      24.35517667      11.98447812
Si       2.26764890       4.15477150       1.38891893
Si       4.04029486      38.38126030       4.69511824
Si      34.92651636      36.02988939      21.16735754
Si      20.71734333      28.32763618       9.70389203
Si      10.94359032       1.52584874       7.71140224
Si      19.98232404      11.32302792      32.32501872
Si      30.29521199      17.08497141      29.18390349
Si      32.71390355      33.00813226      38.73248060
Si       8.51445910      23.37768042      18.74081742
Si      39.61265753      28.17170692       3.00675217
Si       6.82247545      29.58407883      36.26067693
Si      29.75414551      36.03904253      18.67163736
Si      19.89037111      13.28599421       3.70861028
Si       7.18824111       8.93482054      34.91753164
Si      39.72405402      15.29539812      37.33119331
Si      37.30986359       4.08390494      31.16184127
Si      35.53629939       9.26401874      10.58543525
Si      27.63655524      29.71963584      34.09410638
Si      14.49975033       2.10914318      38.32408361
Si      10.80263772      32.72225030      36.70465905
Si      22.22137848      21.87172847      10.26655042
Si       1.57736972       4.61148008      30.09931514
Si       7.37188092      20.01692128      19.45017810
Si      36.80540712      21.42147663      23.45541613
Si      31.85307241      11.47831376      27.44573998
Si       4.46388583       2.33668276      38.21923165
Si      12.77239521      16.22621404       6.32233279
Si      11.61241324      36.38628032      36.44510069
Si      26.18352012       8.31116820      37.14898721
Si      31.30174521       5.23889499      26.89792408
Si      17.52527510       3.92253193       9.97650807
Si      21.72393195      22.92731140      38.00215240
Si      20.44300285      13.05361272      33.75837861
Si      22.24131861      22.92555861       8.23162333
Si      30.78363081      31.17683561      23.62922644
Si      15.69080316      23.77970562      32.54622590
Si      26.63479543      34.46781163      16.93638746
Si      26.84100176      22.92503446      25.69564522
Si      19.12766780      22.15758448      16.44180706
Si      21.07038021      12.11758679      35.74351215
Si      13.74406730      33.92723525      32.08954532
Si      28.09116866      23.30161964      32.49994128
Si      28.60720151      20.67105890       1.01219605
Si      19.61122029      14.31602155      39.77330333
Si      13.78278509      24.77824709       8.30338415
Si      38.77247923      39.69027666      23.30245447
Si      39.65200079      15.67396061      39.65477126
Si      35.93358889       9.49764013      23.55970574
Si      36.98549391       9.07968078      20.97818211
Si      22.45798444      21.58852898      25.44269524
Si      16.36436740      17.01082783      27.07359295
Si      38.06737505      36.79431956      14.33111592
Si      10.37815649      19.26642473      32.99531881
Si      28.98731442       3.93119170      37.68242874
Si      17.64309788       9.45655964      24.78887055
Si      15.70239849      29.75016844      29.72792293
Si      34.83936755      34.19556917      38.82211504
Si       9.62512419      20.72915395      16.06753679
Si      32.51039022      26.41286766      20.42830858
Si      28.43388616      19.34038415      37.85388617
Si      18.41492423      15.12229484      19.91230789
Si      17.55329638      19.39177713      28.00016030
Si      17.95577085      18.91073139       3.99674873
Si      31.10273024      39.79781654      28.18992053
Si      34.98134973      12.70988125      36.07015168
Si       3.10868647      38.98836926      36.63021716
Si      38.88243610      13.75263517       0.75457794
Si      32.23632825       4.81587759      32.38519923
Si      14.96401341       6.51078841      11.55163010
Si       4.30807569      20.55873682      11.08425373
Si       9.71790179       0.17525288      30.30951346
Si      32.16526302      21.72281774      23.43111135
Si      29.93319946      38.83785648      34.87285369
Si      21.08701965      36.39828121      27.43806325
Si      14.24792974      27.86983630      29.19315825
Si      37.39750300      22.23485701      18.41161896
Si       0.92229086      22.99049845      10.76554176
Si      31.65789271      35.54578579      34.20436177
Si       3.33721257      24.16085623      25.28465634
Si      11.02528805      19.61138438      23.24908550
Si      10.39060347      15.78901347      33.99235915
Si       6.69096529      39.86364078      25.58139137
Si       0.58144297      22.29536568      31.71067750
Si      32.79516864      12.00022972      36.43759412
Si       3.33428635      32.62254138      19.51641755
Si      37.39892082      19.90166750      28.82421254
Si      12.26437450      13.57033717      27.79571587
Si      10.06903961      10.91551071      21.91897217
Si      29.36986510      25.53842704       6.99715727
Si      36.35506914      16.90118335       6.18518853
Si      30.39689296      30.48222513       1.66499829
Si      30.94452657      17.42432765      12.81979939
Si      26.07840134      20.90186216      29.38854592
Si      36.92170001       7.03797844       9.63274206
Si      28.78019107      28.63448255       5.91767785
Si      13.45617925      24.40291357      37.58388558
Si      32.05799377      38.86083224      19.57933353
Si      32.11523289      35.84623953      17.87625157
Si      37.66149354      15.86248099      17.83658319
Si      11.66534043       3.98436681      22.30549155
Si      32.56035426      33.31923278      33.95310696
Si       3.69927201      33.92496593      29.06762642
Si      34.85804723       5.28160835      17.41337743
Si      10.66752697       6.63723955      26.51786344
Si      26.71285165      33.88712570      39.27244144
Si      11.18681073       4.05620842      20.04690930
Si      39.24071936      38.93209843      11.79271686
Si       9.94004436      19.13558480      35.24375996
Si      30.83466818      12.69751096      14.47895107
Si      12.12444601      38.13029132       1.02436206
Si      14.97025985      36.75230563      27.55349861
Si       5.35443945       1.60679024      35.99425596
Si      24.90582055      39.19244242      34.47682337
Si       6.20064962      14.51800864      23.81450358
Si      11.49816952      15.07508010      39.90631693
Si      27.88614142      36.02323956      11.85691484
Si      35.35679776      13.06509276      25.22394358
Si      28.01311802       8.09416326      21.86793052
Si      36.70726427      30.77869505       8.30843978
Si       7.62186759       2.03852819      35.75637515
Si       4.93111623       2.26839488       9.96813158
Si       0.91977452      10.97838731       2.64990666
Si      14.38147930      32.23613209      31.31775832
Si      25.52781074       6.66724438      38.65520083
Si      21.27256147       3.09619133      24.80780261
Si      39.80500864      36.86144193      12.81881007
Si       4.33241146      37.82541553      21.02583522
Si      35.15949570      30.42739778      28.54247717
Si      37.10670335      35.29848017      39.02117649
Si       9.95981192      31.74532679       1.32104644
Si      36.38037650      25.99637435      24.93059919
Si       3.92057108      13.59702336       6.63881870
Si      36.09469509      25.40431824       2.92809346
Si      15.57448158       3.29224303      30.16925856
Si      29.21275999       1.12943405      15.86595277
Si       3.36974513      26.36471593      14.84209119
Si      10.87264453       6.32980298      31.47676023
Si       1.15116614       9.67668707      32.31574222
Si      19.84973255      27.31235744      34.39547924
Si       5.85666021       4.53419154      10.27860799
Si      32.73574661       7.10536538      32.32015247
Si      25.74782153      24.90671264       4.00059404
Si      27.90635120      22.38695539      28.80329673
Si      13.55743059      27.61825554       0.80886521
Si      18.84127730      13.49924860      37.64107959
Si      31.38817180       1.06990781      16.46435787
Si      11.01746130      24.76701679      26.92130741
Si      11.26595867      20.76616886       2.61577976
Si      35.96501089       1.96253374      36.87196907
Si      20.42608548      26.97467192      23.87749107
Si       5.21578193      27.71385209      25.96062539
Si      10.06623482      30.10612283      39.64143734
Si      17.70955578      31.98445881       7.28962731
Si      14.29094748      37.41040172      14.18580153
Si      23.47725330       3.58092109      36.65127843
Si      23.52549512       8.12111292      24.84607147
Si      38.53192560      10.52363294       8.13451216
Si       3.25570478      12.38988382      27.60239603
Si      33.48101674       8.36503226      37.95870238
Si      19.93783506      36.95842148      38.14199963
Si      14.80885368      22.73780183       3.37114351
Si      37.50643390      34.10401397       9.19680182
Si      35.64023526      12.41494015      28.87962056
Si      26.27404680       9.44940080      22.76206899
Si      33.27878147      38.20925430      32.22763150
Si      38.12197128       9.07362516      16.66332757
Si      30.68384339      33.36448075      17.32826004
Si      17.84305018       6.36430171      29.28978497
Si       6.85183885      23.05708740      28.49203080
Si      20.87283405      17.74748282       9.62798237
Si      33.23559617      30.60346943      18.62783165
Si      17.49416320      26.37671844       8.70358897
Si       3.56697336       5.73083221      33.35999918
Si      32.54699120      18.97367883       3.60862544
Si      32.07754174      27.78711107      28.35603833
Si      29.54450007      26.78145052       4.54118277
Si      15.11228188      16.07180239      35.45261472
Si       9.61144454      25.56335235       0.51707861
Si      13.89767874      16.46452197      21.39189613
Si      37.92688433       0.22291124      25.32850212
Si      37.83424802      28.63519199      14.69407801
Si      30.40366778      31.97130115      13.46847404
Si      11.41444367      25.96969557      28.99442337
Si      13.91709355      35.68135423      23.43508912
Si      16.92920554      25.23249937      18.81966165
Si      10.86023826      35.45224743       7.16990705
Si      27.55325419      38.27340509       1.46944663
Si      10.68998104      38.62245057       4.42975695
Si      20.13110902      39.27064614       5.65851982
Si       2.39159621      10.83158590       6.10556904
Si       0.52608679      19.68243699      18.84518622
Si      39.23393550      35.63237924      39.67501129
Si      17.85762572       6.82059558      14.01254065
Si      13.39492211      20.90614280       3.33128041
Si      36.94415312      22.47218491       7.51505899
Si      18.15544088      33.03588718      16.45177123
Si      20.37087313      33.62480500       5.87081468
Si      38.02205267      38.91839993       9.75690504
Si      12.42315117      25.96193817      36.24923901
Si       8.50232986      15.91724345      38.07854120
Si      38.57004685      28.45650736      16.69573747
Si       9.51892913      39.04545453      21.13398179
Si      35.55401815      32.26478487      20.09767704
Si       4.23803162      16.41083629      30.89453406
Si      39.95392385      18.17752540      34.03704081
Si      10.61366681      35.66647578      11.03392232
Si      14.97370059      29.49174309      35.31677878
Si       9.35208125      21.45980490      19.59676562
Si      35.44624163      23.08584461      11.63264365
Si       6.38962468      19.87671975       2.82052443
Si      36.32892902      19.66438713      20.94038593
Si      10.63842990      33.70675609      32.03919874
Si       7.12469328      37.67984093      14.29980377
Si       3.77022606       3.78386484      30.02681154
Si      10.88251902      27.58057771      30.57883669
Si       2.14483503      35.29284643      34.91909921
Si      16.49464092      29.17117209      20.27175979
Si      22.29406771       7.56163875      20.84392515
Si       5.58129763      31.31323475       6.78571440
Si      19.77818419      32.50967434      37.14161549
Si      25.46051969      18.13923210      19.27563588
Si      35.06680751      33.82458033      21.99645154
Si      37.02259690      11.81478817       2.94524239
Si      38.19864484      34.68952273      24.03263986
Si       1.93499844      27.73544202      26.86537023
Si       6.58773235       7.87532199      11.64530329
Si      35.61633566       2.61833672       3.33393678
Si      12.19410461      19.46441774      15.77270481
Si      16.05172001      24.72558402      13.75017381
Si      22.31051985      19.78471727      15.01304574
Si       9.22872087       4.35081422      12.32644746
Si      36.65118176      39.58866814       3.52043360
Si      35.58981599      13.06816798       9.21895797
Si       4.23782372       7.47287787       5.17443381
Si      11.84186608      38.88008109      35.91447659
Si      31.42818091      30.93746739      20.17508948
Si      11.29757521      16.28561739      24.98681451
Si      20.01997792      21.93123174      13.85397818
Si       6.10793189      25.11813987      29.53754013
Si       1.02812069      34.69932924      26.09858481
Si      21.75326351       6.65480250      24.55270559
Si       1.75658120      13.72179552       4.12228807
Si      39.03079072      29.14898347      10.25203614
Si      33.07542030      16.68229204      13.71139126
Si      26.95825281       9.13354319       3.34269674
Si      20.61847791      33.48663281       9.84063265
Si      19.27379813       2.45836655      38.67889501
Si       6.29216869      29.89275481      15.11139947
Si       4.38213179      34.08113484       5.19186501
Si       1.72678619      14.77397762       6.20310475
Si      28.35329327      36.26711193       6.57845849
Si      30.26192434      20.46555619       3.80117009
Si      17.09937469      23.56247478       9.45680142
Si       5.05027509      21.72206199      33.44131262
Si      15.59122569       0.76667166      25.82120630
Si      38.20645361       0.16151914      33.65104512
Si       4.06438593      20.13871389      19.72713724
Si       5.08830881       2.71786324      26.09600418
Si       2.75668049      35.74620299      18.44010655
Si       4.15537697      15.11162334      26.77848023
Si       9.78174297       9.78366072      13.32989157
Si       7.11600286       2.70475672       0.60193315
Si      26.74689303      32.79109689      26.41350402
Si      10.39216094      24.46361333      19.89252686
Si       9.06620792      14.92565904      15.99980100
Si      39.46521101      33.57278720       9.92068534
Si       0.09567679      22.26237639       1.37018618
Si      37.21512007      37.99517895      19.45895981
Si       4.66669609      24.67545144      36.18681498
Si      22.20408389      32.36113621      30.93382628
Si       5.26601751      24.19914758      13.57861552
Si       0.06258475      31.30384010       3.03899100
Si      14.15301858      17.84262604      39.13725493
Si      29.94541326      34.18623438       8.13244051
Si      22.96728198      28.73964241      12.68148687
Si      39.24055672      10.01839964      34.55372419
Si      31.16125010      38.53035852      32.91002762
Si      26.71502407      26.85182516       7.39751179
Si       4.36534417      16.67151708      15.19427415
Si      13.78306620      18.22558638      14.82781996
Si       7.34074063      27.00922182      11.09229461
Si      16.97674168      32.97282402       4.42325706
Si      34.62463625       0.18797125      22.66095175
Si      21.76189087      12.92550761       2.25904545
Si      26.91049286       1.33103374      38.34642552
Si       5.91133285      31.46299627      39.77977676
Si      36.82452350      39.85567802      18.12744989
Si       3.39550699      18.61339288      31.29949766
Si      12.51921232      10.68339455      17.87429009
Si      30.93821179      26.72916583      30.22973187
Si      30.55944515      33.13183266      20.61502343
Si      22.00905924      28.13173533      22.63926677
Si      13.65399737      12.81857390       0.00280263
Si      37.71053059      19.83584645       3.62571416
Si      36.06497563      26.99442901      38.77008550
Si       7.42458314      15.32643430       8.42912663
Si      14.43280581       8.35094435       6.76265091
Si      24.54300198       4.68100194      12.13897463
Si      16.43108111      39.30848011      22.42866517
Si      11.05941370      12.18461232      33.43928437
Si      30.58914097      22.59466832      26.35154041
Si      20.86985125      39.59426869      39.22609867
Si      35.51086841      24.21923611       5.00410855
Si      25.05809283      28.03961434      15.52902828
Si      27.27424232       2.04805850      14.25764598
Si       0.91937675      22.59849506       8.44862327
Si       4.27190928      31.29687196      32.87403139
Si      32.77178917      23.49898408      11.60812611
Si       1.46268446      10.06881305      37.40328403
Si      18.43691260      28.14119846      24.66618424
Si      33.47395385      24.71161828      27.61903451
Si      20.50410086       1.06162441      24.17411182
Si      25.58511002      34.51263066      29.10990875
Si      21.79633348      22.90396471      20.22942434
Si      30.79300848      27.44029202      23.53448359
Si      16.81336353      30.80360251      21.83091773
Si       8.02019110      12.95999656       3.11136269
Si       3.70418861      35.12961659      31.08946988
Si       7.53589613       1.77949427       2.69407547
Si       8.11150435      32.66038485       4.68733732
Si       7.48289615      28.67449905      32.35633809
Si      34.96030511      39.96821910      25.23649229
Si      28.68699729      37.50583444      38.16658042
Si       0.80768240      30.25014875      26.00326450
Si      33.38867488       9.10450587      29.49781290
Si      35.06468544       1.33961284       8.93840671
Si      18.33904175      34.27794751      35.00187139
Si      13.96283126      37.84345253      35.04379134
Si      14.00325580      35.84712307       4.53788432
Si      11.26825458      24.95874305       3.54489538
Si      16.24755261      30.77946811       4.41781576
Si      28.84239568      35.51438241      34.94850164
Si      31.51585534      27.10755826      32.51880834
Si       6.62431070      23.87052024      39.06844475
Si      38.05828222      24.37510927      24.17471330
Si      23.71251995      17.22394643      11.65089617
Si       8.71599773      19.41399019       9.22515574
Si       9.73920924       4.46706581      16.41696265
Si      23.00841687      22.18680146       6.13097141
Si      33.74325666      27.46710126      25.68290118
Si       8.58011075      28.24175780      30.37419877
Si      18.12130224      26.77012945      10.96083430
Si      21.27013851      15.02154920      19.87333820
Si      18.78189476      15.76544891       8.15201651
Si      17.92675481      30.27283395      23.74897306
Si      24.42107134      17.30410760      35.74314873
Si       8.30402291      30.83393659      17.64113529
Si       0.10962284      18.35466010      25.35811098
Si      38.11614334      35.78028527      31.43265814
Si      38.36333057      23.15570994      39.88912268
Si       8.73951523      32.77731611      15.32147391
Si      31.25277936      14.12026191       9.57325465
Si      14.62304237       6.70906418       5.13131610
Si      17.84721016      38.00885905      38.22579222
Si      30.28511635      30.28492257      25.75657960
Si      30.70350318      13.71640319      35.00771313
Si      31.35931424      31.12987015      16.79819028
Si      17.38041624      34.41305218      37.18776023
Si      35.10632898      22.08202421       5.99552326
Si      24.79411559      10.39491623      34.59077751
Si      36.89091912      23.01010139      26.87318823
Si       5.67288591       9.68120796      36.62752456
Si      32.00173633      31.96639032       2.38214995
Si       7.30490818      26.97655290      28.77997506
Si      16.06542680      12.48103673      25.04852382
Si       3.30833017      15.26465637      20.45651250
Si       9.46776360       2.47649358      20.02881225
Si      10.74822343      17.35045976       5.86292217
Si      23.53732967       9.00545042       8.43358142
Si      39.01929243       3.63891881      35.27114699
Si      17.95961723      25.94730886      34.72862392
Si      18.32471352      22.97425423       2.36074201
Si      38.17296027      38.86469433      37.50802933
Si      19.75606750      32.33891150      28.67048031
Si      26.95017229      29.79111562       8.71746243
Si      24.07087026       9.30895770       1.61732398
Si      11.38659852      12.80814624       0.06351829
Si       9.36235561       1.83277389      37.33865212
Si      19.47903196       3.39629536       8.57822850
Si       0.00384542       8.16132374      15.79805650
Si      34.40505476      38.58467818      39.03215349
Si       4.02588989       0.06446470      34.76433077
Si      31.81503107      11.81687110       9.56407515
Si       0.58803520      25.16526266      18.52978569
Si      35.76226873      16.80971734      22.32988770
Si      19.61753286      16.34956322      17.17016271
Si      20.73113233      36.94493452       0.33010058
Si      14.25039556      26.78939840      31.33502656
Si       3.10901505      22.66713768      36.82025303
Si      23.87192624      26.81192451      23.08896150
Si      14.13574825       9.58715685      27.13257775
Si      21.03194453      30.28284659       5.56015854
Si      33.60644356       7.44730827       3.17148664
Si      23.09687225      23.68987479      18.20587160
Si       5.69048003      17.32128805      36.00300370
Si       1.49925603      10.01138761      12.72805288
Si       3.64726209      27.87129612      19.65609174
Si      20.19495168      20.66449010      22.39614166
Si      25.30176266       1.50966106      26.62564415
Si      34.90821190       7.99044077       7.74684933
Si       2.74757648       5.47660880       8.83267532
Si      14.18768579      14.58509588       2.66305882
Si      31.54991768      16.76161790      25.31835670
Si      14.68328503      16.67697644       3.61825282
Si      16.89019977      18.01094128      13.51655892
Si      22.44646771       3.09967069      28.76069940
Si       5.07977797      18.61246579       9.97684022
Si      19.25759589       4.62625447      30.44110300
Si       4.36371083      28.58779375      14.71290576
Si       5.01414908       1.84404588      13.30396635
Si      27.97111140      18.76891952      12.32746790
Si      31.27056222       7.29320517      36.43285638
Si       3.21081015      28.35047705      25.06659456
Si      13.17301379      28.94272758      22.41062876
Si      33.67499600      17.96945696      22.26659545
Si      25.34714710       1.72943023       4.12362858
Si       6.24114792      26.76692079      32.99790678
Si      11.07173038      27.88692886       8.82570166
Si      22.14915443      31.55928633      24.43081902
Si      33.46438355       1.69946813      15.89065392
Si      34.27574398      11.78021726      33.86027880
Si      10.63325749      23.37044067      22.91953516
Si      17.49146694      24.88588412       1.24187389
Si       6.69653195      29.49238660       7.75070255
Si      19.32454995      23.27843881      35.82191579
Si      25.57891808      18.44430590      37.24108528
Si      13.12414690      36.49597716       9.92783676
Si      18.73412439      23.48480810      30.83825111
Si      26.75963893       4.68447312       3.51866932
Si      26.97959622       1.53970613       6.00424098
Si      13.44323724      31.95928221      11.02849005
Si      14.81034258      24.08470147      34.97384798
Si      33.07964287      25.52964309      33.32640866
Si       6.81433637      11.97073474      21.36902465
Si       6.35737803      19.16669141      39.02123661
Si      18.92111337       2.38816672      30.65887879
Si      19.88050630      22.93981813      28.65307355
Si       7.17220472       7.19552745      28.09725391
Si      15.13348001      22.78257090      37.05012604
Si       5.34445307      30.10528192      28.18881372
Si      30.71277416       9.06541169       9.88697072
Si      15.79150355      37.11118588       3.33564687
Si       6.25246493      39.39198089      12.78210627
Si       8.20562871      25.29964903      19.92952760
Si      16.59331749       8.06328424       7.84061503
Si      17.46056857       7.54367022      11.00514838
Si      22.01412845      24.03036179      28.93823084
Si      22.06585310      26.49676555      29.25663250
Si       3.67970372       2.15403944      24.22832617
Si       2.09971649       2.01434767       6.90290926
Si      28.52521925      11.57934712      39.34157549
Si      23.27604202       9.25981051      10.72182019
Si      27.49546272      17.92177120       1.82374491
Si      15.66757367      14.75280303      31.63658678
Si       5.22325997      22.34958157       0.18251450
Si      36.28288679       9.77846757      30.69060498
Si      29.44595742      35.46421230      15.00762911
Si      17.38546561      33.88092508      12.81928486
Si       5.89857402      25.35660146      10.49524654
Si      13.38031930      20.17524461      17.77501702
Si      29.81020742      36.32211276      32.94928949
Si      14.38483153      27.31099179      11.07280624
Si      20.05236828       6.34968863      34.80325595
Si      11.05056721      13.42457675      35.63462478
Si      21.77871143      30.30532307      35.57299726
Si       0.90839754      23.58244145      36.56856833
Si       0.00407692      20.30438114       8.37438756
Si      19.07971234      13.52462263       8.11223945
Si      13.30031482      20.91750664      11.37026414
Si       9.44570451       5.57607862       5.69632826
Si      28.28833096      36.49963725      27.39924212
Si      34.15432200       6.33192593      27.17649956
Si      39.18914442      37.92326985      39.59510665
Si       5.21010450      15.69061778       2.86008339
Si      37.99768449       3.06709369      21.17486371
Si      38.96638521      37.67108408      20.62009474
Si      13.02694900      21.84184077       9.06166415
Si       3.46561649      28.27022366       4.77737859
Si       8.30684827      37.11545989       1.29263480
Si      29.27116468       8.67027428      23.93488421
Si      10.88389796      18.84147073      21.04323097
Si      33.80214979       4.21457625      30.83830151
Si      26.01500866      27.10700285      37.44560908
Si      28.33862856      21.54070012       3.15940541
Si      18.26534183      37.61624844      32.62091536
Si      17.20930323      25.51949917      32.74907167
Si      33.97282446       6.76719133       5.99055259
Si      24.54394860      36.75431168       2.70207334
Si      22.38631716      37.95104203      19.77192478
Si       4.93447383      17.99603334       3.32763039
Si      33.12341212      18.30560265      26.37710305
Si       9.70570126      30.92447088      14.23728169
Si      27.71469211      16.14246213      34.83403295
Si      27.86549899       4.06157679      29.24102102
Si      11.52791212       7.72431450      22.87324044
Si      18.19360911      15.49265313       1.27326005
Si      32.17139692       4.80222512       2.20439903
Si      19.49526680       3.86049987      26.37724052
Si      15.99706444      12.52141031       6.22053303
Si      35.29748775      33.63159952       3.74783361
Si      36.53335781      33.62277911       6.36576154
Si      32.60007434      26.57438328      12.99445076
Si      17.87046215      28.68536284       1.49897230
Si      10.42529170      20.82889758       5.98944450
Si      31.71939534       6.42597529       3.90835966
Si      34.39689056       6.51704259      33.83412753
Si      21.92716717      20.54617138      19.48340889
Si      32.31113179      34.84381252      23.82528551
Si      33.40752848      37.26379703      34.17883240
Si      22.87594682       4.89192186       9.62272192
Si      13.92304155       2.11628075      20.52183682
Si      11.48103706      14.88477427       8.22682942
Si      19.92385760      10.63244311      21.85327518
Si       6.36182706      36.77212366      18.07437195
Si       2.41052396      16.70637644       4.18922169
Si      23.62801611       7.39189525      33.28900063
Si       1.98608472      22.04500122      12.75872707
Si      11.71249253      36.57199745       5.07106490
Si      35.44116108      19.39571080      27.94676723
Si       8.16304057      28.14305945      24.64066884
Si      10.69204493      35.97769956      31.24495880
Si      33.48185833       1.81392367      25.18897750
Si      22.81674754      14.94309350       6.36057932
Si      10.20105080      37.45891526       8.09215684
Si       2.93301083       4.21252778      16.69047669
Si       3.12438027       0.56663527       3.09291112
Si      21.57710423      34.21144374      37.34567702
Si       4.67267003      22.04930881      28.35687305
Si       1.84249573      36.49764175      37.92298746
Si      10.89960964      38.56750055      22.89222988
Si      12.94917867       6.68712368      30.29367697
Si      16.49014910      10.77690668      30.02229568
Si      26.72740463      32.99427137      13.69682341
Si      12.40393577       4.74367936      32.57226492
Si      28.58052280       3.56287845       2.52701847
Si      13.18691114      10.38194551      14.30039961
Si      22.19564194      14.86178734      13.73384802
Si      20.64951276      29.66379330      26.11535473
Si      28.75266328      38.90307718      29.95972697
Si      10.03666176      37.84947892      27.28080386
Si      29.91539055      35.68953292      36.91356743
Si      16.42855131       6.46127853      26.16130983
Si      32.43900223       9.33822358      13.54879545
Si       2.04832420      18.52186522      38.59289909
Si       5.55866785      33.72750201      24.95608652
Si      14.65438079      31.70566318      39.70787512
Si      37.73311439      27.66617190      11.96204235
Si      39.76956151      28.91100329      38.56442593
Si       5.77491231      29.15938662       0.09420695
Si       1.00037494      20.12928797       1.61815051
Si      10.23058577      10.94309720      25.07783801
Si      20.80857605      25.20566251      15.25231654
Si      23.74869889      10.30451622      18.07180148
Si      36.88993482      17.49500346      39.63784187
Si      30.84902383      36.03675654      24.86693968
Si      35.57524527      19.29241615      18.68472081
Si      12.35620061      34.32790355      10.00147084
Si      33.73073409      33.73861827      30.76060505
Si       8.79736891      37.76126480      23.29850318
Si      20.42784696      32.94431661       1.04675166
Si      19.40205821      18.78785268       5.74791424
Si      33.90890641      15.17019552       0.58200086
Si      11.11602575      37.80481461      10.18112936
Si      20.05536938       5.55301181       3.40572701
Si      32.04624925      26.10290845      24.86846732
Si      38.38403331      29.01596003       8.03825801
Si      22.26938243      28.49746978      17.51591953
Si      39.88220322      37.15957475      22.84293416
Si      13.07731449      25.73439397      19.77582200
Si       8.89450064      20.57571788      31.61834890
Si      26.33952425      23.86420578       7.78420282
Si      34.79116735      10.16689932       8.42019980
Si      29.15045129      28.80927832       8.39618630
Si      34.27163361      28.18482911      12.80068072
Si       6.33156232       7.49113080      18.18250320
Si      14.73035166       6.78595892      20.63403730
Si      12.19030267      32.97457687      33.67341320
Si      31.57020505       2.44446868       2.92242631
Si      18.02801965      15.28514988      25.39331999
Si      21.99169514      22.45258402      12.51385400
Si       8.48049314      15.88140772       5.12082326
Si      30.14030015       4.33766399      15.49038644
Si      15.14850572       9.34535512      13.15186033
Si      27.81869446      18.90759819      14.61104959
Si      33.24689896      17.42501921       0.52544562
Si      20.29280807      36.55575821      19.41813510
Si       3.04611942      29.79107143      23.09450127
Si       5.29629776      25.38707882      26.05033241
Si      32.90736945      16.02824147      36.10517772
Si      19.37535790      29.74563563      35.72184967
Si      38.47477581      31.98620522      37.64203444
Si       7.90502901      10.51742633      19.90072112
Si      28.59785439      16.13769541      31.07510174
Si       4.65017977      24.21212765       7.28055486
Si      18.27556767      39.20344305       9.06107632
Si      22.83626158       0.82726484      27.96963398
Si       0.67835695      13.70697205      35.82254718
Si       1.74187163       7.46979749      32.81440868
Si      36.60516105      11.37262931      39.68390590
Si       0.00564987      28.53162519      13.53542382
Si       3.01676970       9.09562288      11.21563788
Si      37.74255175      33.06264259      20.02161005
Si      29.27351620      37.61610991      21.97705526
Si      17.71875562      10.14087763       4.05281405
Si       2.96917652      23.38079833      28.95385844
Si      20.26240605      26.21440143      32.36025635
Si      25.92916774      38.23330071      22.17837423
Si      20.57824818       4.32098265      28.39473013
Si      39.27270647       8.30145639       7.76793880
Si      19.49255441      34.44108314      38.41553812
Si      33.71076598       3.02054921      17.66366273
Si       7.95357628      35.56823453      20.61089938
Si       6.53560068      31.67911149      21.73714501
Si      32.89764109      30.73334274      39.42979005
Si      21.32445992      13.36381829       7.23995353
Si       9.73712423      30.76282173      37.24715905
Si      37.19350589      31.59237022      26.12632890
Si       0.56981526      21.39458426      16.94158498
Si      29.48038666      18.23677257       4.55747705
Si      22.16082158       2.72734174       5.15945671
Si      10.05640677      38.71145731       1.98353766
Si      39.24506971      33.72912493      36.51804972
Si      30.42723492      19.14145758      32.68369041
Si       2.61253038      30.41731465       1.34287828
Si      17.61847710      37.36013617      12.57056753
Si       0.68365674      23.31680783      39.01127830
Si      19.49088221       8.57848756      23.38602714
Si      12.86138484      22.47346535      28.95202414
Si       4.51687643      10.78003904       4.79065958
Si      39.23896783       7.30247293      38.02757477
Si       0.60620337      20.05105707      28.21714293
Si       3.92478604       6.07175637      30.39433762
Si       9.90603794       4.56115140      27.60338557
Si       0.50892740      16.77475046       6.31414442
Si      18.65580245      35.49022327      11.62136393
Si      16.50485521      14.08026408      16.87771830
Si      15.73191622      39.39864739      30.80526037
Si      35.34500565      29.18017432       9.37950448
Si      34.98986032      14.95701909      36.70706965
Si       7.77649066      37.50916500       7.86564501
Si      32.10355178      36.44915330      22.07873245
Si      26.49331114       1.42235056      16.48976836
Si      17.76563881      37.44565476      26.02839165
Si       5.81425531      22.16045667       2.46841857
Si      36.20767253      16.95194978      32.38202366
Si      22.90595322      25.43155370      36.71594497
Si      12.64772845       8.30508907       8.27646876
Si      32.73070250       6.80089443       1.25206852
Si       2.95582489      37.50286830      14.13742005
Si       5.27123039       4.46158295      31.67371452
Si      24.31585359      18.02682931       7.89435141
Si       7.82531513      12.43094613      38.98045835
Si       7.02080747      13.91069719      19.92994732
Si      22.07518577      11.56131419      22.63040737
Si      31.40717228      29.94727775      27.81311011
Si      38.19225813       3.17445716       6.38418157
Si       5.25104213       7.68604495      29.35043858
Si      37.72061870      14.32748671      36.72613698
Si      30.46806874       1.51754066       5.49801718
Si       6.61420472      36.09794781       9.52764070
Si      18.40767894      11.26281236      15.71551679
Si      10.92537364       6.10267529      19.20067641
Si      29.16596994      39.94935767       6.72237352
Si      13.65169374      10.58178832      34.99443034
Si       9.32340969      13.57495081      19.63600463
Si       3.10795058       0.19992332      15.47084231
Si      23.90950022      12.71310989       3.51963872
Si      26.00089859      25.96460555      32.35041340
Si      13.53953956      24.85660965      29.32365840
Si      28.43786372      35.40671732       4.44484463
Si      27.46087109       5.98472716      20.13360678
Si       4.30179297      15.12335596      22.58500312
Si      18.07595156       0.37122261      17.96350202
Si      32.05697860       2.13656135      26.96441156
Si      12.55628963       2.79530433      18.76116536
Si       2.78603737      31.11924833       8.98320462
Si      19.97205621      11.40607101      28.92644252
Si       5.82160540      37.69263567       6.02809832
Si      25.16841476      14.44230526      21.73017467
Si      33.80554193       6.44230289      39.16686271
Si      38.81351953      39.05482628      29.39981686
Si      23.16889016      30.14523719       4.79555183
Si      33.59337471      31.66237550      16.56436021
Si       6.03004717       4.81438752       0.95514344
Si       7.92336743      36.30572497      27.42934096
Si      20.17299447      15.36943442       2.45485546
Si      27.69384870      16.73722568      15.77062140
Si      11.24650223      29.48106502      10.55955027
Si      12.37417195      14.14270356       5.50853562
Si      36.09435608      29.60122025      32.47933925
Si       2.05961677      24.51337618       0.63840139
Si       1.39208867       3.90725224      18.41441481
Si      33.35602124      25.41502005      14.75282987
Si      23.23281077      37.30245842       8.82188461
Si      13.02214257      33.97629878      14.30543538
Si      14.63659020      10.03246426      22.86636795
Si      26.03645611       4.72650673       1.26998122
Si      34.08910652      30.36474351       6.77442863
Si      37.78485925      10.17359383      13.21462603
Si      27.45263116      35.07390287      23.77008055
Si      29.78892423      20.81516806      18.63638417
Si      36.03560113       9.45584777      36.43450508
Si      15.72229517      33.14647268      33.08590266
Si      22.56808615       2.28008824      34.68021981
Si      23.32199245       0.72423393       4.95431048
Si      37.40927399      38.25883922       5.30149691
Si      34.21401393       7.99544521      35.70125624
Si      11.58075522      31.45361951       6.89698200
Si      36.84574807      26.02307487      13.18130667
Si      23.37871972      37.61899364      14.44317148
Si      34.29237281      26.08995858       1.59038939
Si      22.58850736      29.92191560      21.17514771
Si      36.03489768      14.17386125      27.22076884
Si      37.40899032       8.43302193       4.62208099
Si      23.28059542      33.54201405       7.80525310
Si      36.86805810      27.66620092      29.07591510
Si      34.83085683      37.61764602       7.97164932
Si      35.21434199      25.65799184      36.96843437
Si       4.02552149      34.00967925       8.08828868
Si       6.21690493      38.35691997       1.53916077
Si      22.49756483      31.82773627      11.79557835
Si      10.60387374      16.64651384      21.73268575
Si      27.48550173       6.58637139      14.17976213
Si      16.26121474      32.42679930      37.76555957
Si      32.77798702      18.91314763      33.41631576
Si      12.74304857      33.48414130      18.04035031
Si      18.98240795       6.57528904       9.66767691
Si      25.31959436      23.17404830      17.57883049
Si      30.34954006      39.01158550      26.13893702
Si       8.74359431      23.46995632      11.21238763
Si      32.15320785       8.54164812      19.83268607
Si      20.58411515      20.80160690      29.19146534
Si       9.39520244      24.14090896      13.23079201
Si      32.28236665      26.45102341      39.20733444
Si      11.57732154       2.60254849      24.99181374
Si       9.38296615      10.99874832      37.72065570
Si       6.03966531      23.58636622       5.43464861
Si      22.48748826       2.67539081      32.12293735
Si      28.58632971      21.52701134      26.71440414
Si      36.47803246       1.09802778      21.41168648
Si       4.82870590       4.33513106      28.15398975
Si       7.27222034       3.62502273      34.28421688
Si      12.64869227      15.91272608      38.11279057
Si      32.86886856       9.85197420      23.43862872
Si      23.78375193      39.16097223      32.45317574
Si      18.99458877      36.70729691      16.48755617
Si      12.50542268      17.04920401       8.45242066
Si      20.15424317      26.98417397       4.38808510
Si      39.70255824       1.64919957       7.46418685
Si       0.61948079       0.85443226      30.63969811
Si       7.67983799      19.74145654      25.16927053
Si      35.96214358       7.08645125      21.34687218
Si      19.46802237      15.66103642      23.46645414
Si      36.13319374      30.01154803      21.89859016
Si       8.10501835       9.04138412      22.65672243
Si      20.78000851      35.44675970      25.43959663
Si      12.95988759      31.84053557      15.36954789
Si      19.60076177       6.97110312      15.54919453
Si       2.78734704      39.65325562      13.30108329
Si      16.08546225      20.24531209      10.17411394
Si      18.68475379       1.27025002      22.75253703
Si      19.01407898       3.22494653       6.20115090
Si       2.70628322      10.40816535      15.75543924
Si      28.58566471      34.18408025      18.26286337
Si      17.70753432       5.48187584      37.56619132
Si      14.09246935      10.06138473       5.33981096
Si      28.48631567      20.73629697       9.04616270
Si      23.22610774       8.86687887      35.03594835
Si       5.02706317      18.41930605      32.83381945
Si       7.46472895      32.50285107      34.32193071
Si      14.67974019      17.81683483       8.65733581
Si      12.36728352      18.03964535      17.78607549
Si       7.49821472      33.35436073      28.66826704
Si       9.17629532      28.38942526       3.28134695
Si       2.49447316      26.46158711      29.57146197
Si      13.59362340      24.03135351      31.51188900
Si      21.67192914      38.82890020       1.42516782
Si      30.45194308      15.96384396      16.97320028
Si      27.61734121      39.98177692      11.77652367
Si       1.26189617      34.93743049       9.33172773
Si      14.54507964       7.40889047       1.31987312
Si       4.20929264       3.50873063       0.18792391
Si       6.84302435      26.56580674      18.33021569
Si       0.77310945      34.31905349      38.31202858
Si      34.43692323      12.26435717      10.99322129
Si      24.79875885      30.46905841      25.30337160
Si      13.35494462      35.65611910      28.81378643
Si      29.29608066      18.69698326       8.21238770
Si      27.22539349       2.10405766      11.09658868
Si       0.76332877       4.99293687      34.33282964
Si      33.68535135       6.93077414       9.64427187
Si      14.82222348       1.86973850      11.84659011
Si       0.44208638      11.41592709       9.06042553
Si      35.54126554      10.15666898      12.72012928
Si      20.49119139      24.86020200      20.37148903
Si      17.87866873       9.94341941       7.99685183
Si      23.91623893      28.56738710       9.67464787
Si      38.93678348       0.33729485       3.61229488
Si      16.00148667      38.52581650      15.47504028
Si      31.66525589      10.49507026      11.47314422
Si      29.62617246      13.89446697      16.27508369
Si       8.73772757       1.46360194      28.59533726
Si      20.10318957       6.91788569      38.17348574
Si       0.72071148      31.74987202      16.41495947
Si      37.21019608      32.40890030       4.41941646
Si      38.84153205      12.02072292      39.23943681
Si       5.04287248      17.37855450      28.89121944
Si      16.08802400      20.70839517       7.79251586
Si      35.34920352      15.77814484      11.12507446
Si      23.82075026      22.43301954      12.02735889
Si       9.22002152      21.73150879      21.85744031
Si      38.81512769       8.12333727      13.71096302
Si      23.28401435      21.61937829      14.14166617
Si      36.50042544       1.20732577      12.82304438
Si      28.34627774       9.32611668      37.08147554
Si       8.73653548       2.28837647       8.02977714
Si      30.60045986      38.19539873      39.00472991
Si      32.54740047      21.96238103      15.53173094
Si       7.02840572      16.73321055      18.58765742
Si       1.76306340       9.87099922      39.60328708
Si      13.42844869       5.65873487       2.32368625
Si      25.95663972       6.97557350      21.47809888
Si      39.01485615      31.05127302      30.63578399
Si      39.59761434       8.86984411      11.61192985
Si      28.14864689      33.32127598      22.52002889
Si      14.41899789      18.32643428      27.51782621
Si      35.90202275       5.38564142      38.33850005
Si       3.54839132       6.64973915      19.10064100
Si       5.22673301      23.69026886      17.22237200
Si       9.31126831      34.92880455      16.37152647
Si      32.12349299      10.63223113      30.64035913
Si       0.42301384      26.51750698      28.42661124
Si      15.68632901      33.12297747      24.33906410
Si      11.66248911      29.88345645      14.99061299
Si      13.22316555      14.88497147      31.56025427
Si      25.73817549      22.34979179      38.79554241
Si      26.13583777      17.38426001      33.52476584
Si      24.69560007      31.75043439      27.21987526
Si      35.26551155      36.50584948      38.09165106
Si      31.18483979      35.46683408      11.75686393
Si      31.35011489      38.92431345      17.43082849
Si       6.65239432       9.69223937      18.25231996
Si       4.24031286      29.36077001       9.48513922
Si       4.03970090      18.93826089      14.58716970
Si       2.07793983      19.38716829       8.45314234
Si       3.26748682       4.12508497      26.44368350
Si      30.46945615       6.29893000      28.79649094
Si      28.95425491      22.89051154      21.22042069
Si      27.68649978       9.12184706      11.61491321
Si      18.97282619      28.96360002       8.31354653
Si       7.35561369      20.88392472      15.90219216
Si      39.14992422      18.32331351      28.76212330
Si       5.80877467      11.10719859      38.41042495
Si      32.40659109      31.94373329       4.74878394
Si      31.53513241      17.40659887       2.04811728
Si      15.02425887      27.76933500      16.65772413
Si      22.71240790      37.32989547       3.91397910
Si      22.90594947       8.98989401      27.91879272
Si      15.57956309      34.45040820      22.29543782
Si      23.94921974      39.02741572      30.10286597
Si       8.15914956      35.32524321      10.92901452
Si      20.23589388       9.19357593      13.15484081
Si       7.33570397      25.84498122       0.20070529
Si      31.42028659       8.11736824      23.87361215
Si      20.75228064       8.04974702      28.08383256
Si      35.13260351       2.29245224      31.43573668
Si      16.48511607      12.67805815       1.64668026
Si      12.34469955      18.71968756      25.10873281
Si      32.81486852      14.72194026      30.51254854
Si       9.04100915      37.51296188      19.48291406
Si       6.69287803      38.86460520      32.71469358
Si      24.96519602      28.65946246      30.73852391
Si       3.51807430      33.93053259       1.35665037
Si       1.22067909       0.98332240      39.92815877
Si       4.91102153      11.21443613      17.53229296
Si      21.63393649      31.30768830      27.47597072
Si      29.90903504      37.77073784       6.83005400
Si      36.83289762      18.67630042      22.97936950
Si       3.01493849      16.58476588      35.12345814
Si      15.56520113      20.67889227      38.91474880
Si      38.18575522       2.20647192      14.03488569
Si       5.43506293       3.82466611       6.80053070
Si      32.23756811      28.98034804       9.93440740
Si       5.20010342      11.48229713      15.03917361
Si      12.17724516       9.33449680      39.52411655
Si      10.07922083       3.19596545      29.50616350
Si       4.98723050       5.57765483       8.25826665
Si      23.42911146       3.65038449      22.14005728
Si      19.61353889      18.40950725      39.32209465
Si      18.68079219      30.08481126      39.86024959
Si       2.71955075      26.94189609      23.31706682
Si      35.79059172      24.98452682      21.15897651
Si      12.60448155      18.31661736      32.82461722
Si       6.52481887      37.31757610      20.41215199
Si      16.04179233      37.77034891      32.36424685
Si       2.90163477      19.59622068       0.34785758
Si      38.77882129      12.63149570      35.74403378
Si      24.22339759      20.62441234      28.03520309
Si       5.83313775      35.01434339      13.40244333
Si      19.55735103      31.43449363      19.51524620
Si      29.40119653      39.65795744      20.93263361
Si       5.18078623      11.38436860      29.99833124
Si      26.20236872       5.56507529      15.93082657
Si      12.35341833      14.67176109      16.18851493
Si      37.55704156      10.86508873      15.42124582
Si       7.89422564      20.73116077      38.40194449
Si      18.97773603       1.64942649      25.81261255
Si       4.98591434      12.55473999       1.56104324
Si      10.57446422       3.91177115      37.81561836
Si      19.32047273      31.38866089      15.17261461
Si      18.80913616      23.97460145      21.69972731
Si       1.89436307      25.72186343       4.97149182
Si      14.59488436      33.94109949      16.69368346
Si      35.56691814       7.00862603      28.98433827
Si      15.23083139      39.91729877      38.66300487
Si       9.13719770       5.69484572      22.67604619
Si      12.21449891      17.26250051      23.20220941
Si      19.09003073      16.28633043      14.93192978
Si      12.70874528      34.43876579      39.99196709
Si      14.47254316      24.30118325      21.67336211
Si      18.97779015      19.23774489      12.72512162
Si      12.70000988      21.34735165       5.47576578
Si      13.94917480      11.32628415      24.46929542
Si      25.52872063      20.80071117      36.99414018
Si      13.95289567      28.80691963       6.65219377
Si      31.37075200      32.37877116       8.65061201
Si      36.29990668      36.84039251      34.06789696
Si      17.77416361      39.99589559      15.61391569
Si      21.44747391       4.33427379      11.59349039
Si       2.98383296      13.80150693      11.74046098
Si       6.97511029       1.51869006      11.91412929
Si      39.64956480       0.68094721      37.82442774
Si      25.22280898       9.91330996      27.21479385
Si      29.53363511      23.97608801      29.53037780
Si      16.35356022      26.82506275      20.41561407
Si      15.26457221      26.68436671       8.47724896
Si      34.20649829      27.58500483      19.41344815
Si      13.98454446       7.92680170      39.18541073
Si      16.57419809      11.04792759      23.31574230
Si      19.42190912       0.54488899      12.61051366
Si      34.31743823      27.82488815      36.40270416
Si      20.84410789      23.63183212      17.10446622
Si      32.53294213      18.60704267      38.63596981
Si      29.13888899      12.88552283       2.51737156
Si      13.58003363      22.35871965      24.58254309
Si       9.63417992      35.49840152      14.13176609
Si      28.84169051       6.58874557       5.97585177
Si      14.04505454       6.40436152      36.39686404
Si      25.03464038       0.77589480      28.87407718
Si      14.44199655      18.59978564      20.43926545
Si      38.74088820      24.11650344      31.27714083
Si      15.80303671      23.81507396       7.54119548
Si      15.07048037       9.77973116      15.81668643
Si      15.22393704      14.42002324       0.67655107
Si      22.44106387      22.74688927      30.87360188
Si      23.54044089      28.73090267      34.63574184
Si       6.41176165      28.96774016      20.09777751
Si      26.85323411      15.99920744       2.63910805
Si      16.41161720      11.76089612       8.34658024
Si       2.11764274       7.66983411       0.09321518
Si       5.63691698      14.68914596      14.31545682
Si      19.95439935      19.81166710      18.05971002
Si      10.62348802       0.16545100      27.97657535
Si       9.16551812      25.99553056       2.79872256
Si      19.48321550       9.84404766      37.82709895
Si      31.69312134       7.27933434      25.93843900
Si       4.91147712      19.03503997       7.69431007
Si      18.61969312       1.66038348       4.36744781
Si      23.65143252      16.60704305      22.55355412
Si      36.27010554       9.62985278       2.91418496
Si      14.03913596      13.82082877      17.58406710
Si       2.70648625      29.04625602       6.76074758
Si      12.75764630       5.60921680      25.58456131
Si      31.31977016      26.75268720       6.77925688
Si       2.66321863       6.03299092       2.65531973
Si       6.73204183      32.72582583      18.01128865
Si       2.01695996       4.15392438      21.72767404
Si      38.28800205      34.29762630       4.63040940
Si      25.51311569      32.25171610      29.73206603
Si      11.38404184       0.16058470      11.00666940
Si      38.18841157      17.57627157      16.33997902
Si      29.02281862      26.28654667      35.82295624
Si      37.70636251      12.10739782       9.41494666
Si      33.65314084       8.21864610      11.70939534
Si      31.31744376      36.20968731       8.12778908
Si      31.90781413      23.36072359      33.12658951
Si       4.94151471       4.06257508      34.19818865
Si      17.55606952       6.92512783      31.93044320
Si      35.78021073      31.62775902       2.54749996
Si      23.51227123      28.03714520       3.42392828
Si      38.96121062       8.14866772      27.43285922
Si      15.17081718      39.95495647      20.55366153
Si      32.69731386       1.52096418      22.90390444
Si      12.36276716      24.84962079      16.90654239
Si      15.77221728      18.57770263      18.37486618
Si      30.26268102      30.42397953       9.66423494
Si      36.13025646      36.75784097      24.71119681
Si      37.78734904       9.19644492      37.95224471
Si      17.46074400       4.32386337      16.57133084
Si      30.97832651      24.70359784      39.97402758
Si      23.29585080      28.96595190      32.27552035
Si      27.72449301      11.23904774      24.78984910
Si      35.77454297      13.76385429      12.28530690
Si       0.45328490       2.92712168       9.36262327
Si       2.53975367      19.57588608      27.26175909
Si      14.83468197      30.08176615      31.85041245
Si       5.63311837      26.38353056       3.49026404
Si      17.13988419      30.62296026      14.72638758
Si      13.33761621      14.27115996      36.76543669
Si      27.17112916      27.64370113      31.04032514
Si      29.32895534      28.38232935      25.13822923
Si      10.66993619      34.62794059       4.05789105
Si      32.63279095       7.61139578      17.78630864
Si       5.22832488      30.15722418      25.73979428
Si      36.75727732      11.31237554      24.90701872
Si       7.60637569      18.66188244      22.01277069
Si      38.79119051       4.43319254      13.60024157
Si       5.20233190      14.72792539       0.62266612
Si       6.94016273      39.62079006       5.27774595
Si       1.26906923      19.16651844      35.70959161
Si      17.07032739      36.06636651      21.38723396
Si      14.02183593      31.48846446      13.25997664
Si       1.33022941      13.87922648       8.39149222
Si       4.04110310       8.95555881       3.41194039
Si       9.88367160      22.31289915      26.89197431
Si      36.96586154       2.49483172       9.59986059
Si      15.55831513      36.22692366       9.81123390
Si      18.21480748       8.22443144      38.76969743
Si      25.65847744      19.47476131      15.35202243
Si      34.89228540      39.45714140      29.23125458
Si      24.50695076      37.78351746      38.83674077
Si       5.80809977      34.84391139      29.05188347
Si      31.29994376      21.65508305      38.40671002
Si      26.97912276      21.50210807      32.87593773
Si       2.19297386      15.51752445      30.52338779
Si       1.36565132      11.48778014      19.61702096
Si      29.48240483      26.13196541      32.90105840
Si      38.65045291      24.30035458      27.66914999
Si      10.24898310      35.17848869       0.14827887
Si      27.33613665       4.27009629      21.66815862
Si      32.53198691      37.49416887      11.37355291
Si      29.20063538       2.67621243      33.86665688
Si      38.38776393      35.51956031      27.02715020
Si      22.56842727      11.47704110      10.97363761
Si      10.02878533      11.41367794      19.61376707
Si      30.84801953      29.26060951      31.92775803
Si      26.71809369      31.45780605      23.27075087
Si      12.20196588      28.96687725      39.44576070
Si      33.41896247      11.65927649      24.79769732
Si       9.51398433      14.94778152      22.97227676
Si       1.20512120      38.60348574       0.20431870
Si      36.21870191      38.98633382      33.23573342
Si       9.89162954      23.90752355      25.20595306
Si      23.32216298       8.24452836      14.09605318
Si      32.10301959      12.03970737       7.12780686
Si       7.90190394      29.37813930      39.11672896
Si       7.98906487      18.03259391      11.19583284
Si      12.51031964       0.97505817      35.23020732
Si      12.94545371      27.95784755      37.49362559
Si      17.49845064       3.24548486      37.27767669
Si      36.54632752       3.66682896      14.81197089
Si      34.24041831       7.11796986      19.89022855
Si      22.68543602      13.20106344      33.11135842
Si      22.57965939      34.39307851      27.54551860
Si      18.45839344       7.18142185      27.14572116
Si      14.64540289      19.07277418       6.74925205
Si      30.95273432      34.27612882      39.93864474
Si      24.82990490      10.24700665      37.02420941
Si       0.39816911      16.89200439      16.22437034
Si      21.63721229      12.84928384      17.93691714
Si      26.49434140      21.08585863       0.34081357
Si       6.33294490       1.26738685      38.73470955
Si      12.41298320      36.68583901      21.93212700
Si      23.21522178       8.71529003       3.72285956
Si      20.98960242       7.99869581       0.89023327
Si      30.91817552       5.84957577      12.09222235
Si      28.27232796      26.07988748      26.58582755
Si      37.42003572       2.14342021      34.87933787
Si      23.21704192      33.11123185       3.08632437
Si       3.61379455      31.55455886      28.30145264
Si      12.28020448      17.02426094      31.09030189
Si      28.79339265      29.50905460      37.92997462
Si      35.31026645      22.36020340      33.20306411
Si      30.13518150      23.30297142       6.36617339
Si      25.28686923      25.35114589       6.19147685
Si      31.28661969      31.42970577      32.92978745
Si      24.30845976      37.86370020       6.76767662
Si      35.19286550       8.88203834      14.52606854
Si       3.65656164      12.44206703       3.52209421
Si      21.45348110      17.90972494      24.80890546
Si      31.09268036       4.99373747      36.54403457
Si      11.62608418      22.74603782      38.03118627
Si      11.23522018      34.66914005      38.06885320
Si      32.07270409      36.28677958      39.47357856
Si       7.26657671      33.33243590       2.72104293
Si       8.92368073       2.88519347      32.68327610
Si       9.70159170      16.44859392      39.99889324
Si      26.22368606      24.19920572      28.73168727
Si      29.83968532       3.13798020      21.09440686
Si      30.52391878      31.82758217      29.02888827
Si      37.18047331      23.84325176      32.96042326
Si      19.34920420      21.96120204       0.67596598
Si      19.61130854       3.11435072      21.34407852
Si       7.80433456      38.90587800      21.51741134
Si      23.60618508      39.71108642      37.66386780
Si      23.61261163      25.53481645      32.69672759
Si      26.82396083      39.54265621      18.00341154
Si      28.96945585      19.70740842      23.42440377
Si      38.76252825      12.65259911       4.07711948
Si      15.57215519       3.09841621       6.20874141
Si      30.45898477      27.70121452      13.26937428
Si      28.52721810      39.72507947      38.71833253
Si      23.96586981      19.01051033      22.58053021
Si      22.26556674      11.24966644      31.80210368
Si      33.65679017      23.58548858      23.70322566
Si      34.59881593       4.82846431       7.00602372
Si      19.95044671      27.43266831      37.56430419
Si      25.44286331      16.20606236       4.43441253
Si       9.37980789      11.57602359       0.49837338
Si      38.12151716      26.78747421      35.32291555
Si      38.71883958      30.97874633      19.98578016
Si      37.39281264      19.70618450       1.33706456
Si      20.43919001      30.00817102      24.00658940
Si      26.99103506      36.45620382       2.92134369
Si       1.74906575      23.27280721      17.80929858
Si      15.96669030      10.37863843      35.47871169
Si      38.81114519      16.72090751      19.81643017
Si      14.88108612       5.63841091      22.82824293
Si      15.56995236      33.80612927       2.83097458
Si      25.39760102       4.22623477      26.39833926
Si      26.51248765      10.53742104       5.26195755
Si      13.88965785      14.24704398      34.60500905
Si       9.56029925      19.13897732      37.99093824
Si      25.48884308      30.40395112       0.26790782
Si      17.16401800       2.44330138      28.85671583
Si      39.48387264       2.49171818      26.65538880
Si      25.80806084       6.32168892      36.03281320
Si      36.45616321       7.60373837      15.83299406
Si      22.86571122      35.18444628      22.10025901
Si       2.75523185       0.82549893      38.16454758
Si       0.02849449      32.42656894      22.43489485
Si      14.43611243      39.63071697      16.85015389
Si      26.72887700      11.52104435      21.58124264
Si       0.26031235       2.37355685       3.81706783
Si      26.92598330      20.79043444       6.24756765
Si      33.68610890      28.31552343       8.08990575
Si      10.09494312      31.27636332       5.27398414
Si       0.32272971      10.95251801       4.82824339
Si      27.11890030      12.96143738      23.30526141
Si      31.26562833      13.40456094      37.30295304
Si      39.43193800      24.44574966      20.57666734
Si       1.31247865      26.57011605      39.95153957
Si      22.15752400      11.31566089       6.42904574
Si      23.56294135       0.08479724       7.14149855
Si       5.53600635      36.26938602      27.34546800
Si      30.03789435      19.30190204      28.85020736
Si      18.52312672      16.60726456       6.03014709
Si      24.02421641      19.86181573      18.63897688
Si      36.24239013      37.85890923      15.63702633
Si      15.58751910      19.76722809      14.26960668
Si      17.04547402       4.72229416      39.71524142
Si      28.01783405      19.69951256      17.93713341
Si      25.10710939       4.20236745      33.52198027
Si       2.46759199      23.44256982       6.86165455
Si      35.16532955      38.59217448      13.59104111
Si      10.14228166      37.56672521      39.88685047
Si      30.16686090      14.99774296       7.63066945
Si      28.30969008      30.79953997       2.74921384
Si      21.21352657      17.36088993      20.25182231
Si      21.60253095      22.43175690      22.63786939
Si      23.39596988       4.42424707      17.78244979
Si      27.69347671      25.12520440      34.11068318
Si      16.20101888      22.23607521       1.51826353
Si      12.84804491      24.68267693      33.65405409
Si      15.78558525      19.81353894       4.67528419
Si       2.97225873       3.16291966       8.90482550
Si       2.79030232      15.71939747       8.89022294
Si       3.36076362      12.84548267      20.53115288
Si      15.48295204      31.72762221       7.76645358
Si       0.65550018      24.88985114      34.40017157
Si      12.86320838      13.21166745      23.88351466
Si       3.56138348      23.47690996      39.04556886
Si      27.06353230      14.78737651       6.67317757
Si      19.37859192      25.20710098      39.84071367
Si      28.31251398      11.51517622       4.46688971
Si      33.48764523      13.32016255      22.52231464
Si      15.31844237      38.81992545      28.60104156
Si       5.51145913       0.71163264      23.56637111
Si      25.47175303      29.71280836      22.24951109
Si      24.71722593      31.54089955       3.56706903
Si       2.47752338      37.28437264      30.46356334
Si       4.55445951      27.86111050       7.62252754
Si       0.99452973      18.87299180      11.65352282
Si      37.96522149       0.60487859      15.85905081
Si       3.00262624      10.65893799       2.09910161
Si       5.15109849      35.91509413      11.30743686
Si      37.09672809      13.41001356      20.31067033
Si      13.21579554      36.69751304      39.47487902
Si       5.06421285      36.58824883      14.83040129
Si       9.64178899      21.51408890      10.27792820
Si       4.07413168       4.42938755       4.74828140
Si       5.39064935      28.59573555       2.27090988
Si      26.79990520       3.86614410      12.75563044
Si      15.43609833      36.00535116       7.43346857
Si      37.82738271      34.94352819      18.66874264
Si      18.42166332      11.62073657      11.26716362
Si       2.35512955       2.35419494      15.37447050
Si      32.43009714       7.12357867      29.94936002
Si       2.20575681      22.35577191      24.30653832
Si      25.82167991      14.27264003      26.84479723
Si      11.12044282      28.71832601      23.58156444
Si      16.49827776      20.09036090      36.83480798
Si      12.92081548      11.65396126      13.28913641
Si       1.78001698       2.04815990       1.97644566
Si      23.68895446      12.51639245      16.77393811
Si      34.46259585      15.30920684      32.13797013
Si      19.14407140      15.63872431      11.33881630
Si      33.02955065      14.86603542      28.27913216
Si       3.31926126       7.53220944      36.63919711
Si       0.68402187      16.55107245      35.47426162
Si      22.93399167      37.14942258      33.50139745
Si      39.15986658      21.31186624      36.24299816
Si      12.61117843      33.89773816      24.19735607
Si      35.77812886      27.69065834      11.06110594
Si      29.67869735      18.35948896       0.80416448
Si      38.52293526      39.33594434       1.40235683
Si       1.66998931       5.11701503      27.88051713
Si      13.45079873      18.11530904       5.06048448
Si      12.29572625      39.31873348      17.81752988
Si      28.80369466      25.47662085      39.22027170
Si       3.62652189       2.97922034      32.61670524
Si       6.80722064       5.53813164      19.49555442
Si      20.03173963      12.05789605      26.64310431
Si      31.54434672       2.06699908      33.59933584
Si      34.41767745      28.18730661      28.91124797
Si       8.93800116      39.81509131       0.28035936
Si      16.69948661      22.15313992      31.35273961
Si      32.17801705      26.80705763      10.17520178
Si       1.04837991      36.36985965      11.01682794
Si      10.00129903      18.39442976      18.09870393
Si      31.03993140       8.54149062      33.24553242
Si      31.98109531      10.91335677      19.77914447
Si      35.11715388      18.95455587      11.94397404
Si      19.25092880      33.81681912       7.90185402
Si      23.36989758      31.24638879      29.13230311
Si       0.34500231       7.25690233      23.12891043
Si      22.00783655      39.87529137      21.05829022
Si      13.58804191       9.46218103       1.27424489
Si      24.41656071       4.15344084      29.57935391
Si       3.99899936       3.49276953      36.19383424
Si      27.36835080      21.40200549      22.41951909
Si      11.93683675      15.02953768      29.48915203
Si      14.68703073      24.24588842      27.44464180
Si      13.83016587      24.38749282      13.89979006
Si       0.14862197       7.17109051      34.42629998
Si      14.64370915      21.31607556      32.25248947
Si      32.07200191      31.68146352      10.59962480
Si      24.22987909      31.49496490      23.16849599
Si      16.30388525      26.71972318      12.48344584
Si      25.53874405      29.37242412      19.82913637
Si      32.42271310      14.95480595      23.89274254
Si      15.04833404      39.23935074       6.98827834
Si      13.16336686      28.34505634      32.62641418
Si      32.33293734       9.24540803      27.47672177
Si       1.59916080      26.99047299      19.77121353
Si      30.92870458       6.36808708      14.40613001
Si      30.18561911       3.94541202      31.88431467
Si       9.22146173      37.88762695      31.14287029
Si      31.39948985       1.09190709      13.28125050
Si      29.04332499       7.73590663      34.08757981
Si      37.25779974       2.12926127      27.65682507
Si      34.70864466       6.90093111      13.43699353
Si      26.68783631      30.47374650      30.52604268
Si      18.02176020      11.49134631      38.46556115
Si       4.00865569      21.81838073      22.96530207
Si      26.18444904      39.31043527      26.67610289
Si      36.12705104      25.59527052      10.85969561
Si       7.96108788      38.34469723      26.99141231
Si       7.87776843      17.92788958      31.82884315
Si      24.02220093      12.22982008      30.71362886
Si      10.15287972      14.97619986       6.36162231
Si      12.10737702      30.62985467      30.03777842
Si      32.62963006       5.18779975      17.76747576
Si       8.34415155       7.94254785      14.41359849
Si       3.68565332       4.33454641      23.38294888
Si      17.27835766      30.18850930      18.27637743
Si      17.16675952      23.95279242      36.39884865
Si      25.94425976      39.12612141      31.31798668
Si      22.91265133      14.95323820      11.50111110
Si      12.51366260       5.69349900      23.43210321
Si       1.44436020      18.64095181       5.30409961
Si       7.36436095       5.73585673      32.21072562
Si       9.01010294      33.87458192      35.48119646
Si      15.42170580      15.11616287      22.59032149
Si       7.80709616      20.08586991      34.92841359
Si      16.01833085      38.15045253      11.04105846
Si       0.57920830      30.96762151      37.54948979
Si       0.86195762      19.01469548      21.27537713
Si      34.13707859      32.51468255      23.78477808
Si      36.11948978      31.41120049       6.06715566
Si      32.79315409       7.67160993      15.17947159
Si      28.40477412      29.55065812      31.95717806
Si      31.43394243      35.31347655      20.15395174
Si      26.71724606      37.99609659      12.33645365
Si      10.54954579       9.65771717      29.30623770
Si       6.42476240      32.18913446      15.72214779
Si      38.33757199      16.51987086       1.39240600
Si       8.30513471      29.39903391       9.43078511
Si      12.20103863       6.76102154      33.93808855
Si      21.53891958      31.04923466      37.77329596
Si      27.66425295      33.43481713       8.08921680
Si      20.96614883      37.57776752      14.12345081
Si       6.76474024      23.78736227      36.77135824
Si       3.55911761      30.62425410      34.85415093
Si      34.22317338      17.24658757      37.50478945
Si      38.00736989       6.05737550      27.37128988
Si      13.65550389      10.10697202      11.54478915
Si       8.51981952      29.17902073      15.28426531
Si      20.40506383      27.33494897      11.80101092
Si       0.81516923      26.61366258      14.80198197
Si       0.89829606       9.00006083       9.31819105
Si      34.01211034       2.96683323      19.94209141
Si      33.79257856      30.39909358      14.68206873
Si      38.04762358      32.32361274       2.34271081
Si      35.90980275      35.56950818      32.15462043
Si      30.88331728       5.15212776      20.77971089
Si       4.79064240       8.92850665      24.71848033
Si      31.15111403      14.01172058       5.96052686
Si      36.69363636       7.38718061       2.68852439
Si       8.22632773       5.81715065      26.53150047
Si      33.50008863      22.35729954      34.69824146
Si      23.95468459       4.84053532      15.56597455
Si      38.96042854      18.81790162       5.25823080
Si       3.60286918      23.14824080      34.50811198
Si      27.20446117      36.24397329      15.51264809
Si       7.33698730      17.54020927      24.79214115
Si      16.70985919      36.52230198      16.52651024
Si       9.41296416       8.69757105      34.78717681
Si      21.16608738      24.55002267      12.95325339
Si      21.99192812       9.93571355       0.67161490
Si      32.83109682      28.52250386      17.80354491
Si      14.07815339      19.50673690      37.40627019
Si       8.19381102      30.41626060      28.00708350
Si      28.78128941      14.98610487       3.47174216
Si      28.33521570      27.27252349      37.78586934
Si      34.13591611      27.27852582      16.19830950
Si      27.32575028      18.79140808      20.01776764
Si      16.93949281      24.44750803      15.92670463
Si       2.83155405      18.07034121      10.35855327
Si      16.58311355      15.45934895      29.65415639
Si       0.49098260       7.20741630      10.65208960
Si       2.79867793      32.65256595      16.25076280
Si       3.07731488      35.83172777      20.88136159
Si      37.80166715       8.25865546      18.86749725
Si       9.53874559      24.07295432      38.63931199
Si      29.43200973      15.92327976      22.88674753
Si       5.79282888      19.79863242      21.20371695
Si      37.32240774      32.53974080      30.88564581
Si      20.41930703      16.36607828      13.04292372
Si       2.63444456      11.98913630       8.00376906
Si      22.18741522      26.96779506      31.49979270
Si      18.24850166      37.76177781      19.93233160
Si      29.19287194       3.74588366       8.74445535
Si      23.53999526       8.28067998      30.11652055
Si      17.20531846       4.71468955      31.27548298
Si      33.33505979       2.51867239      10.14796836
Si      28.43325095      30.82195544       5.05931612
Si      37.26692881      36.73534252      10.37732290
Si      27.37984914      31.43487036       7.07575277
Si      30.93270253      37.86806909      23.50506994
Si      28.28416516      12.90868872      28.91189360
Si       0.37037909       4.99933758       8.49056113
Si      17.78144350      26.81216086       4.47674573
Si      19.27096014      24.97670045      18.21838190
Si      25.62463459      32.23892018       5.64885201
Si      34.28240110      33.95409351       7.26548610
Si      19.23930729      23.03477744      26.25165490
Si      15.98393075      11.01842881      37.65503746
Si      12.32585186      10.95702387      20.15756999
Si      26.50888587      30.67926747      28.14768328
Si      15.95658897       8.74414350       4.73941110
Si      20.42412071       2.54331952      35.47705996
Si      34.13830825      35.68613492      29.48194475
Si      19.92277607      22.72263441       7.71329927
Si      11.18208931      14.60514390      20.78303718
Si      32.61189246      36.78248390      30.72752099
Si      29.73198187      36.61295059      13.07197285
Si      20.63987638      36.87939980      33.88044925
Si      15.02202519      34.32440616      13.20720802
Si      18.14058458      39.26728610      36.13067400
Si      38.94722915      23.96444658       7.85204823
Si      16.37037579      33.92466000       8.05232858
Si       5.83312560      25.93374694       8.07524973
Si       0.27194671       3.58870986      37.25220705
Si      14.75897535      14.28563276      24.67651439
Si      25.22322303      39.76100871      11.62977763
Si      23.66885451      10.96928165      39.30882910
Si      22.18652172      12.70532638      39.73648511
Si      29.00979829      26.52288815      22.12623318
Si      32.37052291      37.73315060      25.40897623
Si       0.95923834      37.35889554       7.63544953
Si      30.28780777      36.82359919       4.70821568
Si       6.96234672       6.08518752      21.90821601
Si       3.41131699       6.63863599      10.77600523
Si      31.34729714       8.06096654      38.59348249
Si       4.95661568      25.94364424      19.71231755
Si       5.06327473      13.66999449      28.28223208
Si      22.53412072       9.90408768      21.06829396
Si       5.22646644       6.00771240      11.92476012
Si       8.92333290      11.71533625      30.72049982
Si       0.16075950      25.81995640       3.36597561
Si      39.93675368       3.30037180      22.71878031
Si      31.79451644       3.04755870      14.61150753
Si      21.98638785      34.80996429      15.79155670
Si       8.44614717      28.38586017       1.11146895
Si      29.69343181       6.62950710      19.49415329
Si      14.82004562      13.69750465      20.91412755
Si      18.65599374      34.22855556      28.04524368
Si      18.11441781       2.66745802       0.77611483
Si       3.43144791      34.55173177      10.35775763
Si      20.10399942      20.35498993      15.62325422
Si      22.31875468      33.70953475      25.18884055
Si      27.60804632      37.34826608      23.54788488
Si      13.74886395       0.06413925      10.95929535
Si      20.66806188      36.37937886       3.87651860
Si       5.28796447      14.68524780      11.95158130
Si      13.74448075      16.95294550      25.69101748
Si       8.16618402      29.82663666      21.47344122
Si       1.29706990      37.34325129      15.67841025
Si      29.94950781      26.89895721      10.97546323
Si      28.24471035       1.89002640       7.93074667
Si      36.75668092       4.98414123      28.85146972
Si      34.46799981      17.75885650       2.96742000
Si      31.80261747      29.41312495      22.80014643
Si       5.77866353      30.24217996      31.51847971
Si       9.26899426       4.64485609      31.30045517
Si      36.14759094      19.97769768       6.62500049
Si      25.82312682      19.96015312      21.32514778
Si      17.27598025       2.26340156      15.12161718
Si      12.89214039      32.14449328      35.94391647
Si      14.93197514      28.99870671       8.76009012
Si       4.65896899       0.20079797      21.55998787
Si      33.82446915      12.40436512      31.60253241
Si      28.87099736      24.21030165      25.24801455
Si       8.71994979      36.07230486      25.20392371
Si       0.19134670      27.18893941       8.05128658
Si      24.14469046       7.42415897      17.87703471
Si      17.72895267       6.55375340      34.16121909
Si       4.79000192      30.29545278      21.50344585
Si      27.82950075      18.51088700       6.29786570
Si      24.29812100      23.46633718      15.31807944
Si       9.15364307       8.09329021       1.84735130
Si      16.81032965      35.03625887      24.92012279
Si       0.97497409      21.15083384      39.62476622
Si      24.24394988      11.45403829       5.44115042
Si      25.99307251       4.74633061       5.78967484
Si      11.57526206      11.34016879      38.39252216
Si      25.62741870      14.83055882      37.68588836
Si      32.73572322      38.54658695      29.16130696
Si       4.72981525      22.76033177      15.25214328
Si      32.34999276       1.51545674      29.12993268
Si      34.36693977      36.42150943      14.18176433
Si       8.38964954      30.60519312      30.47032578
Si      18.97112750      30.53017928      27.62041953
Si       1.97932859      35.73784687      13.14948621
Si       1.65289239      29.25731014      35.33065451
Si      29.17736589       0.99814399      28.86613019
Si      15.45633690      19.95876370       2.35527944
Si      33.94672337      16.13339423      18.51328762
Si      26.56616956      15.37338127      24.90119356
Si      35.21143287      11.95034527      23.26520313
Si      10.18992698      25.06058267      35.58092600
Si      14.90426628       1.49141838       8.04971982
Si      21.57106008      13.91878347      22.11274399
Si      25.00736312       5.93245107      10.27520656
Si      21.99693177       6.21697642      28.10281834
Si      21.66270990      26.81064542       6.28653676
Si      36.36843549      38.64940452      26.44199366
Si      16.26575391      28.96120879      13.23544482
Si      26.99584531      16.93141848      26.64213380
Si      34.94236191      10.26323295      21.59999155
Si      13.98376131      36.74781522      37.20172995
Si      11.72431638      29.11841077       7.18888002
Si      20.33492191      26.54802762      27.49186491
Si      37.40481645      19.39747370      17.31363273
Si      27.46195206      17.21301275      36.98160908
Si      32.71748077      18.88196023      24.17730910
Si       8.30716738      25.42825600      37.02843764
Si      28.76583572      21.62785620      37.98992482
Si      25.43859478      30.90462661      36.86803728
Si       9.61442530      30.16739067      24.54340793
Si      34.64374585      35.40634312      34.54257667
Si       2.00013902      10.26312415      30.02943199
Si       3.68927677      32.06670023       0.04066102
Si      19.22481463      32.05809403      34.91060449
Si      16.21140338      38.85181671      24.82156548
Si      35.87701197      14.55227551      15.41889410
Si      12.14577086      27.07464691       2.68087925
Si      17.26335968      34.40198033      10.12209693
Si      16.63971273      15.93229089       4.52003968
Si      10.46433668      38.29606011      12.57504109
Si       6.06682738       6.43747420      24.73634577
Si      17.35341717       0.96631955      27.15367080
Si      24.75122531      36.78680238      12.84318904
Si      27.78774071       2.48913812      20.19679185
Si      32.81557099       4.73953656      37.97599563
Si      21.23145368       4.43030903      22.65153401
Si       8.70899719      27.13568410       9.12597465
Si      38.50384337      30.58697388      34.48981217
Si      23.37030338      36.10414535       5.77460849
Si       9.70963873      11.77333676      27.19953339
Si       9.33786443      17.01101410      26.01050852
Si       2.95435951      13.18219750      23.19665842
Si      27.27911602       7.00786442      28.92829169
Si      19.08313418      31.17403677      25.42307393
Si      29.98448888       1.25632611      26.68970884
Si       7.19494538      29.79177922       3.20419548
Si      27.52169226      39.41305709       5.37034385
Si       0.49430736      29.57254258       7.06177564
Si      15.12663889      11.10199246       0.45690071
Si      33.43080022      33.02228757      25.91134966
Si      11.51838943      35.30123883      17.24108447
Si      16.73183146      32.35340126      11.12819762
Si      18.84732867      37.53145998       6.58778858
Si       0.28705038      33.05308457       4.43162124
Si       6.79612908      11.16449781       2.00599281
Si      22.98512066      33.57840479      10.15559868
Si      17.10030265       0.49497510       0.03431207
Si       4.67072179      28.83289714      35.82658491
Si      25.46328580      35.66875105      38.26688105
Si      36.47323243      36.09564258      29.83466864
Si      15.39322115       3.33364940      22.77192734
Si      19.92913029       9.32520666      29.87687725
Si      37.90100253      19.96063063      34.67911068
Si      23.24587475       1.78789000      25.39960158
Si      32.65980904      14.19442697       4.16395166
Si      14.60387930      27.29383027      19.05019358
Si      25.58904989      18.99099347       0.79613121
Si       5.66800046       5.03374106       3.15988911
Si      16.39815149      29.21597439      33.33374772
Si      18.51173398       7.02582846       2.99237859
Si      14.26239328      22.06334364       7.23438529
Si      17.27487277      17.33728822      24.83337695
Si      25.71644279      19.43641897      11.90820714
Si      18.66388588      23.58731162      14.53116972
Si      27.36391837      16.57298267       9.52667450
Si      23.03039724      16.28355799      39.08296466
Si       1.91754828       0.56286787      24.62108016
Si      20.37220111      14.42524017      14.79793571
Si       3.74182991      16.60504613      17.58772507
Si      29.19794602       0.10809176       3.94750132
Si      11.39578832       2.88356118      15.87655772
Si      37.82765854       6.39068706      34.37424534
Si      22.56063586       5.14000897      13.50117359
Si       5.66557498      20.77938232      14.34279439
Si      36.33513177      22.10971374      13.57369683
Si       5.70717304       4.93354676      16.03400932
Si      11.43537760      29.29486738      31.94147790
Si       9.45214691      33.93718872       2.11601296
Si       3.81779012      14.80071413       4.53657961
Si      28.94351298      33.08652881      39.54419035
Si      27.64093926       5.77641908      37.51837233
Si      28.18087006      26.81667346      13.41761547
Si      10.59314393      24.14472184      33.61687720
Si      16.97719330       9.95344090      14.39719331
Si       8.36440190      36.42777796      39.15471212
Si      18.43638547      21.68444472       9.83986674
Si      22.21991549      22.63237362       3.84840653
Si      35.97027672       3.27313652      17.01682974
Si       1.16322185       6.13602370      19.06613806
Si       0.36540860      38.44170461      31.18354716
Si       0.50479174      31.34021461      35.28162366
Si       4.25186113      28.08087098      21.94406450
Si      30.64727677      15.03954132      31.70370877
Si      11.43913127      27.05269278      25.14928246
Si      18.09555344      12.25811543      21.85673314
Si      39.69532490       4.88895544      11.42827387
Si       7.37132639      19.14543503       7.25551556
Si       8.32095797      38.25301401       4.13838389
Si      27.17995901      19.35178583      36.09761496
Si      31.29246840      10.68708637      39.76211530
Si      14.25340952       0.93365474      27.72469665
Si      34.55156847      38.70315392       1.39692238
Si      35.36182416       7.65867811      31.18144637
Si      24.83324984      19.83548058       6.39490689
Si      12.73661416       4.64237579       0.40600488
Si       3.71221668      17.85405490       1.32230805
Si      23.57016665      33.44325492      29.47674975
Si       4.70068905      10.80846482      32.75067410
Si      34.51962056      21.02952121       0.37003298
Si      29.61431324       1.44955247       2.17161511
Si      28.21722869      22.39005035       7.36338025
Si      13.67161981      27.58338382      34.77409222
Si      22.91521550      11.78118494      19.73868035
Si      36.70987326      38.12064031      28.74463956
Si      32.83491334      16.06115345      16.40961389
Si      33.10587822      12.69998218      14.62296671
Si      21.91257455      15.25076311      36.44512874
Si      38.09937969      27.34365683      37.85342186
Si      18.15507150      27.75552407      36.27133954
Si      38.98152492      33.49495588      25.86492556
Si      37.31817065      38.84092260      21.60497643
Si      10.93581934      28.01237228      12.40156881
Si       7.17760328      28.74036517      17.70550361
Si      36.09716256      39.36538015       8.65756066
Si      14.11161679      13.69128028      13.53437389
Si      20.70070000      39.62033657      16.88666298
Si       8.22830681       9.17784486      29.11820477
Si       2.04529599      30.09110498      29.28424084
Si       9.38548888      14.09357710       9.10030353
Si      29.82712943      22.38567174      39.93333529
Si      25.93732919       5.63485345       8.05977125
Si      11.73175297      22.21133075      34.32989786
Si      25.86005532      36.56934591       9.08666750
Si      11.18519521      24.44252917       5.84752735
Si      25.89130493      34.69437777      33.27060755
Si      28.74454123      28.31962130      18.51026860
Si       0.83026053      31.68382142      18.92513088
Si      19.04066308      18.26224915      19.95973890
Si      25.81843820      20.73728774      17.38182986
Si      20.91691959      15.07769858      30.31886472
Si      34.56011845       3.91111551      25.53403110
Si       8.38325441       6.62303583      12.53705777
Si      16.27139339       1.83335051       9.97947374
Si       1.70748751       6.89531226      14.16991957
Si      20.43024363      35.20871632      35.43661609
Si      39.27932373      34.27002626       1.53231675
Si      36.65576870      15.51050810      34.90851911
Si      35.11916994       0.52245549      19.52950816
Si      36.33065712      27.85566969      20.65027039
Si       0.61700593      30.54744779       8.98221478
Si      35.41747804      18.91363912       8.67434880
Si      38.16164821      27.10636591       6.78824281
Si      10.44905092       9.65483435       3.22983663
Si      15.49960608       8.18883516      32.00539258
Si      10.70250648      37.90856223      14.97209644
Si      12.85862017      37.42893716      32.82570776
Si      21.25177269      13.48376166      37.65408542
Si      16.56289619      25.89553172       6.33473920
Si      32.85754453      15.49694616      33.70464951
Si      11.25564406       6.53686687       8.86284023
Si      35.95649055      23.64056725      23.06551303
Si       7.53738239      36.72032737      32.61269775
Si      19.78034321      29.28700814       3.80491938
Si      34.43531149      28.76712305       5.20237545
Si      19.10531816      38.40168288      17.93600554
Si      36.58823565      30.45621606      30.26876540
Si      39.31518483      33.83629414      30.75880949
Si      23.38023886      34.66647562      38.61782450
Si      10.43511534      10.07562209      31.56852663
Si      39.77654153      39.31937896       8.47582548
Si      21.03836947       4.31900979       6.77791112
Si      10.69451422      27.63382537       0.83601438
Si      31.72517730      18.53527317      17.00702167
Si      15.82189650       0.61075713      18.45914965
Si      36.92552573      26.56200226      22.59822608
Si      23.34336206      15.05517545       4.00265799
Si      25.80892916       6.42411995      33.59235892
Si      36.32856263       2.07098196       5.49637053
Si      30.06932891      33.36552448      37.31110362
Si      29.88888766      19.31848411      13.58327204
Si       5.78209394       9.29125169      31.10896914
Si      37.96053735      23.95995924      13.21201436
Si       2.25803355      31.75126047       3.16750140
Si      11.74889316       8.74058399      20.69284523
Si       3.30200565       9.64607193      36.12706663
Si      32.17991299       9.22339349      35.17875431
Si       1.83879246      34.97803728      28.29016443
Si      11.82888089       7.92403049      16.30452836
Si      13.44095817      37.37607864      19.94287586
Si      17.67283646      28.79700734      11.34124359
Si      20.83262401      28.78358807      13.67608588
Si      11.55019191      28.70413998      20.66606821
Si      14.48394862      30.83618704       5.83633682
Si       6.90279952      12.82855304      29.50165242
Si       4.58286113      11.59256045      22.23831433
Si      39.86662788      26.50849528      16.91282522
Si      29.27336539      31.58456793      34.41522997
Si      27.56916656      12.66255436      16.62032357
Si      38.91223708      18.05283079      31.19526702
Si      21.48785394      25.60996916      25.54924694
Si      15.99981193      14.27523622      27.75607318
Si       5.13739301      34.66306517       2.97005490
Si      22.07222275      25.98416816      11.39972170
Si      11.24678559      22.56693485      13.18889677
Si      21.10025625       8.38585639       3.18541388
Si      17.56707399       0.06249975      11.11113178
Si       9.70294049       7.23960739       7.27730552
Si      37.70803858      30.78703548      13.86425765
Si       3.44788811       0.15260867       6.58972632
Si      35.80988015       0.52505081      14.80635964
Si       3.93782327      12.77877418      31.53519515
Si      12.35441379       9.98415380      25.52772421
Si      27.22132631       9.12790887       6.87765166
Si      23.61973358      26.42669765       5.22855268
Si      27.52336645       6.99357478       4.02699957
Si      30.75986364      24.86694683      11.76757605
Si       1.44347719      13.09091313      28.63092453
Si       2.07860709      37.86496622      21.42174422
Si      29.00088107      10.73577947      16.28020073
Si       8.37185794      22.56098115      39.86321156
Si       8.96611984       9.51761903      39.42025321
Si      25.19973443       7.75344395       7.41944781
Si      10.02293309      17.05065597      10.99543861
Si       4.08479713      18.71237538      34.96019056
Si      31.32612956      24.58572944      15.87786498
Si      33.75709237      25.70975982       5.52695592
Si      33.18661761      19.28341385      18.60761022
Si       1.77311865       1.09058316      34.76012832
Si      17.43194270       8.99242694      19.36299121
Si      28.69015782       9.38189905       8.72494558
Si      33.83856469      21.78762366      10.65959513
Si      10.89815375      25.50356978       9.24885890
Si      11.17075678       1.35764031      17.67714957
Si      16.01328266       7.70002962      29.72833798
Si       2.72001323       9.32959245       7.95033622
Si      28.42877024       2.19293776      30.60477611
Si      13.91956652      20.61703710      21.33461407
Si      12.72679062      25.48456415      23.89111267
Si      30.27600978      19.39126904      20.39200231
Si      37.39186618      34.97484172      36.75556140
Si      19.59685065      30.34379700      17.44115397
Si       6.00618076       7.98364005      22.93313138
Si       6.16715132       9.67488423       3.57781838
Si       3.51301829      33.39196563      26.07616745
Si      15.97632775       8.77552744      38.25218778
Si       1.08701304      38.92794764      23.14761380
Si      20.58477660      20.06968198      24.79880035
Si      22.63884750      38.36837756      22.70749330
Si      20.61663560      12.77893864      11.54711678
Si       6.54380407      11.13966265      34.21138008
Si      39.82777787      31.56466364      10.94480839
Si       9.94054623      13.99440903      30.39580923
Si      32.76937351      25.89445214      35.56296852
Si      26.22514585      36.46575078      36.19096262
Si      37.07876777      23.00094453       9.97515279
Si      19.95450364      37.54852249       8.66158008
Si      25.68625194      17.73555355      10.68505182
Si      10.00476991      31.22836618      26.68320115
Si      12.82503129      29.95986889      36.22026075
Si      10.56438479      29.88272813      35.21706814
Si      13.20458303       2.31014918      22.88178583
Si      15.01307339      37.19836939       1.17292431
Si      11.06207198       9.12417943       6.84884134
Si      38.29628940      29.51644439      29.08942897
Si      19.04972212      33.67672563      22.55505955
Si      16.81685124      37.87676755       7.90944246
Si      32.17906389      20.38682063       0.12729409
Si       5.60811561       6.42948752      14.21763291
Si      24.61673339       7.98071304      12.16328376
Si      12.06694951      32.35980732      20.29759141
Si      11.44158979      26.61944307      18.19364492
Si      34.66390100      33.73501903      32.92084085
Si      16.84727301      32.48180220      18.39391606
Si      34.69255284      32.32731695      29.15866485
Si      25.73452023       0.75481688       7.79471753
Si      38.16623839      34.90942822       6.98933276
Si      29.18090870      26.53921913      19.72916397
Si      39.94333648       6.68544303       0.15517087
Si      32.51408176       4.13252945      12.63512790
Si      14.34373678      27.10263367      23.50922432
Si      32.25117089      32.80398106      36.33602027
Si       5.16118859      39.57599395      39.98151762
Si      10.71549231      18.73970958      12.45873044
Si      19.56444235      14.40907700      26.93698136
Si       1.23182170      16.81586583      20.33205596
Si      21.40322480       6.63990152      32.84435565
Si       1.49126136      35.06070944       1.77063884
Si      38.29130048      37.61799789      24.38941710
Si      36.22012194       3.33856229      33.15695687
Si      19.76573772      14.21087044      18.16047913
Si      10.38437904      26.91691980      27.07632732
Si       6.61601311      23.01053355      32.01605388
Si      24.28803783       2.72658130      19.05656775
Si      29.55720405       5.60399871      17.31615488
Si      37.92041055      15.81215230      31.33835763
Si      32.04717453      12.67418483      29.62305443
Si       4.55864617      11.03804066      25.82877827
Si       5.12722241      38.44240578      37.92842176
Si       8.73632566      20.34986421      23.36983997
Si      33.33857327      10.70444238      38.51853003
Si       5.31434392      31.42100171       9.73734572
Si      35.95670997       7.07342296      18.14798745
Si       6.31151345      27.66571119      15.80134200
Si      34.57754250      39.19105692      34.98217485
Si      10.19532200      30.67162726      20.49821736
Si      16.21460757      14.54027614      13.35474262
Si       9.70862002      13.85500658      32.62659217
Si       0.54789295      33.67263200      34.49777156
Si      36.22346370       0.01297094      38.39571637
Si      18.81862926      34.00395036      25.63376576
Si       7.54320708       3.11900018      23.22677428
Si       0.32291909      34.76871721      23.08720084
Si      37.02108262      30.58926650      36.32804733
Si      25.50997540      34.18780018       7.11362826
Si      21.78747761       6.13430320       1.94852692
Si       1.97821470      15.43565497      28.09275339
Si      16.92219348      12.49160040      35.80094525
Si      27.32897934       5.08804963      17.91538545
Si      23.83093156      31.35076131      16.15245272
Si      24.81888085      22.66229614      33.56980314
Si       6.09333883       7.16518873       0.67659479
Si      21.46180416      10.36606280      25.99231570
Si      35.50842400      11.15775333      37.73882246
Si      25.94047494      29.03536707      10.80708295
Si      31.45803079       0.18621734      36.10989579
Si      30.03502445      13.87535802      30.27580577
Si       0.56460215      29.10952396       0.91812692
Si      19.48141350       0.76862865      32.47038772
Si      33.06640614       5.23653988      20.26119797
Si       4.47127710      31.83526097      17.68355073
Si      34.37346803      12.41342859       7.24843694
Si      35.40287127       2.82407135      11.38372124
Si      19.60155764      38.96275411      28.97482970
Si      23.97214357      38.09957200       0.99955735
Si      20.73963969      35.47198357      23.08742342
Si      21.85293351      15.67789680      23.81755283
Si       8.75490545      32.11638696      32.25852908
Si      35.33389592      35.98192625       9.67368799
Si      27.44696528       8.84871947      16.22425852
Si      27.65475066      12.69058447      26.60561580
Si      24.57932950      11.94419963      12.28928348
Si      13.34477249       8.45390656      24.05244693
Si       8.78647674      37.28766964      16.01634938
Si      19.22427705      33.46605914      18.56119337
Si       6.85457148       4.21815011      25.29795061
Si      16.29356129      32.94675177       0.82255471
Si       8.32564514      34.09583882      24.49248072
Si      28.01265771      13.07144921       7.86572363
Si      18.81955535       0.05721346      38.26363536
Si       5.99578161      34.85054572       6.55584691
Si       8.66671669      18.04339697      13.42565353
Si      38.26673101      20.52984975       6.92266739
Si      36.20945684      29.38720626      26.67545445
Si       2.64055993       5.43482859      35.65844610
Si       1.44895003      12.39628061      12.95947019
Si      38.31334220       6.84710387      11.35789990
Si      27.24194390      10.66633294      10.07219516
Si      37.82551159      28.34616559       4.51225210
Si      30.23911680       3.73397852       4.44952498
Si      27.00327044      16.13678343      38.97063160
Si      26.50076601       7.18318425      17.68672070
Si      24.92331672      24.34143197      35.09279768
Si      34.26326075      25.83348419      17.95087890
Si      15.87075841      14.43039438      36.95483704
Si       5.97697225      25.36595294      15.56976736
Si      27.14590596       5.89855444      39.82901355
Si      35.51593678      15.29714680       8.86196208
Si       8.93992090      34.62341706       5.79134465
Si      10.17197963      22.49887924      31.80114236
Si      34.11922513      29.65030003      25.50129584
Si      13.87903862      20.47136562      25.90227784
Si       6.91790619      31.96570693      25.03591617
Si       4.78971430      32.87856429      22.76607364
Si      22.63959023       1.67234737      17.65386910
Si      16.36002592       2.07870300       4.09397686
Si      36.84591491      16.58056924      14.68757973
Si      25.50302402      32.83690970      15.70029379
Si      38.35465722       5.14403113      18.30787909
Si      36.99125394      22.63935920      30.40451065
Si       1.34431514      37.43999675       2.24560461
Si      30.43192297      10.38453141      14.32014372
Si      14.82496170       2.23107766      32.10503161
Si       4.43595743      18.26302534      37.72793213
Si      23.68479846      16.03338010      15.09419879
Si       6.77361632      21.29710034      22.53630151
Si       1.72310373       5.76497705      12.04324445
Si      29.13982964      12.93062555      18.33739329
Si      12.06824807      26.49696675      11.13643544
Si      36.22703361       1.86626819      25.63842903
Si      35.48524087      23.12527920      39.28103515
Si      27.87755849      23.39747635      39.18143324
Si      13.98675204       4.23867895      35.69395611
Si      34.83998379      12.49363866      20.73314226
Si       4.86186797      16.29994087      33.89036373
Si      33.03400650       0.02005266       4.46179612
Si      16.68465191      16.28514150      14.84849207
Si      13.99204106      19.77294880      33.92393969
Si      13.84793673       8.21204172      34.88102043
Si      36.34708543      39.92315181       6.44971427
Si      23.79994530       5.89129392      37.17989240
Si      18.64985342      38.90684358      22.02213975
Si      22.64766214      33.63961063       0.73555109
Si       0.85669538      27.25403657      22.05133435
Si      22.26619562       7.70730180      36.83505639
Si      23.82067689      17.50968004      33.49193847
Si      17.25779456      18.98122848      23.09432778
Si      11.25896449      34.31868996      12.75977298
Si      20.02631505      37.62898633      25.77995271
Si      18.71082980       2.75637003      13.33467112
Si      37.73897133      23.67352925       5.65535376
Si       2.59207493      23.47669031       4.52652396
Si      36.98707611      31.71726513      33.12753152
Si      34.20213155      25.16657389      25.36371690
Si      29.42609426       9.35926421      39.07545181
Si       8.12067146      24.43834667       5.53898039
Si      17.74950448       8.87518178      30.64857966
Si      16.85340253      14.98023597      11.11701216
Si      20.78923441      23.79375265      32.23617614
Si      39.97088445       1.67345049      24.66201266
Si       8.89587497       2.30292351      13.16340344
Si      31.83433363      30.93276827       6.95014020
Si       4.35522566      36.66304491      17.05692672
Si      14.01628412      39.47327579       0.76943267
Si      18.60653657      13.23417060      28.74969313
Si      17.85854223      16.84410757      18.43078160
Si       3.49272053       3.54206962      13.58456275
Si       0.39694238       1.00211472      28.17916878
Si       6.18600251      12.42778602      26.64226110
Si      30.59655426      27.58146048       0.35718921
Si      37.58322085       6.18625470      36.70975716
Si      29.77879453      11.01259703      24.06115921
Si      33.39865219      18.11052381      15.45331959
Si      36.53223261       7.15957488      23.62583308
Si      18.52847735      37.11318176       3.63392776
Si      37.93461589      13.24980685      15.27050196
Si      39.02969653      30.98557043      27.39935193
Si      26.55661934       2.96319643      18.28520608
Si       2.75640975      38.08390496      28.34974573
Si      20.20516366       1.62336443      17.83895405
Si       0.27932805       4.40538226       0.27267371
Si       3.33727454       8.46446343      27.86588285
Si       5.13894841      13.02101094      18.97577960
Si      28.21982901      15.36862258      28.91731051
Si      31.39547513      33.61789551      30.31583064
Si      15.94049827      38.94557548       4.82169960
Si      33.28330486      36.81652161      19.61804675
Si      17.08992176      28.58832619       9.68370179
Si      34.14581862       3.09396730       5.69032322
Si      17.30496840      35.43544265       2.53345082
Si       0.23382597       1.66924237      35.77748499
Si      15.02757821      22.28881135      22.72020183
Si      20.16447928      24.67862696      37.73850803
Si      33.61505424      35.61211395       1.25871728
Si      25.53606173      34.57583935      25.18418281
Si      24.95267669      14.74827426       7.38828262
Si      12.58378035      17.33082380      12.92279777
Si      39.66175347      29.60616353      23.84263435
Si      32.22179965      15.77971356      20.08243597
Si      29.70920302       8.86311131      20.10325010
Si      24.06329350      37.16807093      21.21260866
Si      10.97531872      11.30038218      14.69286206
Si      28.88702111      12.37320997      31.56905196
Si      10.27061957      18.95278997      26.67066019
Si       7.03503777      12.79703442      15.02752898
Si      28.64980443      17.38410549      17.67604777
Si      19.88368134      22.66124515       4.25179555
Si      37.40298237       9.52307628       0.95683171
Si      24.21920838       1.02205489      15.81795051
Si       7.77186549       5.01765916      17.44922150
Si      15.18468227      18.54699134      35.69127175
Si      37.31981854      24.28196383      19.73224041
Si      22.21488534      19.45309238      10.61098115
Si       3.71115949      17.66060976      26.94274416
Si       4.86676659       1.87532786       7.61438245
Si       3.05695346       3.14441919      19.90255895
Si      34.93785839      38.76800619       4.96538678
Si      19.57897561      12.60911839      13.47303865
Si      39.83534667      22.64286175      23.89368388
Si      18.59580067      30.94150893      11.36549986
Si      11.73215698       8.58432936      13.92841456
Si      21.68876402      26.52048819       2.73486492
Si      22.84627315       2.51875283       9.33032063
Si       0.61108288       9.23687088      19.86902063
Si      17.83590210      29.02429784       5.24701044
Si      26.31289543       2.71297227       9.09302669
Si      30.87876544      26.89132832      34.57062537
Si      16.48697361      27.04486643      24.78306315
Si      13.40797753      33.27625182      28.62262555
Si      31.41048139      12.71870499      31.86205026
Si       7.20077332      24.89260708       2.47454157
Si      33.88384120      25.47001268      10.97904356
Si      34.02348658      28.83029188       2.45339988
Si       6.29811349      15.48680509       5.47346617
Si      23.00021612      10.43572233      24.45633930
Si      31.56270422      24.18432000       8.23987443
Si      31.08421694      20.53367138      25.04407560
Si       2.12819975      23.75429912      32.94163326
Si      17.85291308      20.68603072      17.60577737
Si       8.49376904      20.47502075      27.30459917
Si      33.11539730       4.56635752       8.96951326
Si       4.40818854      38.23811491      11.63946589
Si       5.84245217      11.97020358      36.24681278
Si      35.32073869      19.38180662      15.95525455
Si      28.77480448       4.32051241      27.09696828
Si      10.55394333      39.38358670       6.68079859
Si      17.16042133      22.30110323      25.74056912
Si       4.56711585      38.49292854       7.90062216
Si      10.42407934      14.71784336      17.88883219
Si       0.40599613       8.62951116      29.20005916
Si      23.04985074       5.33933611      20.51916686
Si       8.00500657      12.76256025      36.64152662
Si      16.72274685       6.07797141       4.30631473
Si       6.45806921      25.51686510      21.57455680
Si      29.63461374      23.37801718       3.93240399
Si      31.92206841      20.96462555       2.45791464
Si       7.25613022       0.95048822      17.76738556
Si      20.63043199      29.21032847      39.10327061
Si       2.90203716      31.08205196      12.75585649
Si      25.99447025      16.63284478      23.01324090
Si      23.26674155      15.48775386      32.35182744
Si      11.98497886      28.70555918      28.87409298
Si      34.91587616      26.49323077      27.39555661
Si       9.49072798       1.63425995      15.34066452
Si       8.41983530      32.90447835      26.50208723
Si      13.16019359       2.90638219      28.61699425
Si      30.25414238      12.75555992       0.43012756
Si      10.39000145      22.78941698      36.05222161
Si      34.09310648      30.27648305      23.09985766
Si       9.37379773      11.69567845      35.16656772
Si      21.44583112      29.28842188      28.45112129
Si      10.84519445       6.28088019      29.15158951
Si       3.34000663      15.92804351       0.07559863
Si      29.42516473      10.66705170      12.21386292
Si      25.71716627      39.70148176       1.30347711
Si      13.56884215      26.25007902      15.43938033
Si       1.65161653       6.64076089      21.24405814
Si      36.94565449       2.08207584      29.99420948
Si      12.06077684      31.39877197      27.73395507
Si      17.00964902      13.25369801      20.14935553
Si      20.81309876       5.26477717       8.84844356
Si      26.32201890       1.19798968      30.67049270
Si      21.40999576      34.14113339      32.38988936
Si      38.27950748      21.95400227      32.02225344
Si      36.62381222      23.68546598       1.37597815
Si      28.30568405      33.33799171      20.36021058
Si      27.73567299      14.45692563      15.08179540
Si      38.54462570      18.17452690       9.56212223
Si       8.01573427      11.07880773      24.00640295
Si      20.51526170      16.18014031      34.66384543
Si      25.45136944      12.34988493      39.78244131
Si      34.77534095       3.98364843      36.79302672
Si      34.79159658      33.08442608      18.01117054
Si       0.44159208      27.06283098      35.14485539
Si      24.41648420      30.47501891      12.18574417
Si      39.71141076      13.83416907      13.82187767
Si      14.08796985       4.55268445       5.13761008
Si       1.20190462      31.90247048      30.62992305
Si      19.38798506      14.17748144      21.82008805
Si      23.12592034       5.98798082      30.15310068
Si      11.17222124      11.81555968       3.92677822
Si      13.93317257      14.94027847      26.84665632
Si       8.83460504       8.06921112      25.95037845
Si       6.45827941      31.53936256      29.76571982
Si       3.84872127      32.31957732      36.27329753
Si      12.42216241      31.96754163       4.92206475
Si      15.63329538      26.29034911      35.26964236
Si      17.55135911      38.90199145      27.85256740
Si       0.09285401      39.46353565      35.07061884
Si      19.28208595      26.97922789      17.04931433
Si       0.24194414      16.98823268      10.70045663
Si      12.97800438       5.17555004      11.06962421
Si       6.41462462       7.32904268       2.98690088
Si      35.01588578      19.30478980      24.35925401
Si       8.96818147      39.67190860      36.53263152
Si      32.71678864      10.33606061       5.73857693
Si      31.91623337      23.84858560      37.91600316
Si       6.82716346      34.53512758      39.46215960
Si       1.11280846      18.30386189      32.04748890
Si      10.28133607       6.77089930      17.19648960
Si       7.83278787      38.52675234      17.87256650
Si       7.61758913      31.53172544      38.01852695
Si      34.20535677      11.76567711      27.14042457
Si      15.26049886      30.86054653      10.04758981
Si      20.83572654      11.34427107       4.53490362
Si      12.84160255       0.84302310      39.36409755
Si      28.01777765       2.82379005      35.94070677
Si      34.50988935       4.38579377      34.50582894
Si       4.27447974      30.28209254       3.76528747
Si       1.74725886      23.40084285      26.84377573
Si      17.68949827      11.57437209      13.44266005
Si      37.53739166      20.00352516      31.23578649
Si      36.58433154      13.26528502       1.11740759
Si      19.85854198      39.80323825      26.66162532
Si      15.26301281       4.56400439       3.06793972
Si      39.10332290      37.50743517       2.68381469
Si       4.98647104       9.25643721      12.76339198
Si      39.61729617      10.44664436       0.72447699
Si      11.11980543      35.95620294      25.07511156
Si      26.59413543      26.93610339      11.47260354
Si      29.23709725       9.16430728      31.55720732
Si      21.89268910       9.15128859      18.98584091
Si      23.50446772      13.62389095      26.79885409
Si       7.96654319      32.97834586      11.73306949
Si      26.56569811      21.93144040      35.09654091
Si      34.27969962      32.69304739      13.92283565
Si       8.39152616      36.88293830      12.52214123
Si      31.69549770      19.96290434      27.29806514
Si      27.33182434      14.24867547      36.33550480
Si      18.68330743      19.89644681      37.88347097
Si      36.40155350      18.80311562      14.00335588
Si      21.38109392       9.91460175      35.36903844
Si      37.49953416      27.74889708      18.60259630
Si      34.64419253      18.82297171      31.88099936
Si      31.00854194       5.09144289       8.22934125
Si      37.02717183       5.24535019       7.25813770
Si      17.16911354      17.09152051       2.54624071
Si      31.39318078       5.97585496      22.77501780
Si      10.58349191      30.30065069      18.22152034
Si      21.70029768      39.79351863      29.72107857
Si      22.34114034      16.74987081      29.63214075
Si      31.29236258      21.06832846      29.82694705
Si      20.71181815       6.85367918      22.50654528
Si      20.46189959      35.77598028      10.21015569
Si      37.25129186      34.44196332      21.92392369
Si      10.71655898      10.03513814      36.05270696
Si      13.26473596      35.66451297      15.65632222
Si      22.82504186      20.55011136      30.02461295
Si      28.43192685      26.58077204       9.07410528
Si      11.37403237       2.86971295      39.91260758
Si      28.64162875      30.07569376      23.63115194
Si      37.66504067       2.06488944      17.76424908
Si      39.06868128      26.87960810      10.13892882
Si      14.18324044      29.38273250      20.23584283
Si      37.89773193       9.06783906       9.97791934
Si      34.10194858       3.52194058      14.36457109
Si       4.89003579      36.10332999       8.02611482
Si      20.54875254      10.94791302      14.81989501
Si      20.24408304       1.21770329      20.24255764
Si      39.23865593      10.92071102      37.32638412
Si      32.88942449      29.89270937      12.06707444
Si      18.03663840      12.17560818      31.18707268
Si      21.82984390       5.05357014       4.64865109
Si      29.04748617       7.25510349      15.66239607
Si      36.66256008      25.59077532      18.05549363
Si       6.21413271      31.30835683       4.77799910
Si      12.52623647      17.25465137      28.63780860
Si       2.06129575       2.47254377      36.60723995
Si      20.12096797      28.52285543      18.66234120
