3068
Lattice="40.0 0.0 0.0 0.0 40.0 0.0 0.0 0.0 40.0" Properties=species:S:1:pos:R:3 relative_density=0.96 cell_dim_angstroms="_JSON [40.0, 40.0, 40.0]" n_grains=37 grain_size=15.0 crystalline_fraction=1.0 grain_radius=14.040822517800521 pbc="T T T"
Si       3.70867226       1.01549387       1.58351701
Si       4.27101631       3.23758553       1.64624319
Si       6.78169118       2.67871880      38.72276471
Si       2.84819009       4.59600892       0.17751347
Si       3.49840778       6.80775830       0.24602326
Si       6.00045027       6.11799888      37.37711496
Si       6.64069270       2.53068727       8.86661570
Si       7.94401320       2.28503182       2.42527729
Si      10.93774033      39.03114778       3.15421123
Si       9.08891673       1.84452037       6.08767702
Si      11.55038932       1.21873498       3.18785771
Si       4.87720124       0.62297430       5.21790449
Si       4.05689355       4.10638302       3.82502361
Si       5.51032733       2.87480173       5.36421628
Si       4.62669857       6.33898185       3.92296389
Si       5.18730835       3.77175951       7.45638011
Si       7.67990734       3.09948515       4.65779718
Si       5.87030071       5.99353647       7.51027784
Si       8.20859954       5.38969617       4.61580850
Si       4.43747143       7.26032596       6.12342200
Si       5.03127150       9.49013556       6.10046542
Si      13.36307652      38.37409534       0.27426902
Si      13.99162462       0.68827063       0.31142239
Si       9.81081969      39.44701447      39.45802002
Si       9.05040867       2.84647831      38.06515915
Si      10.35919948       1.65944545      39.51252094
Si       9.62427578       5.17434700      38.09607267
Si      10.24522558       2.52941319       1.75574048
Si      12.59660596       1.89422734      38.84555016
Si      10.76075726       4.80549918       1.79931987
Si      13.27570781       4.15739198      38.92098716
Si       6.48443331       3.48193161       0.93253564
Si       5.79958589       7.02704789      39.54894086
Si       7.17000852       5.78668112       0.96842994
Si       6.31482016       9.24972300      39.56283195
Si       6.92591329       6.67333426       3.18356335
Si       9.36020554       5.95560375       0.35389825
Si       7.47318939       8.85993584       3.28538056
Si       9.98968878       8.22436503       0.37787040
Si       6.11928124      10.09990464       1.77960860
Si      11.82811688       5.41613339      37.41169833
Si      12.47096968       7.63522295      37.50591019
Si       8.23569929       6.38554894      36.68640991
Si       8.83045030       8.65586297      36.70121010
Si       8.60238923       9.53420710      38.90918869
Si      15.11886250       0.32752832       3.88287778
Si      11.32205603       2.04432805       5.36962603
Si      12.79147466       0.90396703       6.84572332
Si      11.92226239       4.38789399       5.40367188
Si      14.97814664       1.14171259       6.13002100
Si       8.81492076       2.66417791       8.24446065
Si       8.07687191       6.15714273       6.83818409
Si       9.41768521       4.92900667       8.21945516
Si       8.67157519       8.50948129       6.93474367
Si      16.18861502       0.93056214      39.61180321
Si      17.62628260      39.70335452       1.03875020
Si      16.85328474       3.17219078      39.65826426
Si      17.38859279       0.49198751       3.24517949
Si      18.05978334       2.71283434       3.27648824
Si      13.80628469       1.52231240       2.45670293
Si      13.02264161       4.95754498       1.08889306
Si      14.43931090       3.71540536       2.54496514
Si      13.64007662       7.22333682       1.14565619
Si      14.16940781       4.60401928       4.72719604
Si      16.61118578       3.98728987       1.85627513
Si      14.81687224       6.89704400       4.81205542
Si      17.26778747       6.27930008       1.91249569
Si      10.58685858       5.56704185       3.95966969
Si       9.78902785       9.14081884       2.60087709
Si      11.14203717       7.87245521       4.04774334
Si      10.41309497      11.35236143       2.60806285
Si      10.95004209       8.73436170       6.21390621
Si      13.39030221       8.13821050       3.35268241
Si      11.47804773      10.92709906       6.22289734
Si      13.97394720      10.31604630       3.39204482
Si       7.26942509       9.69583274       5.43788007
Si      15.53171140       4.37061065      38.17227053
Si      16.07951124       6.60730427      38.19543733
Si      15.83078148       7.52974590       0.49590040
Si      16.47706319       9.75512357       0.46586163
Si      12.22166623       8.49605433      39.71459285
Si      12.88977745      10.75141423      39.70508603
Si      12.57888870      11.53883011       1.92741795
Si      17.01001430       7.08324021       4.09953462
Si      13.68509540      11.17505412       5.56772023
Si      16.20747035      10.52701898       2.68391318
Si      17.48474783      15.69288786      20.56491758
Si      17.83487106      15.54755822      18.14009162
Si      19.34857180      19.12151974      18.22507703
Si      17.37749244      19.97626660      17.05589319
Si      11.48166025      13.94988144      22.68477126
Si      15.07299626      18.70640974      19.98200152
Si      15.62621977      14.38721265      21.04570956
Si      13.74945116      15.18453075      19.81959198
Si      12.25682121      15.76454360      16.35308316
Si      11.96063659      13.79309455      20.43846594
Si      13.28816374      17.38763250      20.43359740
Si       9.95741339      14.51326507      19.26401820
Si      11.36177553      18.05205414      19.25031735
Si      10.50163130      14.47059235      16.85299852
Si       8.57077254      15.18315991      15.69707456
Si      12.72956671      21.71589796      19.32855973
Si      15.65139497      18.59392080      17.58530784
Si      13.68765498      19.34639027      16.44114678
Si      11.80620874      18.03743356      16.99203478
Si      13.22102258      21.52154127      17.07952058
Si       9.94230121      18.69077807      15.77906641
Si       9.59882044      12.53922169      23.24878476
Si       7.75416278      13.28615352      22.04596831
Si       9.55021321      16.79578291      19.87311312
Si       9.21902152      16.91156190      22.13779030
Si       7.62138969      17.59212177      18.64051857
Si       8.72879916      19.15952322      22.68333833
Si       6.78361490      19.88395559      21.58035494
Si       8.14387432      13.21678021      19.68004546
Si       6.68417956      13.86939572      16.24918364
Si       6.25207348      13.92360897      18.61922791
Si       4.79981345      14.62705086      15.08661214
Si       5.87969632      16.22737873      19.19429060
Si      10.94507058      20.34831041      19.90184272
Si       9.43805164      20.99832903      16.43307337
Si       9.05892025      21.11864009      18.73949347
Si       7.54668872      21.81164256      15.21744584
Si       7.24942139      19.76912256      19.27043354
Si       5.29145286      20.51051426      18.13703863
Si       8.06897597      17.40397490      16.33030122
Si       6.58212256      18.08740507      12.87198706
Si       6.16890550      18.25536042      15.19796631
Si       4.65204636      18.82345152      11.63691019
Si       4.30809024      16.82509911      15.74599182
Si       5.74648504      20.48746839      15.75841226
Si       2.38432915      17.62405342      14.58434861
Si       3.80818381      21.15386965      14.63030628
Si       7.98773993      21.67677682      12.88370609
Si       4.24192581      21.10082275      12.31409146
Si      14.08462212       0.99278283      38.39199203
Si      16.46337324      38.37810780      36.76703334
Si      11.29267199      38.31336247      38.33132589
Si      15.47883484      36.65909343      38.04598956
Si      13.75057412      35.82071733      36.70879525
Si      10.94090092      33.20098390      36.61415118
Si      10.13468451       5.16839017      35.04793169
Si      18.31655951      39.36407176      33.56786284
Si      17.76792388       2.77333075      31.94233524
Si      17.65854713       2.79894592      36.43610747
Si      14.95207176       0.17116789      36.37784672
Si      15.89265957       1.98075399      35.20698986
Si      13.14537077      39.25494602      35.11042382
Si      14.36488731       3.61340314      34.77532285
Si      16.81625238       1.08271209      33.09975099
Si      12.55581449       2.67568453      33.46033032
Si      14.92669008       0.21923928      31.90572399
Si       9.66291188       0.00750258      37.89595941
Si      10.69782100       1.82003671      36.78861582
Si       7.93542325      39.08016970      36.64734346
Si       9.15372574       3.38021822      36.29870585
Si      11.58327956       0.93083742      34.68808137
Si       9.72533874       0.06202572      33.37937104
Si      17.35371093      37.61129136      30.23938443
Si      17.34561791      37.63699684      34.81369768
Si      14.53990016      34.93442704      34.63331920
Si      15.62474761      36.74897107      33.48324076
Si      12.81504418      34.07555448      33.42046335
Si      13.93629233      38.34781868      33.04664402
Si      12.28212470      37.52316889      31.82808352
Si      14.54000732      35.02638009      30.22854930
Si      12.15262181      37.42821525      36.24601085
Si       9.32694005      34.79071096      36.23856192
Si      10.35842842      36.62885763      35.03071327
Si       7.55616959      33.93150373      34.91486245
Si       8.79932124      38.26381642      34.55263270
Si      11.16245550      35.75488446      32.95706210
Si       9.48471746      34.85146017      31.69907819
Si       6.98264289      37.36398290      37.86056918
Si      13.66324850      33.24458270      31.36095192
Si      11.71042567      32.35740629      34.62137211
Si       8.98509012      29.69339922      34.55671708
Si      10.00860278      31.45985073      33.29566766
Si       8.38599628      33.14762720      32.85984693
Si       6.68949722      32.24017120      31.67606067
Si       5.64327382      30.50187484      32.88903451
Si      12.02208637       6.14766696      31.83192066
Si      16.13904735       4.53945942      31.46928498
Si      13.37460516       1.82588155      31.40143577
Si      14.43676892       3.66032797      30.22628655
Si      11.64028818       0.98547462      30.15127600
Si      12.80677537       5.23664595      29.77065096
Si      15.21895855       2.77122972      28.20716136
Si      11.06888575       4.47631383      28.48026111
Si      10.89218451       4.38861050      33.00506107
Si       8.22782916       1.69771360      33.00812205
Si       9.23198530       3.46160627      31.74026238
Si      10.03645509       2.57834088      29.74170846
Si      15.89915040      39.32972724      29.79633622
Si      12.97050912      36.72346949      29.74573729
Si      14.09056452      38.43747078      28.51027523
Si      11.30405938      35.79886994      28.47567822
Si      12.52091807       0.17100565      28.16334875
Si      10.65732320      39.29995160      26.81133169
Si      10.67933499      39.16755992      31.35561971
Si       7.76834717      36.55014480      31.23104565
Si       8.85121554      38.31104054      30.15456862
Si       9.75111650      37.49406348      28.06637168
Si      10.27230156      34.09799707      29.69197238
Si       7.47501076      31.43753649      29.61375034
Si       8.48838637      33.13373370      28.40821398
Si      11.86902379       3.55630825      26.53135257
Si      12.91805140       5.33552856      25.40666479
Si      11.57722352      38.43755350      24.79565714
Si      20.15147831       5.32065019      36.11235905
Si      21.39902343      11.85694698      39.93079142
Si      18.72354167       4.51238392      37.79433178
Si      19.28771866       7.78098030      39.72055279
Si      19.95111668       3.32458380      39.48679714
Si      20.58510942       6.58228619       1.37534354
Si      26.54687142      11.44339211      31.25722340
Si      22.04332376       8.60007941      33.73101954
Si      23.31255052       7.51231657      35.30827654
Si      25.16806034      10.76807960      32.93314949
Si      26.33714153       9.62788053      34.51528784
Si      21.24722787       3.45241280      35.11597197
Si      22.43498797       2.30340510      36.70485707
Si      24.32873278       5.57120317      34.29526810
Si      24.98119998       1.10987975      33.96525060
Si      25.54989960       4.34304801      35.91636887
Si      23.50829916       0.38723607      35.68343769
Si      24.50068438      13.97841677      39.12105758
Si      26.90401386      12.91608957      36.43649655
Si      22.44800274       9.95605297      38.99485138
Si      23.82594732      10.70138711      37.23820346
Si      23.65665415       8.79001650       0.58937468
Si      24.87567832       8.82270840      36.19565628
Si      25.51051536      12.12138114      38.15462741
Si      26.14465996       7.72333062      37.81085786
Si      26.78347030      10.88477977      39.84760252
Si      21.80695274       6.69945997      37.10069633
Si      21.58606228       4.80844394       0.34798787
Si      23.09394572       5.52547305      38.64178369
Si      22.77908225       3.60359277       1.97907596
Si      24.11316548       3.65454908      37.62288244
Si      24.66991650       6.87323857      39.52165359
Si      25.34839772       2.46871442      39.19482960
Si      25.94669042       5.71041452       1.19968053
Si      21.02279646       1.53655595      38.45603361
Si      23.87109449       1.71160270       0.94047477
Si      27.39141391      14.14728859       1.69713068
Si      23.04015003      13.17640936       0.84647476
Si      24.20224940      12.05389504       2.44615586
Si      25.24210946      10.21931690       1.41918445
Si      22.18894323       8.03337971       2.25357738
Si      24.46938851       5.01770768       2.84911003
Si      25.74050863       3.83352683       4.47593826
Si      21.43025614       2.82157372       3.66332768
Si      28.17115243      12.87849698      32.14278286
Si      29.35078971      11.69933663      33.73971375
Si      31.92584117      10.62285577      31.03037773
Si      32.55987965      13.82992230      32.96558285
Si      27.38340985       7.67587876      33.48677343
Si      28.82972724       8.43908220      31.86333905
Si      28.59647704       6.52545406      35.19533477
Si      29.81954659       6.60465755      30.85716087
Si      30.46245002       9.85319510      32.78172396
Si      31.03744260       5.41756117      32.40906161
Si      31.70258261       8.67858607      34.34224516
Si      26.59893234       2.53608918      34.94255681
Si      28.04168111       3.21328294      33.21288224
Si      27.79859941       1.37964783      36.48030225
Si      29.06898647       1.45804563      32.20149774
Si      29.67729350       4.67831576      34.16401374
Si      30.32423369       0.25303448      33.89714567
Si      30.86366747       3.53889797      35.84205069
Si      28.83753513      39.49052113      35.52815921
Si      28.54895727      14.21053894      37.45537171
Si      29.79914024      13.11408397      39.03590298
Si      31.09905432      13.08233946      34.65061980
Si      32.31350174      11.96376356      36.29751745
Si      27.97190147      10.94569420      35.46892402
Si      27.76062267       9.00516449      38.77114495
Si      29.18092886       9.85535370      37.01931229
Si      28.98075586       7.90364863       0.36564475
Si      30.31620040       7.95303984      36.06938729
Si      30.87254351      11.30973001      38.01092518
Si      31.51089322       6.78164543      37.67788393
Si      27.23480586       5.82765015      36.84842373
Si      26.93073338       3.89312758       0.17996551
Si      28.35740658       4.58265309      38.41510946
Si      28.22658491       2.69406591       1.74270584
Si      29.41652876       2.77806443      37.42545733
Si      30.01448777       6.02894484      39.39832511
Si      30.64915341       1.52239817      39.11482212
Si      31.28079878       4.87276311       1.00069084
Si      26.35588922       0.62720740      38.25853406
Si      28.38970916      12.36815638       0.67880346
Si      28.15848791      10.39620186       4.00681638
Si      29.51713178      11.09147547       2.34478831
Si      30.60751249       9.27279960       1.32630733
Si      31.83236521       8.19159557       2.98533040
Si      27.48982208       7.19018963       2.13046884
Si      28.83497539       5.91718058       3.70438097
Si      29.85141019       4.10968168       2.72165432
Si      33.54530432      12.06563790      31.90355608
Si      32.97276773       8.78567337      30.09102275
Si      32.66447797       6.76890616      33.33099289
Si      34.20291334       7.55130335      31.71426843
Si      33.93280174       5.67649800      34.98340808
Si      32.17230550       3.58064638      31.40923792
Si      31.84392000       1.64701572      34.82134212
Si      33.35120502       2.38631534      33.08088709
Si      33.12759873       0.47799900      36.39913943
Si      34.98903032       3.82555976      33.97338917
Si      31.32490774      38.41633000      32.74111663
Si      34.19769675      38.66008613      35.40019450
Si      33.34331129      10.14064370      35.33308796
Si      33.10102548       8.23061151      38.59970691
Si      32.55502721       4.89599759      36.69717278
Si      32.25904690       2.96459777       0.00832230
Si      33.84761430       3.74877345      38.34108768
Si      34.82085454       1.89069488      37.30487355
Si      31.69074925      39.65355443      38.13741349
Si      28.17211477      25.09800227      38.05363300
Si      23.31763777      25.66870377      33.56035939
Si      24.56917493      24.35133656      36.96175233
Si      20.97067827      23.65299388      35.81312407
Si      27.52020839      26.89612046      32.52062066
Si      26.96259351      26.46038478      34.65979861
Si      28.28578601      25.04694745      31.41269941
Si      25.24249958      24.78608275      34.71063462
Si      29.54194876      23.66069522      34.75988493
Si      25.89904810      22.83241894      33.61700945
Si      31.14208967      27.69781121      33.61017471
Si      31.81418083      25.78709845      32.57025482
Si      33.72064851      24.83539704      33.69948746
Si      30.09121729      24.10510637      32.52969148
Si      34.40630601      22.84162993      32.57460096
Si      30.87240937      22.13844292      31.46145150
Si      35.06593858      23.42774523      30.38419602
Si      17.43847705      22.89869270      34.69155128
Si      20.31515972      25.45354256      30.27398032
Si      19.71360186      24.95017205      32.47756179
Si      21.05458779      23.61153255      29.15693708
Si      21.63628621      24.14677691      33.57177556
Si      18.03468490      23.36112944      32.45776908
Si      22.31435741      22.16735845      32.45576835
Si      18.79936645      21.45794910      31.31063016
Si      23.94594855      26.26741548      31.36900982
Si      24.65476343      24.26467296      30.25957859
Si      26.54425121      23.35472992      31.39795845
Si      22.91260695      22.73841014      30.29626056
Si      27.26397251      21.39689338      30.32156342
Si      23.63555457      20.67660086      29.23816821
Si      31.42160880      22.70869004      29.25427811
Si      27.79275080      21.90890967      28.10525170
Si      28.56971361      19.99715716      27.01660753
Si      19.37025992      21.93979408      29.15431210
Si      20.11082545      20.06752153      28.11385951
Si      24.99569430      19.31970981      25.91777460
Si      25.85382682      22.97493567       0.30952312
Si      23.56157579      20.83078627       2.46298758
Si      30.84861433      22.15464374      38.07481254
Si      28.41633319      20.14021785       0.39083699
Si      19.97693048      20.14463762       1.34211540
Si      22.95189260      22.73456901      36.98164159
Si      22.37128208      22.17957737      39.11781475
Si      23.69083401      20.77485750      35.86562923
Si      24.13414393      21.37459847       0.25218824
Si      20.60243034      20.63989471      39.14770163
Si      24.89509078      19.39925211      39.24242812
Si      21.28273658      18.69508945      38.10486592
Si      26.50567655      23.44988858      38.06612773
Si      27.75601757      22.00885133      34.74839012
Si      27.23105094      21.49306880      36.92900173
Si      28.50091806      19.99900089      33.67627846
Si      29.08683198      20.63534649      38.06710893
Si      25.47091028      19.93909311      36.93518372
Si      29.82403127      18.68605620      37.00107529
Si      26.22827203      17.99191998      35.82432610
Si      31.37471654      22.76020679      35.93437564
Si      32.66941135      21.30528315      32.58040354
Si      32.15388060      20.78699221      34.81632433
Si      33.47544452      19.35075683      31.55228463
Si      30.40494932      19.17751834      34.82621782
Si      31.20664770      17.22307970      33.75571035
Si      19.29779393      22.03377611      35.77370662
Si      20.59398576      20.59775982      32.52258866
Si      20.08645221      20.05098568      34.69081107
Si      21.35759661      18.57566863      31.45241970
Si      21.89080956      19.15976977      35.86764324
Si      22.57950945      17.28979627      34.73573571
Si      24.21616196      21.28001832      33.63353581
Si      25.47863046      19.83992997      30.32254079
Si      24.95824568      19.37307376      32.55629881
Si      26.20427241      17.85009392      29.20715210
Si      26.81887359      18.48049277      33.65857487
Si      23.21067002      17.72806782      32.56157845
Si      27.53307961      16.53766631      32.60180420
Si      23.94307469      15.73990124      31.44292144
Si      29.11785408      20.51466711      31.47133099
Si      30.54226496      19.12814562      28.17036029
Si      29.89219838      18.64637252      30.42519505
Si      31.74818716      17.74272612      31.50974199
Si      28.12270566      17.00852104      30.44815418
Si      32.47327653      15.80551467      30.40726026
Si      28.90715089      15.08585688      29.24846222
Si      34.10552958      19.80990997      29.22375992
Si      21.92669441      19.12367133      29.21941109
Si      23.23976763      17.69785090      25.93019307
Si      22.71703718      17.24215402      28.06673458
Si      24.48731903      16.36036742      29.23398967
Si      25.31184390      14.35273397      28.16764806
Si      26.84227724      18.41501458      27.04450462
Si      27.55995339      16.47563449      25.91297049
Si      25.81251629      14.84637553      25.96419173
Si      21.32210896      18.79022309       4.72070656
Si      25.42641793      19.95961470       3.60219996
Si      26.12430712      18.01571540       2.57779722
Si      18.28776927      18.49684086       1.35422379
Si      21.80441681      19.26418162       2.54015562
Si      23.10155711      17.84814455      39.22764388
Si      22.55555453      17.33541990       1.43240607
Si      23.95705980      15.87949603      38.11706096
Si      24.46282060      16.44608046       2.55093003
Si      20.80328136      15.70765550       1.44592280
Si      26.73021849      18.57518543       0.28573104
Si      28.07639886      17.08675508      37.01945888
Si      27.51234149      16.58412989      39.24982676
Si      28.76254629      15.10412076      35.96662258
Si      25.82499315      14.90088090      39.24366177
Si      19.56581447      17.08833348      38.08323992
Si      24.51040646      16.33299274      35.89955989
Si      25.78920028      14.89102607      32.61682244
Si      25.24171608      14.39160261      34.82549281
Si      29.40929890      15.62943971      33.72741744
Si      30.78987639      14.18257640      30.40374152
Si      27.16922220      13.52267957      29.32348417
Si      23.48387811      11.59234482      26.41191501
Si      20.93487135       9.88779951      24.11502508
Si      18.36619351       8.23260028      21.71432443
Si      22.11880986       9.67538715      26.09885706
Si      23.38782937       7.70493214      26.05753961
Si      19.28728447       7.69165419      27.66447037
Si      23.08609703       7.45951041      29.84740158
Si      20.56367887       5.74390220      27.55082363
Si      24.70362129      11.39552004      28.36522006
Si      27.54470049       9.58809959      26.54609578
Si      26.00392109       9.35324916      28.35316008
Si      28.79505558       7.66207969      26.47986702
Si      27.22956367       9.23145352      30.42700685
Si      24.64833748       7.51817150      28.08307801
Si      28.58004820       7.33705479      30.25435491
Si      25.94668038       5.64669165      28.04614855
Si      30.02070235       7.46923220      28.53363211
Si      31.39786827       5.55745906      28.46476318
Si      16.67267620       5.95400731      25.30740627
Si      17.97754017       4.00508900      25.22563494
Si      19.52543039       8.03450885      23.79768379
Si      20.91784757       6.09832152      23.70780678
Si      22.04169624       5.87270859      25.72343035
Si      19.49098420       4.17090110      23.44613727
Si      23.39751800       3.90776732      25.72981664
Si      24.97738178       7.88703128      24.21237506
Si      27.47807217       5.83629320      26.15297161
Si      24.88775510       4.06350229      23.91417402
Si      28.82046365       3.81737002      26.18795895
Si      26.23540387       2.15713734      23.79600108
Si      17.67904560       3.73154211      29.07049087
Si      21.75467615       5.57711365      29.56812885
Si      20.24479492       5.32074037      31.41451138
Si      23.05523171       3.56769079      29.47637313
Si      21.38567212       5.13913725      33.44315111
Si      22.75063422       3.21324117      33.29131785
Si      20.19034367       1.64468416      31.06394664
Si      24.29924424       7.28859919      31.87967863
Si      27.13157171       5.40609999      30.04005185
Si      25.60692879       5.32719396      31.85156256
Si      28.49318899       3.53499561      29.94975004
Si      24.21896194       3.36359384      31.50517899
Si      25.56609432       1.53278923      31.58138729
Si      19.08525007       3.81633248      27.28272395
Si      21.97202486       2.03975804      25.42910701
Si      20.45444724       1.91749232      27.20405316
Si      23.28588498       0.09981768      25.38234881
Si      21.67904723       1.67892162      29.31031365
Si      23.01553550      39.79322494      29.20133914
Si      24.55746785       3.73068646      27.69156447
Si      27.40669894       1.98594466      25.81234587
Si      25.90908294       1.82265833      27.63954995
Si      28.76904448      39.99336382      25.80185397
Si      27.07764076       1.60103547      29.66271457
Si      24.51580275      39.90408768      27.40813177
Si      28.40923123      39.65210695      29.58510814
Si      25.88275302      38.00993179      27.39975785
Si      29.99728729       3.63539308      28.16318260
Si      31.30811929       1.70523167      28.07893811
Si      32.54750566       1.41443784      30.17299992
Si      29.91788577      39.84378288      27.84001839
Si      31.26159024      37.88888121      27.77903665
Si      24.87656727       0.29498278      23.61583150
Si      27.33189147      38.10552015      25.48928275
Si      28.72161454      36.14546064      25.50779670
Si      32.74567465      37.95913456      25.93507477
Si      21.30648078       1.47192048      33.07981811
Si      22.67734772      39.46705176      33.03949199
Si      18.80234904      39.71757391      30.75603083
Si      21.59051528      37.88463207      28.91224342
Si      20.12191948      37.69411493      30.69391838
Si      21.37390671      37.52320659      32.70612254
Si      24.32529416      39.62074818      31.18713934
Si      27.04075251      37.79684169      29.29474556
Si      25.47690667      37.69859292      31.12958844
Si      28.34771119      35.81392152      29.25949197
Si      24.19105144      35.78457814      30.82912260
Si      29.58865560      39.43190150      31.62603947
Si      32.45100090      37.67574388      29.86175103
Si      29.64055981      35.60782374      31.31358381
Si      29.85057218      35.95254874      27.51186947
Si      14.29861587      16.25882737      31.53641174
Si      12.42458285      12.86396009      32.30885272
Si      17.41542480      19.15935231      32.70733514
Si      16.25405887      17.92210612      34.37022273
Si      19.35073732      18.06309935      32.05415900
Si      17.72688515      17.64657851      36.18169565
Si      15.57192098      15.81514059      33.42314156
Si      19.59827889      16.45893063      35.52689648
Si      17.58283830      14.67082409      32.77380003
Si      10.26673640      12.72346290      26.08062759
Si      10.46182796      11.17490245      29.52627708
Si      15.24285125      14.55198195      26.47504440
Si      13.65828274      14.15624078      30.65503281
Si      11.60365709      12.39197718      27.94967024
Si      15.56304791      12.97659608      30.01005003
Si      13.53835502      11.17677583      27.20210709
Si      18.56777681      17.49080783      27.60090808
Si      17.35490037      16.25250178      29.27255916
Si      20.44648160      16.37800882      26.99026516
Si      18.78620896      15.93949334      31.14854767
Si      16.67590400      14.17500242      28.42198741
Si      20.72298509      14.71186950      30.52492126
Si      18.62611175      13.01215984      27.73936868
Si      21.84083237      16.00348796      28.74957054
Si      23.74484844      14.80877199      28.16820703
Si      11.53294129       9.51782825      24.52371086
Si      13.28673463      12.79022907      23.71018293
Si      16.39290561      12.84074480      21.49830258
Si      14.72921538      12.45087517      25.58986259
Si      16.58628901      11.19909546      24.93378394
Si      16.50217266      15.73454978      24.85766114
Si      19.61632451      15.81077597      22.58626093
Si      18.39653471      14.59817823      24.27889740
Si      21.47375515      14.68518684      21.85123266
Si      19.78811386      14.24864289      26.09406547
Si      17.78737316      12.54439117      23.34345857
Si      21.73556522      13.06535809      25.44372041
Si      19.73531580      11.34245365      22.67324270
Si      21.60097833      17.57922783      25.34297330
Si      22.84970317      14.26756459      23.76162217
Si      17.94001348      16.05758892      39.64658266
Si      19.82332432      14.93614084      39.01254753
Si      16.10855424      12.73640608       0.38277921
Si      20.07794409      13.32120154       2.50419011
Si      18.05817327      11.59198068      39.83078313
Si      10.65982962       9.54448809      33.02717254
Si      13.82347516      12.64102194      34.17165279
Si      12.72354252      11.35387470      35.77239206
Si      15.78653168      11.37304862      33.53117635
Si      14.06112416      10.92734341      37.66432254
Si      12.09513165       9.16181623      34.87901783
Si      15.94715295       9.81973186      36.96639657
Si      14.01599374       8.08859996      34.26658204
Si      15.86365818      14.32716015      36.88594836
Si      18.96499064      14.36907338      34.64495469
Si      17.81311329      13.12939672      36.23313667
Si      20.91611989      13.18263014      33.95585392
Si      19.15058572      12.77063785      38.13681089
Si      17.17417989      11.03978326      35.36196667
Si      21.14323132      11.63563709      37.50214039
Si      19.13859475       9.84256293      34.69353764
Si      22.27642954      12.93000721      35.85127048
Si      11.76918958       7.84346570      27.93456083
Si      11.83673478      10.75912255      31.43259112
Si      14.96789322      10.84742176      29.09048038
Si      13.77770590       9.63694611      30.70625765
Si      16.83898236       9.71308917      28.46430675
Si      15.14261180       9.25205750      32.60191296
Si      13.16708824       7.64417155      29.86381337
Si      17.09775012       8.12119902      31.91800226
Si      15.03306333       6.33535742      29.19857963
Si      16.96924206      12.62048322      31.85754664
Si      20.03972515      12.66104567      29.55370512
Si      18.88273641      11.48449653      31.17259155
Si      21.97766343      11.52434890      28.89358187
Si      20.19982718      11.17678664      33.05915093
Si      18.22330465       9.38856217      30.39297679
Si      22.19246179       9.98307596      32.38835602
Si      20.23718178       8.12026314      29.65529082
Si      22.03384554      14.41931871      32.34845825
Si      24.04772946      13.25302881      31.69143337
Si      23.31005805      11.19156479      30.79323595
Si      12.89948004       9.06358537      26.35758278
Si      16.01791735       9.13404763      24.04538604
Si      14.76330186       7.99801704      25.70937184
Si      16.20498141       7.56168808      27.58125365
Si      18.01808319      10.97738467      26.81891061
Si      19.92971901       9.75735122      26.15753227
Si      15.36013882       7.71402894      36.09996395
Si      17.33349395       6.56786754      35.45360396
Si      17.34952379       9.45179797      38.85765488
Si      20.47353034       9.52572969      36.61660659
Si      19.32302007       8.33941134      38.20982789
Si      16.45804350       6.09573583      31.07572178
Si      16.69673822       4.47482326      34.60864931
Si      18.43373228       7.81202971      33.81791262
Si      20.38900075       6.67813723      33.16460069
Si      26.39397529      34.98229753      32.34971910
Si      30.40213588      32.38238553      34.94885510
Si      30.61809481      29.48778224      37.43166264
Si      32.22674833      34.54253532      31.45335445
Si      32.36184456      31.62957647      33.99523388
Si      20.38822405      37.15470099      35.27232165
Si      22.21860536      38.23397008      36.41940598
Si      22.37781816      35.30540159      38.86421478
Si      22.56713946      32.39394219       1.45023757
Si      26.40430284      34.36073707      34.66853361
Si      24.37619090      35.12372887      35.59509734
Si      28.19451573      35.48725480      35.67679214
Si      24.18775531      37.58830342      35.37626888
Si      24.40607292      34.56591587      37.89916070
Si      26.05077615      38.49083314      36.44094389
Si      26.19987692      35.56849957      38.97389737
Si      27.99684391      37.77043496      35.51704111
Si      28.63726134      29.68660447       0.72246281
Si      24.55925149      31.66233156       0.39878436
Si      26.44034149      32.74004621       1.44376122
Si      26.62348124      31.47621897      37.15270381
Si      30.36672039      31.85861343      37.17778512
Si      28.40213746      32.57094679      38.17363790
Si      32.18567747      32.93680342      38.19715386
Si      28.19949248      34.88381815      37.98088602
Si      28.43467805      32.00701469       0.46513175
Si      29.98481659      35.91981551      39.05639857
Si      30.22836424      33.08239201       1.53090050
Si      30.23549642      34.78034134      34.66066689
Si      32.10928992      35.80547655      35.75973711
Si      31.89331783      38.10748818      35.55970304
Si      32.10134788      35.21834410      38.02298791
Si      32.23537633      32.26866574       0.60397998
Si      18.40281829      37.30463442      38.50621995
Si      20.22011208      38.37684556      39.65860556
Si      18.12889161      38.55490863       2.91027483
Si      19.99886451       0.74138128      39.37588852
Si      20.58907664      32.53048295       4.63752641
Si      18.39453559      35.65555683       5.39575022
Si      18.59554666      34.51246720       1.11672749
Si      22.38099287      34.80623764       1.17268305
Si      20.34101984      35.49018121       2.18162153
Si      24.21703489      35.78761866       2.25726999
Si      20.23176009      37.86678504       1.93612810
Si      20.38175905      34.97991352       4.48091856
Si      22.01064143      38.83358480       2.97134857
Si      22.20279713      37.64360376      38.67177236
Si      26.01500284      37.95220023      38.69670406
Si      24.02602751      38.69492313      39.65389990
Si      27.90010220      38.98983068      39.78297998
Si      24.03027628      38.16937723       1.95797626
Si      25.84548163      39.25721613       3.03655235
Si      22.52215702      31.90984554       3.68345862
Si      24.23847871      35.27668389       4.50121434
Si      26.17204541      35.14474532       1.27484066
Si      30.02880400      35.40691951       1.34743876
Si      28.05509017      36.14508763       2.33400341
Si      27.86846578      38.45903636       2.09395290
Si      29.86603307      38.26399368      38.80157165
Si      33.68674956      38.56296034      38.88916901
Si      31.67433755      39.29703767      39.80959326
Si      31.69078112      38.71354617       2.12823511
Si      19.83015870       1.93622851       3.70973845
Si      18.11163425      37.96308396       5.14477575
Si      22.05785561      38.35992130       5.32020623
Si      19.99454410      38.98948231       6.24847248
Si      21.80821453       1.21176690       2.82542538
Si      25.63707553       1.55590961       2.79536032
Si      23.69307073       2.24383949       3.80922310
Si      16.99346249       9.89547829      20.57923331
Si      15.75905784       8.31685852      19.32686146
Si      13.79807737       4.23929744      18.65516184
Si      16.96225783       6.48066443      18.75176938
Si      14.17035417      10.71104198      10.78089420
Si      11.94689903       3.79173676      15.42923291
Si      11.79100555       7.43307680      12.71545948
Si       9.89930366       3.36156488      12.19224091
Si      13.08299667       5.54224507      12.15779211
Si      10.60138816       2.35455907      14.21987481
Si      11.98150621       0.46247652      13.62095996
Si      17.33107034      12.90759802      10.89497893
Si      16.86760727      10.12506675      16.03853037
Si      16.24601105      11.11377171      14.11770164
Si      18.25160901       8.20388312      15.55777000
Si      14.88168094       9.64634718      12.82501725
Si      18.11344393      11.78609575      12.82788218
Si      16.17901644       7.68147651      12.26636598
Si      13.76101491       7.88082296      16.03659577
Si      15.71403820       4.98116910      17.47355629
Si      15.06232066       6.03183088      15.48328711
Si      17.02575573       3.03930969      16.93928119
Si      13.72645713       4.49393025      14.26466350
Si      16.98824413       6.72863456      14.24677974
Si      15.05754900       2.66089275      13.63298686
Si      18.25736206       4.83860908      13.75191083
Si      12.56722694       2.75474291      17.38323359
Si      12.70708964      39.40459286      15.61670254
Si      15.82259906       1.58665085      15.70387122
Si      18.93275551       7.16567679      17.58891551
Si      12.90706040       9.20544799       9.56046817
Si      12.25737534      10.23914411       7.61544775
Si      14.23440197       7.32382358       9.01084135
Si      15.47541412       9.05953294       5.79772717
Si       9.81722427       6.95664154       9.51528728
Si      11.85131437       4.07994698      10.87671258
Si      11.10380005       5.09668293       8.93508723
Si      13.16630851       2.16999717      10.33865135
Si      14.36013299       3.92911463       7.18704707
Si       8.64482782       1.73934499      10.86486435
Si      10.65974723      38.95265294      12.33078894
Si       9.97028995      39.98342779      10.35486619
Si      11.82289866       0.68081862       9.10421480
Si      13.18470504      38.85851731       8.64924426
Si      18.60457592      11.31903042       5.82528795
Si      16.07787537      11.39297529       9.61083916
Si      18.14120198       8.47403372      11.08716211
Si      17.36972085       9.56895597       9.10293419
Si      19.38212648       6.55761623      10.49268158
Si      16.14700167       7.97365100       7.77729692
Si      17.49483284       6.11686249       7.23947142
Si      14.90374097       6.32636961      10.98455079
Si      16.98806295       3.31035798      12.43306106
Si      16.28387036       4.34415859      10.49893644
Si      18.29033252       1.49885875      11.90068760
Si      15.07208808       2.91167406       9.20246024
Si      18.15752690       5.12043880       9.26928534
Si      16.38404846       0.98790144       8.67733175
Si      19.51345722       3.27182004       8.70480542
Si      13.79238811       1.11585081      12.36835328
Si      15.11770918      39.22389694      11.86220391
Si      13.89945122      37.75879426      10.57191139
Si      17.00948936      39.99346399      10.57473703
Si      20.15582308       2.19536906      10.67539892
Si      17.34392530       9.78171391       4.54683882
Si      19.35598924       6.88805195       5.99569212
Si      18.62952729       7.84984127       4.05631916
Si      16.21089402       4.63362238       5.97135246
Si      18.16263105       1.69612478       7.42012657
Si      17.47165737       2.70598349       5.40837833
Si      19.41236015       3.46736790       4.15238467
Si      15.06334261      39.50723185       7.36037123
Si      17.12719293      36.53331518       8.78012210
Si      16.36500798      37.60934664       6.75913505
Si      23.23647496      15.97858616      21.24381803
Si      25.98470347      13.62937910      22.62405586
Si      25.24037442      13.97504246      24.82960797
Si      29.46700197       8.70379690      17.76706222
Si      26.90266567      11.50372277      22.37491585
Si      27.73074750      11.20789817      20.15890980
Si      25.39271539       9.81482690      22.93519529
Si      25.91686634      11.31328708      18.74322609
Si      28.67859400       9.08686702      20.05635522
Si      24.29028109       9.69505864      19.24532638
Si      27.09200141       7.43725901      20.50904319
Si      24.12149366      13.80142974      21.02941755
Si      22.58447107      12.11831021      21.59899478
Si      23.54945299      10.06773523      21.49347630
Si      19.15602836      10.70155061      20.62531932
Si      21.91324268       8.42757827      21.94911865
Si      30.96424539       5.27790276      25.54407846
Si      31.46168895       6.78399987      21.26846852
Si      29.93201445       5.12925430      21.89470336
Si      32.64551518       2.81546499      23.18253631
Si      29.76425694       9.17555207      23.63910509
Si      28.17206377       7.59547779      24.28932391
Si      26.36616694       7.70712078      22.77222128
Si      29.06691291       5.48619379      23.98720054
Si      24.71496273       6.03737066      23.26472792
Si      31.92937676       3.08509026      25.37916131
Si      30.38935393       6.57133607      17.67975050
Si      31.20105508       6.27664281      15.44983955
Si      28.89880168       4.96395611      18.18108727
Si      32.17625958       4.08112698      15.21912891
Si      30.58373093       2.54254551      15.76305597
Si      27.58752419       8.93844403      16.34778447
Si      25.28945722       7.51644453      18.99898232
Si      23.66789785       5.94424991      19.58519842
Si      27.04642316       5.15271309      16.69830254
Si      25.48754109       3.50010179      17.19223746
Si      20.15795090       8.56132511      20.50466651
Si      21.86769103       6.04827452      18.14811619
Si      33.25668241       4.25996845      18.88796477
Si      30.85713907       3.00062544      21.63702406
Si      31.66141111       2.66165100      19.44274807
Si      29.24133599       1.35188788      22.16140867
Si      29.79927271       2.82308149      17.96654535
Si      28.15881545       1.20311718      18.51121078
Si      31.06386383      38.87122484      19.79817100
Si      28.00601560       5.22668465      20.37465012
Si      26.42753424       3.58946009      20.91007656
Si      24.67342507       3.81416429      19.39881650
Si      27.47859137       1.51930470      20.71678729
Si      22.93608805       6.22883128      21.76226812
Si      33.69087738       0.71636012      22.98291850
Si      32.02630319      39.04085557      23.49694293
Si      30.20894466      39.20587153      21.91668858
Si      33.02415462      36.83955077      23.32878768
Si      28.48318076       1.61831594      24.40950802
Si      28.81465849       2.60202978      14.29256089
Si      31.53794336       0.31643422      15.57202042
Si      39.10564131      36.12508970       8.08318230
Si      37.75583569      36.02932196      11.68183584
Si      35.39011498      35.17037648       8.79950403
Si       3.30343997      36.41055859       9.58789317
Si       1.49312792      36.92444376      10.94455773
Si       2.03951779      36.35493494      13.22340500
Si      39.69027049      35.53589719      10.21700575
Si       2.54564515      34.13492311      13.36263686
Si       0.29396230      33.32888224      10.52216871
Si       4.49449807      33.65256166      12.03928805
Si      37.30190234      34.79819299       7.38538783
Si      37.86180663      32.48341392       7.58179261
Si       0.88855190      35.67057321       6.73583363
Si       1.56438081      33.43132941       6.87493064
Si       2.08337488      32.92303547       9.15889589
Si      39.77451123      32.06909095       6.15565503
Si       2.65657311      30.55378585       9.32643882
Si       0.31418484      29.81835016       6.35934742
Si      36.54911090      36.02076322      15.26253806
Si      32.77136816      35.08343280      15.95794064
Si       1.25002489      34.09936513      17.00511941
Si      37.55925546      33.17330918      17.61656907
Si      36.01140928      34.60298112      10.99700056
Si      34.14323108      35.14056214      12.30351969
Si      36.51715256      32.50955394      11.09347339
Si      34.63283345      34.64436921      14.59882945
Si      35.27616056      32.40534445      14.77402722
Si      32.92549201      31.52935961      11.89349516
Si      38.36972788      35.53438322      13.90124694
Si       0.76456301      32.79212322      12.71624298
Si      38.93857977      33.32042891      14.07180387
Si       1.36966307      30.52861424      12.92733462
Si      39.48486143      32.72013530      16.26559711
Si      37.11643527      31.93196099      13.38363476
Si      39.98934079      30.50416554      16.50337298
Si      37.66417332      29.60163137      13.63444031
Si       3.16629069      33.64499213      15.62452030
Si      33.62162288      33.86710112       8.11917033
Si      36.03902314      31.12999436       6.85180848
Si      34.28506799      31.55035359       8.25260316
Si      34.70153524      31.11127229      10.47378892
Si      35.33141237      28.81414501      10.59665672
Si      38.38003245      31.99625151       9.80093699
Si       0.82020374      29.30134655       8.62369377
Si      38.98328855      29.72018093       9.97495384
Si       1.42091200      27.05191040       8.70458634
Si      39.46486105      29.26017227      12.16453481
Si      37.21513412      28.35484678       9.25380151
Si       0.11923504      26.93836833      12.44688829
Si       3.18850058      30.04544537      11.52618809
Si       1.98442684      26.48437937      10.99055760
Si      39.67664819      25.75202138       8.07178452
Si      33.34206007      34.61883232      18.21409693
Si      33.90166695      32.33985123      18.38478085
Si      38.20198751      32.66878618      19.87717495
Si      38.65119757      30.36533671      20.09782348
Si      33.39144766      31.07834089      14.09827660
Si      31.57119252      31.45832199      15.45452584
Si      34.02499842      28.69637986      14.28645977
Si      32.05474768      31.00586508      17.63713915
Si      30.30560365      27.86228596      14.87643405
Si      35.74967254      31.86157410      17.02179883
Si      38.22239196      29.16322270      15.74638812
Si      36.31593033      29.56624280      17.19877182
Si      38.79591888      26.86337512      15.93192146
Si      36.91093787      28.99296346      19.36447397
Si      34.53518628      28.29700952      16.46088345
Si      35.07906265      25.91604560      16.63091671
Si      32.16913105      27.49676408      13.52336192
Si      35.85018276      28.33871626      12.85223726
Si      38.34196157      25.61132490      11.66341551
Si      36.36871522      25.99427145      13.04943666
Si      38.87324718      23.30033712      11.79997394
Si      36.95403599      25.58263020      15.23140893
Si      33.27368044      24.59631950      15.96996591
Si      37.09741515      12.57095035      32.30482637
Si      36.65268595       9.70426319      34.83390034
Si      36.03826316       6.95689298      37.39484710
Si       0.88968210      12.73424150      33.31736307
Si      39.70403937       7.11941999      38.37230107
Si       4.01404362      10.00988710      36.90805711
Si      34.48569685      12.93503108      34.98163223
Si      32.33062457      16.06123268      35.17549879
Si      31.72875347      13.28405012      37.70858138
Si      37.19309569      14.82281979      31.94286081
Si      34.98674548      15.70892192      32.46576879
Si      38.67874460      15.86698582      33.50344652
Si      34.40640701      15.22724989      34.73233555
Si      36.51981575      19.05843334      33.63468963
Si      36.03964701      16.25934077      36.12824561
Si      38.71600359      18.20772404      33.18070582
Si       0.31180774      19.23560241      34.62479715
Si      36.02562968       9.22974767      37.07095879
Si      33.85036601      10.10140221      37.50939072
Si      37.51906045      10.31580623      38.53604929
Si      33.91786895      12.47870001      37.20628669
Si      33.35427204       9.55787903      39.76415042
Si      35.43328886      13.39599661      38.63489704
Si      34.84171757      10.58807804       1.26645126
Si      36.55200813      12.15511757      34.49635295
Si       0.30868759      12.25648171      35.57274681
Si      38.12280512      13.05739364      35.99606737
Si       1.88903971      13.17858658      36.98673128
Si      38.18549848      15.39940194      35.70568952
Si      37.54744139      12.58197905      38.28219568
Si      39.68487406      16.38988751      37.19071904
Si      39.09349436      13.58712313      39.66827677
Si       1.76698332      15.53337970      36.65233703
Si      35.42511333       6.36481465      39.61212227
Si      39.15974276       6.60477093       0.62678123
Si      36.96392357       7.41914326       1.06124913
Si       0.69712049       7.59576495       2.09133113
Si      36.98229871       9.72513775       0.70035124
Si      38.56493628      10.74517325       2.20152724
Si      38.01669418       7.95483576       4.78814225
Si      39.73517943       9.35197014      38.07996702
Si       3.49512774       9.57277676      39.08110042
Si       1.24031175      10.45300315      39.53673750
Si       4.99409575      10.52032236       0.52262823
Si       1.25199320      12.70400264      39.19215799
Si       0.68484461       9.94460515       1.73914689
Si       2.89310749      13.71984899       0.68604727
Si       2.30826185      10.91506965       3.24997422
Si       4.95249400      12.90523719       0.22870142
Si       0.11913981       7.18508517       4.28942785
Si       1.73845662       8.10750827       5.76820728
Si       4.38491776      10.03582528       2.74930179
Si      31.65802102      15.57858382      37.34910399
Si      33.22151802      16.60487188      38.80063945
Si      30.56601567      16.98318715       1.44872243
Si      36.05252863      18.59782095      35.88091598
Si      33.85482865      19.41334894      36.26509815
Si      37.50180794      19.54568454      37.33300615
Si      33.24012040      18.94818314      38.47598748
Si      34.79297815      19.95429713       0.02707026
Si      36.59526515      21.38873610      33.30913589
Si      32.07507983      10.98468664       3.90455016
Si      29.98175988      14.05141460       4.05399825
Si      31.12421892      12.76683592      39.95287610
Si      34.89538435      12.90712581       0.90607465
Si      32.69752502      13.77767237       1.37808597
Si      36.35484165      13.91714499       2.39577446
Si      32.64407626      16.14604542       1.05146704
Si      32.10429979      13.26534865       3.60830268
Si      34.24069533      17.06658431       2.49452060
Si      33.70677619      14.30533384       4.99943154
Si      35.39717679      15.77390302      38.35957631
Si      39.08341635      15.98698761      39.30862399
Si      36.92835993      16.82835797      39.80966786
Si       0.66324007      16.91708828       0.79948860
Si      36.95629330      19.05963921      39.52922854
Si      36.39154547      16.27939811       2.08207149
Si      38.55039972      20.04721347       0.94002658
Si      37.95507415      17.24034901       3.54364129
Si      39.68091911      18.75803535      36.81513452
Si       1.24565076      19.73042349      38.22088098
Si       1.27300093      22.03314073      37.93429682
Si       0.62733118      19.21032668       0.46833971
Si       2.19402085      20.25308336       1.93513389
Si      31.55140681      10.45335562       6.18938377
Si      34.28087792      10.14266015       3.40164281
Si      37.96306364      10.25691418       4.45117526
Si      35.81202258      11.05269988       4.92483187
Si      39.53696986      11.30984684       5.96151056
Si      35.84503481      13.44111491       4.61853910
Si      35.24065635      10.58968795       7.11468085
Si      37.39064706      14.43401199       6.06263275
Si      38.57078222      13.01857766       1.89978587
Si       2.29325848      13.18703130       2.85890218
Si       0.10273884      14.03290286       3.31422215
Si       3.77952550      14.22856480       4.34321181
Si       0.12114722      16.35542467       3.03364528
Si      39.46907752      13.58395374       5.55571967
Si       1.66115085      17.44356528       4.54618580
Si       1.03105152      14.54849739       7.04632444
Si       2.79194784      16.07964209       0.36015283
Si       4.39449679      17.04707303       1.86648315
Si       3.84842215      16.55363817       4.04097607
Si      38.93277695      10.73864726       8.12658985
Si       1.69033363      10.36577650       5.42291833
Si       3.22305896      11.39260577       6.84783465
Si      33.72381620      16.53211904       4.75414120
Si      31.56655836      17.53126960       5.19409549
Si      37.91763446      19.59185169       3.22643087
Si      39.49485169      20.58229277       4.64382288
Si      33.08265421      13.84466510       7.27458071
Si      37.42984744      16.78068354       5.73493127
Si       1.03164708      16.90835299       6.67069698
Si      38.94580843      17.79820159       7.21392704
Si       1.61411231      19.79564562       4.10397596
Si       3.58432563       9.95693279       9.11925836
Si       2.68598621       8.05775201       8.05734435
Si       3.30519312       6.18047095       9.38193714
Si       6.75296526      11.72209159      10.35242014
Si       6.63104417      13.89445760      13.46706291
Si       9.20214013      11.46544979      10.55127851
Si       9.64398129       9.72388439      11.88505234
Si       2.64488092      10.23119163      11.22207037
Si       3.46634404      12.19071536      12.24043240
Si       3.10335209       8.34020471      12.58982468
Si       5.83446594      12.00506483      12.47736818
Si       6.34548678      10.08807988      13.75728335
Si       3.04770403      10.55134000      15.70458740
Si       5.97659950       9.79799399       9.33912388
Si       5.56222004       6.03240633       9.59808216
Si       6.46230524       7.93635093      10.66019924
Si       6.13048192       4.10208683      10.91682445
Si       8.84456101       7.71475642      10.83627580
Si       5.44213653       8.15835102      12.79348703
Si       9.29622355       5.85778294      12.15315638
Si       6.00014837       6.29771873      14.03157758
Si       8.46159758       3.98235417      11.12407139
Si       2.16957972       8.53577598      14.58478210
Si       2.27920482       6.43281833      11.47556477
Si       5.11537093       4.34976697      13.10571799
Si       9.50095482      11.80864475      15.01742292
Si      11.95238328       9.50875671      12.09847933
Si      11.84428045      11.71769066      15.28733542
Si      12.39049025       9.73092332      16.49708667
Si       5.39001805      10.41927871      15.88872151
Si       6.21458017      12.33412719      16.96097419
Si       5.91382752       8.50408161      17.22330874
Si       8.50244525      12.10061956      17.16986839
Si       9.14179735      10.19005422      18.41562420
Si       8.70315575       9.92019392      13.95182649
Si       8.40641182       6.06679943      14.30194560
Si       9.21136361       8.08918374      15.28575577
Si       8.85239348       4.23446584      15.56099436
Si      11.51905339       7.84834672      15.56547689
Si       8.24942225       8.28614945      17.42427193
Si      12.03426227       5.93480028      16.82833288
Si       8.78000324       6.43884707      18.78252354
Si       4.89128543       8.75660387      19.35117226
Si       5.02921626       6.55296062      16.19724715
Si       7.86632617       4.55409187      17.72763570
Si       8.01932193       2.21154896      14.65330628
Si      12.24931416      11.93344385      19.66002672
Si      14.69973339       9.61196978      16.75343019
Si      15.54629737      11.54280698      17.84433970
Si      14.60393477      11.76569356      19.86450639
Si      15.14004690       9.91381644      21.23661183
Si       8.10872301      10.49594459      20.60759565
Si       8.67350643       8.65993653      21.93373308
Si      11.81327857      10.40763835      23.15642405
Si      11.42508277      10.02453121      18.67724818
Si      11.07137616       6.34278630      18.95259998
Si      11.90220133       8.09458587      20.00934125
Si      11.58015865       4.38248780      20.30055384
Si      14.28975233       7.91829392      20.22203865
Si      10.99556948       8.41249364      22.14139916
Si       7.78278344       6.69682347      20.87141436
Si       9.21947394      34.53016506      20.77711542
Si       9.70616947      35.77303156      22.85514579
Si      10.15067048      32.43370089      21.01398451
Si      12.44666518      32.59850355      21.29109436
Si      12.91156272      29.21872417      19.47739696
Si      13.00919531      32.51637111      17.45164000
Si      13.37851062      30.49682311      21.46161945
Si      15.71400764      30.65917151      21.77142237
Si      10.62199642      35.65369072      15.16669275
Si      12.93472155      35.75826505      15.54930332
Si      10.18341649      35.74732378      18.98574085
Si      12.51822314      35.88545510      19.29321179
Si      13.41047838      33.73152155      19.44632712
Si      13.47178546      36.98182211      17.35591905
Si      15.75632068      33.92620971      19.72148513
Si      16.62673963      23.91640552      18.08327023
Si      13.48130334      32.51205443      13.62880378
Si      13.86944923      30.37886726      17.62254780
Si      16.17209806      30.47306512      17.93039386
Si      14.43771271      30.34406384      13.84816559
Si      16.61302723      27.10628583      16.14740054
Si      16.68289623      30.44405191      14.13975880
Si      13.89834250      27.07721540      19.66434581
Si      16.13028513      27.27087912      19.95286635
Si      18.96631072      28.64639665      22.18003604
Si      17.12250280      25.08238661      20.07106936
Si      17.08743088      28.40100735      18.09621554
Si      19.43316076      25.22469845      20.41660276
Si      19.49185940      28.56054847      18.43791856
Si      13.93848393      36.90611663      13.62572296
Si      14.44954094      33.56397701      11.73224554
Si      16.75413159      33.73030038      12.12831966
Si      13.95677684      33.64338036      15.60994361
Si      16.65702252      35.04524093      17.96852830
Si      16.24486925      33.74896501      15.95666578
Si      19.00099017      35.18688130      18.13779461
Si      17.16724250      31.61271801      16.16798890
Si      17.14086906      34.94700374      14.10853606
Si      19.48742154      31.81989002      16.40800018
Si      16.69150766      31.79388873      19.93885124
Si      19.42606910      33.10732783      22.20618881
Si      18.96127681      31.88845298      20.22222626
Si      19.97794947      29.76884920      20.31123243
Si      19.90266829      33.05090468      18.32077975
Si      17.57908293      21.68411353      18.29992341
Si      20.35233965      21.85380464      14.76884340
Si      17.20912743      30.45004582      10.37392528
Si      17.61248728      28.32229438      14.33340609
Si      17.18497277      27.06938600      12.31839457
Si      19.99536776      28.49308365      14.59490726
Si      18.12138850      24.99093841      12.38848670
Si      18.15656312      28.22488834      10.41666948
Si      20.50518576      25.13426306      12.80602228
Si      20.46198325      28.37069471      10.81632188
Si      17.60588326      24.97581855      16.33408696
Si      20.40945791      26.33596827      18.59563342
Si      19.93164732      25.12784718      16.58721447
Si      20.90170034      26.32874164      14.83884904
Si      17.66263660      31.53536008      12.24393255
Si      20.89427584      29.59172832      12.69625782
Si      20.43486797      29.64077564      16.55778649
Si      23.17801952      30.99806033      18.79850622
Si      22.74504303      29.80881972      16.88071745
Si      21.38600521      26.24564404      10.90014512
Si      21.30951195      22.97239365      12.93671182
Si       1.09909469      22.58959082      15.03653558
Si      37.07012988      25.71234927      19.99240285
Si      38.20275441      23.82593999      21.01128537
Si      34.23848385      23.37073587      19.10142129
Si      35.37787056      23.35420437      23.50006750
Si      35.35396663      21.55268933      20.08825230
Si       0.66696393      26.02811982      24.07727351
Si      38.33961154      25.70354340      24.39747493
Si       1.84851747      24.20274686      25.11760230
Si      37.75835104      25.45105434      26.67277905
Si      37.73868618      23.69997302      23.26301188
Si      38.95683724      23.69943831      27.54826211
Si      38.87058711      21.83732265      24.22886971
Si       1.26712944      24.03068411      27.35783876
Si       2.43904700      22.19590039      28.28179415
Si      37.02401121      23.91181550      16.70430530
Si       0.53891525      22.40708814      17.31650497
Si      38.17426027      22.11163683      17.57533922
Si       1.60979151      20.63445010      18.22237919
Si      37.71523387      21.88234901      19.82502395
Si      38.75394124      20.12180948      20.86553491
Si      38.73228561      18.28401232      17.40916420
Si       0.53861019      24.23092050      20.80467481
Si       4.05802020      22.76584928      21.41289073
Si       1.67334386      22.35449791      21.69503022
Si       5.28492461      20.94037240      22.34301560
Si       1.17553091      22.22916195      23.96201192
Si       1.11317303      20.43596065      20.57307286
Si       2.31613972      20.42009632      24.87541817
Si       2.28555432      18.59331797      21.51927671
Si       4.07899426      24.51667534      24.80778837
Si       4.66430395      20.70032947      24.70458108
Si       5.85853964      18.94783603      25.60211204
Si       1.13687226      18.64750458      17.13673349
Si       2.19569640      16.74628980      18.09072043
Si       4.62803899      18.99570167      21.21466327
Si       4.57735855      17.12449677      17.86135687
Si       5.74405955      17.14681752      22.28173693
Si      34.84176809      21.43194183      22.36443159
Si      35.98848845      19.53934196      23.24289706
Si      38.34621700      21.69658357      26.35638718
Si      36.02920342      21.35853848      26.61678725
Si      39.49157409      19.85394380      27.43633321
Si      35.40169188      21.18459609      28.97490961
Si      35.44287077      19.38733053      25.53501942
Si      36.56634765      19.25398909      29.92712398
Si      36.49149913      17.56971632      26.56047615
Si      38.40730952      23.54821260      29.85428854
Si      39.67050218      21.66953402      30.73463905
Si      38.93312983      19.61301008      29.65605691
Si       0.19902583      17.80932091      30.62502390
Si      38.18189422      18.12781086      19.65059680
Si      35.88552725      17.77103471      19.87434345
Si      39.37214502      16.24570651      20.61467674
Si      35.33001111      17.61476242      22.21514690
Si      36.49946476      15.72968693      23.12688641
Si      38.28667773      19.84317830      23.04183330
Si       1.74191253      18.42643118      23.79595964
Si      39.43143647      18.06978458      23.99072023
Si       2.92192593      16.56434159      24.71837474
Si      38.90641183      17.85743918      26.26862285
Si      38.90467455      16.14898808      22.92394881
Si       0.10125773      16.06847133      27.28275355
Si      39.96771073      14.30317079      23.82145279
Si       1.77157490      20.21397888      27.20015339
Si       2.95957615      18.41691752      28.01148537
Si       2.34220001      16.41193437      26.94659576
Si       3.56440986      14.62466281      27.95249555
Si       1.56945652      14.93152883      16.97553720
Si       2.75843983      13.03806114      17.91961621
Si      39.93057006      12.52361026      20.42840391
Si       1.61467100      16.61042221      20.39224185
Si       5.18063484      15.14414307      21.10121449
Si       2.87029225      14.88053008      21.36795245
Si       2.29341455      14.69507582      23.60386268
Si       2.17906878      12.80720880      20.25295359
Si       3.44782268      12.79150703      24.53688697
Si       3.38172269      10.96110195      21.17747680
Si       5.21432671      16.91901922      24.44664639
Si       6.38674457      15.12278813      25.41729296
Si       5.83388040      13.17697870      24.21808590
Si       6.92485009      11.30202159      25.21126078
Si       5.67789269      11.36180761      20.89379002
Si       9.28163024      11.67837914      25.07603416
Si      36.05346753      17.30379562      28.80658899
Si      37.17950242      15.52297556      29.72136613
Si      39.44445120      14.07305871      26.04133935
Si       0.55018078      12.26993496      27.05892560
Si      39.53665812      15.91538066      29.49435539
Si      39.37251817      12.26900357      22.70233235
Si       2.87708263      10.78987112      23.48829519
Si       0.52462366      10.47331457      23.60898622
Si       2.91740703      12.61247880      26.82254321
Si       3.53864331      21.55085358       9.16544016
Si       6.58178838      22.96568220       7.29447032
Si       4.65619991      22.92720995       4.02147518
Si       9.75388025      24.26122102       5.48274901
Si       1.94066014      18.29432406       7.91179151
Si       4.90276577      20.31953460      10.59459299
Si       6.82317482      19.68594286       9.38921869
Si       3.32002899      17.06158037       9.33725532
Si       5.26674833      16.48068246       8.16555629
Si      10.27893251      17.90612552       9.67434753
Si       3.01194649      20.23596641       7.26774916
Si       6.11739037      21.63563748       5.39513151
Si       5.06105736      19.65367283       6.09752725
Si       8.09199174      21.12624589       4.33691140
Si       6.30306511      18.41947895       7.47161574
Si       4.49619096      18.42835681       4.14293098
Si       8.32499718      17.91199940       6.36490644
Si       6.45993523      17.92247751       3.01124215
Si       7.99877608      21.71544031       8.74278957
Si      11.07682046      23.07613452       6.92595564
Si       9.99242366      21.10515019       7.53211466
Si      13.18074610      22.54041869       5.81649937
Si      11.42850082      19.87416706       9.00948300
Si       9.49507955      19.84513725       5.74894308
Si      13.40486109      19.31844930       7.87764791
Si      11.38899211      19.26465087       4.60513986
Si      16.07585003      24.57440872       8.51357715
Si      14.97938051      22.61805235       9.14070860
Si      18.13338615      23.96995801       7.33825814
Si      14.46483730      21.30220176       7.21506621
Si      16.47229408      20.77290422       6.13252605
Si       4.19086190      21.63520610       2.06599787
Si       7.57038918      19.82480305       2.35134024
Si       9.16162284      23.09112458       3.66633299
Si      11.17515084      22.53220596       2.46674770
Si      12.57978630      21.25804746       3.94437623
Si      14.54114847      20.71250330       2.77568463
Si      14.12038882      24.60669979       5.17339459
Si      17.58864897      22.67453038       5.46629140
Si       3.64513940      13.24679111       6.99208936
Si       6.75036504      15.25939536       9.58182688
Si       8.61995578      14.72795977       8.44916637
Si       5.01705240      12.03209485       8.30167277
Si       7.03083274      11.44475802       7.21543622
Si      12.08476436      12.87856206       8.76604125
Si       4.71947528      15.18794996       6.17402245
Si       7.85984090      16.59357922       4.49818636
Si       6.74912280      14.72987572       5.11468311
Si       9.84991047      16.08207652       3.31898368
Si       8.17484423      13.41106162       6.51947831
Si       6.21095128      13.31221507       3.23339581
Si      10.17667464      12.83673468       5.41301199
Si       8.23995459      12.80763980       2.07964408
Si       9.78044772      16.63714407       7.72260118
Si      12.86225923      18.02782163       6.04601536
Si      11.68698141      16.03801872       6.63487233
Si      14.79156757      17.47504834       4.82592024
Si      13.06364976      14.79493555       8.11995681
Si      11.24523919      14.83828106       4.71675155
Si      15.08440680      14.32967108       6.92209714
Si      13.22536690      14.21093199       3.63842980
Si      14.73271113      18.11465044       9.32704112
Si      17.78551736      19.56524867       7.48339157
Si      16.74391910      17.51435609       8.17666003
Si      19.82280862      18.92331047       6.43402582
Si      16.23908329      16.29487657       6.25221523
Si      18.19056080      15.71529219       5.17753805
Si      10.90746836      17.96256324       2.60894311
Si      14.25633954      16.23333435       2.87612380
Si      16.26580735      15.70690779       1.82309095
Si      15.99258451      19.47309189       4.19679033
Si      17.93263551      18.92493253       3.06726864
Si      19.34944458      17.66008893       4.47467931
Si      14.65086940      13.02006518       5.07930013
Si      16.58985289      12.49067687       3.89740696
Si      17.63376279      14.44952751       3.26500698
Si      28.26143292       9.11691198       4.96690535
Si      27.68931430      15.75630707       5.23512704
Si      28.82411738      11.37003438       5.20235276
Si      24.84222403      13.27232996       4.30820128
Si      27.49080974      12.27054062       6.90475196
Si      25.37428837      15.53699187       4.59780062
Si      24.00350117      16.41836052       6.36666540
Si      31.44951227      10.45881318       7.84330017
Si      30.17998263      11.36078448       9.56363787
Si      28.02677324      14.53325501       7.32631337
Si      26.70239665      15.41665339       8.98308520
Si      24.53286662      18.76665122       6.60286892
Si      27.19489493      17.70506083       9.28394242
Si      23.16051453      19.64695584       8.34363615
Si      25.85756424      18.68339846      11.00855117
Si      22.09838232      10.80205818       3.39814655
Si      21.94367969       7.41817406       5.13236596
Si      19.78770297      10.58316605       2.86860718
Si      28.63576627       7.91268979       6.97042973
Si      28.16632700       5.68324368       6.63620647
Si      27.29459026       8.90660260       8.60329975
Si      25.89617687       5.46712078       5.97029496
Si      28.61701112       4.56449112       8.57602654
Si      24.56700279       6.43513407       7.69059049
Si      27.14000143       5.40636377      10.28233974
Si      26.01338792       8.94669920       4.31475719
Si      25.17717289      12.08074565       6.29136355
Si      24.69736733       9.79523139       6.05521741
Si      23.89743432      13.01591018       8.01564202
Si      22.47396611       9.68363257       5.45314495
Si      25.12806420       8.63701440       8.02430837
Si      21.13821346      10.50055012       7.09293213
Si      23.69339492       9.58595001       9.81075522
Si      22.56922173      13.08926063       3.76465067
Si      21.78783972      16.24036840       5.76948234
Si      21.23735315      13.94562067       5.37558016
Si      20.40193070      17.08752132       7.44956281
Si      21.62716830      12.83353244       7.36673358
Si      20.27877527      13.74032461       9.17881447
Si      29.82362617       4.42011920      12.92302234
Si      30.52826040      10.14328811      11.57617308
Si      29.98132002       7.83629026      11.27047300
Si      29.11752043      11.02583380      13.24382095
Si      27.78807228       7.66734286      10.61209919
Si      30.39721670       6.69425066      13.21173043
Si      26.36378124       8.61107923      12.28454398
Si      29.00558958       7.57741227      14.91430801
Si      27.88108769      11.16170182       8.97065331
Si      27.04301731      14.25877414      10.99871070
Si      26.54275022      12.05585399      10.64110162
Si      25.71630275      15.16617360      12.75999111
Si      24.23342908      11.82841378       9.98831194
Si      26.93047929      10.86043652      12.60989083
Si      22.91693625      12.68733552      11.71585628
Si      25.58096019      11.72072309      14.39337342
Si      24.41447714      15.28300514       8.31997303
Si      23.59323375      18.47276345      10.36793220
Si      23.00817471      16.16502677      10.03049889
Si      22.22046660      19.30360601      12.04677785
Si      20.78842211      15.93652069       9.46286556
Si      23.40540551      14.98884210      12.03953643
Si      22.09555593      15.88830720      13.78729608
Si      29.59799323       9.84622284      15.19973648
Si      28.39700291      14.22781343      15.22830307
Si      26.07228835      13.97527662      14.70696343
Si      24.71435107      14.93244222      16.38334287
Si      26.19726761      17.45133407      13.02674756
Si      24.89137470      18.30437102      14.74646875
Si      22.61679750      18.08822965      14.10724307
Si      25.22009266      17.10916729      16.66423198
Si      22.72108380      21.65010186      12.38762470
Si      23.11746554       2.99515361       5.06246765
Si      21.83258686       3.90415275       6.82539483
Si      27.00085308       1.94837081      11.95918609
Si      25.72216681       2.04102423       7.78861348
Si      24.97189684       5.19996872       9.76821307
Si      24.43466831       2.96431852       9.41005046
Si      23.65922242       6.03382774      11.39246340
Si      22.14096312       2.73751061       8.74434841
Si      24.71509385       1.79083253      11.42976662
Si      20.75886968       3.61260890      10.41757244
Si      23.40056063       2.63214469      13.09755896
Si      22.27163943       6.18987789       7.12243694
Si      21.45650806       9.34444960       9.05287868
Si      20.90943105       7.10200056       8.76472969
Si      20.09675303      10.21578524      10.80529225
Si      21.31570945       5.84944668      10.82965345
Si      20.00362765       6.77781567      12.51073351
Si      27.57766368       4.24890130      12.30895524
Si      26.82511596       7.42944711      14.31311538
Si      26.17817175       5.16947719      14.00566711
Si      25.34481369       8.32650594      15.98919629
Si      23.94555716       4.88144841      13.40957416
Si      22.61978337       5.80584043      15.08535844
Si      24.11646723       8.39322940      11.76494856
Si      23.28954430      11.46462353      13.76183989
Si      22.77116817       9.26027782      13.39783589
Si      21.91395807      12.45863498      15.45666452
Si      20.47978648       9.01544629      12.85102044
Si      23.10008338       8.12109507      15.41143997
Si      19.12269593       9.97704501      14.51403828
Si      21.76661264       9.00584860      17.11655686
Si      20.56603020      12.53003966      11.13409327
Si      19.78035577      15.62738632      13.09604891
Si      19.28293594      13.40699378      12.88213840
Si      19.70230554      12.30558360      14.80371398
Si      18.33444041      13.15121681      16.50914516
Si      25.92843598      10.57266471      16.35645593
Si      25.01534498      13.72503725      18.30362205
Si      22.29141293      11.25920839      17.42215647
Si      20.99607595      12.12882359      19.18249417
Si      22.45599661      14.69785693      15.73667851
Si      21.15915787      15.59794823      17.52758201
Si      18.89170953      15.40594737      16.89967727
Si      21.44074560      14.39641196      19.42251481
Si      20.35496676       5.61105096      14.46189329
Si      19.53824287       8.78824552      16.54936764
Si      18.65822449      11.91195108      18.53791946
Si       6.39084213      39.66682532       2.76593199
Si       6.77587574       0.24020629      11.35045003
Si       4.91596971      39.28470364       6.27618896
Si      16.24303421      37.14155978       2.45756518
Si      14.76718307      36.83832255       5.94117119
Si      14.08521752      37.88045816       1.70031545
Si      12.86848361      36.01332908       0.86981988
Si      10.00262906      38.41020514      10.40498796
Si      13.29763897      36.57620633       9.48479787
Si       9.40916454      39.46939178       6.06339492
Si      11.51122705      38.71432578       6.78888826
Si       8.13930342      37.57342738       5.30677784
Si      12.69934771      37.56311638       5.13916760
Si      11.26117974      37.24729020       8.66323138
Si      11.43595027      35.71069457       4.51075125
Si       9.98574487      35.36428847       8.01710737
Si       7.50877975      38.48490920       1.00486813
Si       9.56382632      37.79341464       1.84402254
Si       6.30353471      36.61291246       0.40524695
Si      10.78681219      36.67214945       0.11717957
Si       9.31986940      36.35054970       3.56123687
Si       9.53388832      34.79980722      39.42595748
Si       8.06217900      34.46033722       3.05867013
Si       7.42941283      35.45293610      38.63399421
Si       6.18918154      33.56968566      38.03782338
Si       9.74540024      36.91340580      12.24263700
Si       8.50893562      35.08408369      11.62835749
Si       7.89141806      39.07561371       9.57606421
Si       4.55808731      37.85469002       8.07244827
Si       6.71575623      37.16122145       8.93133057
Si       3.33912692      35.98179574       7.35365388
Si       7.86108533      36.04256487       7.16631094
Si       6.44225989      35.72629073      10.72529836
Si       6.56665767      34.13451259       6.52987016
Si       5.06151093      33.80223199      10.07900069
Si       6.03747756      38.21475150       4.52361030
Si       4.84380664      36.34801746       3.90420239
Si       6.02718883      35.16427180       2.16620116
Si       4.49668204      34.91205594       5.77883037
Si       4.77426827      33.30366667       1.55864800
Si       3.30481554      32.98199318       5.11887791
Si       4.21403819      37.30521114      39.54539838
Si      16.55852648      34.74403825       8.59743859
Si      15.88689526      35.84732389       4.26701496
Si      14.61990351      33.88991336       3.55235073
Si      17.66486069      33.56969240       6.93285318
Si      16.38524600      31.72667011       6.14219940
Si      14.03486077      34.92577524      39.25943285
Si      12.81246375      32.95716965      38.56773881
Si      14.58021607      30.78328395       1.25888392
Si      12.96704791      35.15636726      11.30092847
Si      11.78429152      33.28303657      10.64361812
Si      14.95368014      31.43558942       9.77088483
Si      14.42840161      35.42015483       7.81143814
Si      11.06524684      34.22113418       6.36781551
Si      13.24497238      33.56076270       7.05083875
Si       9.92762524      32.36338997       5.60928297
Si      14.36287142      32.41888898       5.41180572
Si      12.90871352      32.14455359       8.92736321
Si      13.10133392      30.53634456       4.75716697
Si      11.67937919      30.30369652       8.24254853
Si      12.63132664      34.54750045       2.79663479
Si       9.25416526      33.39295600       1.28626222
Si      11.30983709      32.69481603       2.10978024
Si       8.07308014      31.46311726       0.62236161
Si      12.47817537      31.51955979       0.46286355
Si      11.02575691      31.19900021       3.92041080
Si      11.28714977      29.59368999      39.68819353
Si       9.82945235      29.36712624       3.26190186
Si       7.36502659      32.46667086      36.27957536
Si       9.46149196      31.73091205      37.09314729
Si       9.16726771      30.29054999      38.96466282
Si       7.99658276      28.37813251      38.24790141
Si       9.68288401      33.93476872       9.85268715
Si       6.35207568      32.67713539       8.37160879
Si       8.43475067      32.06359326       9.11636302
Si       5.07911088      30.85826676       7.73823868
Si       9.52351203      30.88972091       7.57420932
Si       8.41733149      29.01224497       6.86158517
Si       7.77042421      33.08324592       4.80830691
Si       4.43558468      31.86654993       3.33736161
Si       6.50515168      31.12560220       4.15124937
Si       7.68735732      30.02774872       2.48106725
Si       6.23273063      29.74211454       5.96278968
Si       6.51417022      28.17710961       1.80765590
Si       5.02259117      27.77254216       5.33996602
Si       5.90941543      32.15977896      39.89627150
Si       5.78683475      29.08558199      37.44258893
Si       4.75683073      29.43885301       9.52663555
Si      16.20445335      30.25842910       8.04297813
Si      12.89717535      29.14701147       6.60647095
Si      14.95000711      28.40725108       7.41476277
Si      11.60547521      27.20666707       5.93743875
Si      14.30368158      29.44250759       3.03549878
Si      10.93921062      28.21024938       1.55478508
Si      13.09451837      27.50012275       2.39914057
Si       9.73383248      26.29274856       0.93501586
Si      12.70890030      26.07700070       4.21434599
Si      12.46181339      28.48831514      38.08304258
Si       9.10455691      27.25001712      36.56417953
Si       9.48258260      27.93346883       5.10675475
Si       6.13109852      26.73167402       3.64312562
Si       8.29016887      25.96506696       4.51380751
Si       9.44146755      24.92768313       2.71723076
Si       7.60723922      26.94384668       0.15319615
Si       6.42381533      25.12732260      39.38346673
Si       4.79140915      26.40729159       7.12653755
Si       0.54259925      17.89650241      10.18069884
Si       1.17474644      19.44387227      13.62082222
Si      39.92295982      20.07177073       9.41835962
Si       0.55281029      21.49624930      12.93049486
Si      37.63027486      20.30694770       9.74218421
Si      38.20826432      21.71575956      13.18342893
Si       0.59668919      15.59062823      13.15884790
Si       0.17444781      11.80700377      12.72510525
Si       0.79016743      13.32640298      16.23853381
Si       2.37780141      13.88663273       9.35998138
Si      39.37799837      16.19604299       8.99293571
Si      39.99696113      14.18642210       9.74251195
Si      37.07726570      16.58982961       9.26096357
Si      39.55559241      13.88731395      11.95534266
Si      36.53598292      12.77147664       8.78030973
Si      37.17859435      14.23744466      12.26499881
Si      35.90174137      14.94534205       7.97927229
Si      33.65575638      15.18076075       8.26981513
Si      38.33860347      19.38046840      16.26622964
Si       0.20947308      15.37521132      15.48957633
Si      37.79193805      15.73017423      15.78777458
Si       0.04230288      17.69595833      12.45908849
Si      37.04144135      20.09654836      11.94730113
Si      37.73776838      18.02239451      12.70108110
Si      34.72849278      20.42882003      12.30396743
Si      36.50715021      16.36542240      11.46768142
Si      37.27261889      17.77475962      15.02868464
Si      34.29354911      16.57839901      11.79929631
Si      34.84717799      18.07369285      15.26918621
Si      36.44326789      18.70655572       8.44016690
Si      34.15853790      18.94778444       8.75179966
Si      32.98156094      17.28884062       7.46785965
Si      33.63564947      18.74581877      11.04871004
Si      30.64546165      17.56536568       7.87604813
Si      31.31269621      18.99317017      11.37008422
Si      37.71296130      21.53363814      15.51545660
Si      34.70674982      24.01709964      15.01538856
Si      35.36202390      21.82575965      15.77697468
Si      34.21210117      20.14511839      14.63207900
Si      34.85176624      21.62462680      18.01381227
Si      31.85797063      20.44347668      14.89761555
Si      31.24182422      22.62437983      14.09665458
Si      39.71241679       8.05526379      12.25777855
Si      39.62969612      11.53638011      15.05350695
Si       0.26157109       9.41531602      15.77449124
Si      37.25307422      11.86038840      15.32642528
Si      39.12908161       7.79584110      14.57295874
Si      36.82248821       8.09346230      14.91117124
Si      39.02419369      10.17292977      11.54672071
Si      36.14547525      12.61494061      11.04851653
Si      36.63145491      10.47945297      11.80779487
Si      33.76855285      12.76965966      11.35324674
Si      35.51110100       8.75360971      10.65796014
Si      36.14264337      10.25425505      14.10706553
Si      33.21893854       9.05590195      10.87170728
Si      33.80261314      10.46889442      14.42794676
Si      33.15110157      11.39340630       7.83432028
Si      32.57089010      11.19078379      10.12940327
Si      37.30573239      15.47921354      18.13452080
Si      37.89935191      13.33346670      18.88292853
Si      34.96938389      15.65542706      18.34504145
Si      36.74805445      11.66422164      17.56760894
Si      36.64139684      13.99671705      14.53337002
Si      33.69149229      16.45728387      14.07329081
Si      34.33589225      14.22869027      14.80636462
Si      31.37488928      16.67415201      14.38775011
Si      33.19579622      12.62804691      13.63622786
Si      30.88236732      12.94448318      13.92626959
Si      33.06946716      15.02409613      10.57712892
Si      30.10906850      17.36327449      10.17766478
Si      30.72684755      15.30489647      10.92239724
Si      30.16539853      15.08319704      13.18777496
Si      34.30303109      17.83962264      17.58748799
Si      31.38169340      20.26957247      17.17312255
Si      32.02512277      18.07605522      17.90311586
Si      29.04463114      20.53112955      17.43404068
Si      30.89501453      16.46994701      16.65635501
Si      28.57724391      16.73408676      16.90153598
Si      30.74034478      18.83180617      13.64557694
Si      27.84753017      21.28220175      13.20225527
Si      28.41853145      19.05442238      13.91930949
Si      27.87418543      18.83319743      16.22460965
Si      35.65316585       6.41447117      13.59087836
Si      32.66638589       8.89701333      13.13895062
Si      35.09999669      18.70119455       6.53024767
Si      35.01478281      20.40537783      38.12180423
Si      36.53898912      20.59918037       1.68908197
Si      37.92180222      22.46655748      36.81076923
Si      38.06137824      20.77623329       5.22251847
Si      39.45027668      22.64617304       0.33175295
Si       0.98837553      22.85640339       3.93374119
Si       1.60525386      22.56201099      39.38035683
Si       3.18355626      22.73828001       2.95141719
Si      28.58517972      17.76827141       7.38510253
Si      29.25509512      17.47433363       2.90570144
Si      27.11588871      17.55171744       3.84993207
Si      30.01087329      19.64688702       2.41226400
Si      27.11023710      18.83160843       5.79030694
Si      27.92025394      21.02318539       5.36728387
Si      29.32189722      22.88638625       0.48265024
Si      33.07010893      20.08837031       9.48793799
Si      28.67469546      19.01698010       9.37139500
Si      29.46734343      21.18606088       8.93483713
Si      33.67657584      19.73544603       5.03239988
Si      31.51241175      19.83336985       6.00956663
Si      34.42062584      21.94796245       4.58387646
Si      30.06016004      20.94093851       4.46736532
Si      31.56775782      21.07576973       7.98667860
Si      30.82803039      23.10357419       4.05892409
Si      32.34959642      23.27134896       7.58685463
Si      32.12683236      19.57560877       1.51758883
Si      34.99668645      21.64015644       0.19681629
Si      32.89011959      21.69597357       1.05739398
Si      35.89884390      23.82990566      39.77056295
Si      31.50790375      22.83700957      39.57926491
Si      32.94842555      22.99845885       3.07738155
Si      32.26120143      24.97849396      39.12222891
Si      33.78586302      25.19102561       2.65485552
Si      33.53095979      21.49756445      36.62812234
Si      36.53540941      23.52546892      35.25257326
Si      34.31738243      23.64560483      36.16118196
Si      34.32590012      24.81587476      38.19791764
Si      33.65202296      26.89625501      34.31726355
Si      35.18148485      27.06891156      37.71517164
Si      33.09390497      21.19923070      11.53196314
Si      33.86651095      23.44059404      11.06165473
Si      38.09391509      21.99246973       7.25936384
Si      35.95030391      22.16078308       8.13503587
Si      38.87587626      24.19048646       6.82323711
Si      34.46781027      23.18436880       6.65028657
Si      35.98964841      23.30807860      10.16876211
Si      35.26835269      25.35430333       6.17897108
Si      36.81377421      25.49616799       9.72469977
Si      36.58327510      21.80750978       3.67646054
Si      39.53660653      23.87572560       2.31915460
Si      37.33610022      23.97218292       3.25880162
Si      35.89218641      25.02284184       1.70571369
Si      37.45477777      25.21500351       5.20323428
Si      36.67811939      27.27266203       1.35893653
Si      38.19077395      27.40940652       4.82211716
Si      38.06701110      23.69656384      38.80795830
Si      39.59737113      22.13322590      10.67992740
Si       0.98401320      24.05616861       5.84502020
Si      24.96692969      20.18220968       8.75870047
Si      25.83987473      22.33371723       8.27494276
Si      23.70788574      23.65834325      11.22210421
Si      26.46125704      22.10267625       3.85705005
Si      27.17310996      24.25089959       3.44961404
Si      24.39717636      23.36440028       6.79624726
Si      25.06435532      25.62826225       6.29575301
Si      26.50491888      20.32185352      12.31051037
Si      29.42952338      22.37822711      10.91779213
Si      27.30278767      22.43927032      11.86741323
Si      30.30329476      24.64399038      10.48804565
Si      25.91799303      23.54892792      10.29098842
Si      27.44147694      23.76515736      13.86753251
Si      26.68623338      25.74620918       9.87538406
Si      28.18896425      25.94810850      13.41953600
Si      27.97695909      22.19888950       7.40019891
Si      30.88461400      24.33654587       6.03168480
Si      28.70997421      24.41594895       6.97075826
Si      31.65480168      26.51518520       5.51125407
Si      27.30345735      25.49459999       5.42197867
Si      28.73934581      25.67247854       8.92448773
Si      28.10246046      27.74203153       4.99811368
Si      29.39467154      24.14604735       2.46850726
Si      32.31486565      26.16959569       1.08066555
Si      30.18671246      26.35150121       2.01977674
Si      33.05896545      28.37693201       0.64717582
Si      30.22463389      27.45406233       4.02201466
Si      30.99773842      29.69893482       3.66242875
Si      30.76102041      26.01926598      37.66355318
Si      33.70570652      28.11436179      36.16349617
Si      31.59638271      28.24987110      37.20502998
Si      31.63004743      29.54244814      39.20435317
Si      33.90056117      24.67152956      13.09840225
Si      31.69413499      24.75721892      13.88265239
Si      30.31630747      25.77557996      12.51918202
Si      31.06898510      28.06160511      12.07466713
Si      32.38656466      24.52819373       9.50267987
Si      35.29694201      26.55121829       8.21119414
Si      33.12253680      26.68128793       9.10592006
Si      31.75386019      27.76771419       7.60788752
Si      33.23962421      27.88059718      11.07197826
Si      32.47891391      29.91723343       7.13522815
Si      33.84708336      26.36347715       4.62601599
Si      36.74012771      28.45915129       3.31315618
Si      34.60080936      28.59809336       4.27549741
Si      33.20865786      29.57557473       2.74814889
Si      34.71706030      29.81476317       6.24769016
Si      35.17771633      28.27274836      39.69421994
Si       9.68867031       2.45356878      21.21055447
Si      11.01377062       2.24485936      24.80726960
Si      11.78696424       4.35560750      24.64900526
Si      10.17916087       5.92633368      25.32239596
Si       6.33720517      33.67063603      21.86167730
Si       7.62791134      33.47992449      25.46253616
Si       7.12613606      35.92106592      21.73159764
Si       5.49891871      37.33325320      22.36564023
Si       8.50602434      35.65855090      25.24886570
Si       6.80035959      37.17049828      25.93811959
Si       9.87410680      38.29328214      22.92201154
Si       9.08645955       1.99158930      23.43405421
Si       8.29161112      39.85265037      23.57460814
Si       7.40928690       3.56461627      24.15881104
Si       6.38347170      39.53604427      22.26084728
Si       7.67657445      39.31626849      25.85305894
Si       4.63033908       1.11232624      22.91071676
Si       6.02130143       0.88134957      26.49438855
Si       7.37406119       0.64459999      30.11190700
Si       9.61842322       5.48754414      27.50522679
Si       8.73789938       3.36859454      27.77943155
Si       6.89960527       3.08489621      26.34249244
Si       8.21442583       2.80095446      29.97541515
Si       8.25623994       5.67313480      24.00161231
Si       6.27833197      30.84097087      27.90582033
Si       5.73978111      33.23377564      24.07183759
Si       4.92127323      31.02958277      24.33732036
Si       4.10441185      34.75524293      24.80483173
Si       4.41145354      30.59847545      26.52654715
Si       1.38741201      32.32225248      23.66681958
Si       2.69995546      32.06441479      27.23492492
Si       2.15983769      34.52092863      23.56083992
Si       0.53181918      36.02793704      24.21018900
Si       7.10875832      33.01319414      27.71081855
Si       6.28128014      36.66566313      28.22772640
Si       5.44759991      34.57457853      28.35739658
Si       4.63579636      38.21805688      28.97232530
Si       3.50443910      34.35239316      27.11674112
Si       1.92361676      35.78856446      27.77409525
Si       4.92874610      37.01586440      24.63164122
Si       4.13546349       0.62599469      25.16619345
Si       3.31371852      38.49917940      25.40707451
Si       2.46156035       2.14662947      25.92608005
Si       1.39090184      38.22184996      24.08493669
Si       2.73061460      37.99939286      27.56080676
Si       5.48040693       0.42636630      28.82280104
Si       0.78066748      31.84118157      25.85734396
Si      39.94911426      29.72099822      26.03940702
Si      39.20140249      33.48802925      26.58573652
Si      39.17274753      39.31842402      27.00786021
Si      36.40543152      36.87286380      25.80048963
Si      17.48840574      27.03406558      22.47206378
Si      18.30899669      29.60609231      24.98295656
Si      14.04831506      25.48484710      22.19736425
Si      15.23019000      27.43228589      22.61211178
Si      11.73535189      25.88592877      22.31262032
Si      14.77527605      28.15387336      24.72983297
Si      11.23843548      26.63036341      24.54764768
Si      18.10276863      25.26993538      23.92949766
Si      17.66157143      26.09323597      26.12779762
Si      18.83754372      27.92320482      26.58777470
Si      15.33041512      26.49991815      26.34684152
Si      18.39427336      28.73460538      28.76311552
Si      14.89542999      27.27559464      28.48764478
Si      19.04275557      27.08765545      30.29939420
Si      15.38750771      31.82114928      23.59052238
Si      19.55946134      31.61593041      25.47596350
Si      18.89982488      33.35786686      23.95158704
Si      19.03045221      32.40956021      27.66664333
Si      16.60335907      33.75457270      24.08870497
Si      16.11127288      34.49374554      26.29764025
Si      20.25143986      34.33071608      28.12422064
Si      19.73661106      35.10088967      30.33148022
Si       8.29824593      28.83748793      23.17349951
Si       8.93711582      32.36238650      22.12260551
Si      12.45736828      28.65301088      24.93371113
Si      11.89976837      30.36184918      23.41453342
Si      11.95652376      29.37859305      27.11148616
Si      13.02034423      32.27049210      23.83257555
Si       9.48674146      30.76265429      23.57339639
Si      12.56338111      33.05721242      25.97380673
Si       9.04286139      31.48544519      25.76194549
Si      15.90126417      30.12544006      25.23050855
Si      16.12985627      29.19798934      28.93881753
Si      15.56373815      30.89892580      27.44040688
Si      15.64434207      29.94698721      31.12851232
Si      16.68403164      32.81600261      27.77112914
Si      13.23984842      31.34167533      27.61153317
Si      16.27045551      33.54657388      30.06835389
Si      12.72220285      32.10625133      29.75664953
Si      19.62996860      30.70652608      29.22733863
Si      19.16144650      31.50451902      31.38169435
Si      16.87169156      31.96565604      31.57578095
Si       5.48919229      30.00157491      25.52909150
Si       9.68412348      29.86725623      27.32753665
Si       9.20839782      30.55775759      29.46830798
Si      12.54522593      27.67055533      28.73633678
Si      12.08243991      28.39535950      30.96029168
Si      13.36163125      30.36046599      31.27232269
Si      10.32121826      33.47161203      26.24767979
Si      13.82989444      35.00762330      26.56341024
Si      17.46360818      35.62362370      30.45349645
Si       1.22549840      17.00582364      33.07463225
Si       3.03338838      14.49423150      35.40984389
Si       0.63920018      15.24824954      31.69245311
Si       2.14909327      14.81001839      30.09602841
Si       4.73049375      11.97488051      37.67069950
Si       2.20792969      12.72152038      33.94770462
Si       3.94709449      12.33966581      32.42602691
Si       3.17330345      20.43389134      38.45941341
Si       4.11126397      24.09930169      38.47483159
Si       5.92148186      21.58762758       0.86682630
Si       0.71670143      21.10864058      34.74785463
Si       1.39791408      22.84046184      36.19526535
Si       2.33617648      20.64191454      33.07118962
Si       3.45929321      22.32713643      37.17257341
Si       3.39141973      24.40612188      33.17285364
Si       5.05284653      21.88688687      35.50262778
Si       2.66647288      22.60675679      31.79495738
Si       4.17057571      16.13689742      39.51406170
Si       5.74488407      15.64729691      37.77909321
Si       5.18769141      19.81643849      39.47824361
Si       6.73454592      19.43028102      37.92585463
Si       8.45581521      16.88389546       0.18180027
Si       2.40015583      18.60689619      37.06035536
Si       3.30577315      16.44105394      34.07730982
Si       4.05432446      18.24339680      35.46252874
Si       4.94723695      16.03852807      32.40708911
Si       4.32093128      20.12709223      34.14169134
Si       6.04711108      17.58666242      36.44868404
Si       5.90259484      19.70923256      32.50676373
Si       7.73189025      17.23045278      34.82792780
Si       1.61755333      18.98044457      31.76301851
Si       3.21171392      18.54609637      30.10029383
Si       5.16147209      17.96441624      31.05391425
Si       6.74763901      11.36484915      38.72483981
Si       7.47412934      13.12590126       0.15322247
Si       8.34039043      10.95649799      37.06539228
Si       7.81409389      15.14766987      38.84462045
Si       9.53773856      12.57172640       1.14801146
Si       9.31501119      14.67239734      37.16623912
Si      11.09378072      12.21913949      39.48823792
Si       4.99197085      13.92392325      36.42420708
Si       5.91559938      11.70720523      33.34118090
Si       6.71052233      13.39602937      34.76093636
Si       7.47713170      11.30442867      31.78210702
Si       6.93027779      15.40374135      33.46072454
Si       8.66467959      12.92357035      35.80224456
Si       8.56427338      14.95130576      31.84710021
Si      10.30568421      12.49486027      34.14339690
Si       4.18886615      14.22557783      31.11617918
Si       5.80902750      13.80856463      29.42010146
Si       6.10670992      15.80018543      28.02732909
Si       7.86711929      13.22734815      30.42121002
Si       9.43003806      12.82714951      28.79461779
Si      10.38818462      10.38763741      38.18030217
Si      12.00110272       9.94348675      36.50431825
Si       9.23866720       8.74146251      34.09516274
Si       9.53814193      10.69797178      32.78389041
Si       6.19521525      23.50359740      39.54988916
Si       7.80773479      23.12808346      38.01424938
Si      10.52934101      24.28599374       0.30600215
Si       5.38474218      23.77623096      34.22412115
Si       6.08530396      25.61971224      35.59518639
Si       8.18008725      25.03350023      36.63566275
Si       8.78617664      18.79281937      38.83553311
Si       9.57746117      20.56822014       0.23898552
Si      10.38770003      18.32607926      37.17485296
Si       9.85686966      22.48218934      38.92528421
Si      11.51823401      19.97972521       1.28726700
Si      11.52484427      22.02365763      37.29090315
Si      13.21902595      19.51931989      39.64014096
Si       7.05971490      21.37607638      36.55286810
Si       7.99129828      19.13977069      33.50574157
Si       8.63318072      20.87848992      34.89088847
Si       9.05698408      22.81730070      33.54769847
Si      10.69773020      20.28123230      35.88697936
Si      12.33189303      19.85836071      34.30200097
Si      10.58180584      16.28599629       1.22409056
Si      11.50065830      14.06771753      38.22875970
Si      12.15577824      15.86748120      39.54317671
Si      13.02039564      13.65565959      36.48744599
Si      12.48678201      17.78973786      38.25996239
Si      14.13220475      15.31490940       0.60402979
Si      14.07319503      17.35099213      36.63748247
Si      15.80289697      14.92502363      38.93157808
Si       9.66564001      16.58905815      35.85027809
Si      10.57224321      14.31971803      32.82730696
Si      11.31967111      16.21677352      34.20041808
Si      11.66469009      18.09184657      32.94799112
Si      13.33628939      15.59781296      35.23713096
Si       8.87934375      16.92309627      30.51881554
Si      12.57446318      23.66448159       1.37077808
Si      13.54973048      21.43040350      38.34642818
Si      14.21292667      23.25226126      39.65301035
Si      15.19403516      21.00990277      36.66061950
Si      11.75941849      24.01344247      35.98742486
Si      15.22872098      18.97976050       0.61105928
Si      16.17131490      16.81581107      37.64056267
Si      16.84979749      18.53272394      38.96272048
Si      14.41761975      19.29444676      35.30580670
Si       4.00495233      13.62932660      10.86871188
Si       7.83386423      15.85503355      11.73599336
Si       3.66219883      17.44081651      11.04206016
Si      10.43658403      12.26610803      11.41314631
Si      11.01084383      14.27486166      10.28883799
Si      14.15952031      12.65986194       8.78880812
Si      10.66490901      14.03189622      14.74640911
Si      11.17052962      16.12231033      13.64809750
Si      13.97262839      14.31035379      16.67187552
Si      14.50455859      16.36718624      15.52630138
Si       7.50664664      19.69544223      11.78061822
Si      10.78556711      19.90002481      13.72918710
Si      17.70528011      14.70302111      14.14669141
Si      13.83306032      12.44109775      13.34499771
Si      13.32774574      14.48997545      10.05436907
Si      14.33235198      14.51191404      12.17336405
Si      13.51572912      16.30174633      13.38605907
Si      16.62922342      14.66626163      11.98406019
Si      13.99640488      18.28872814      12.26217007
Si      17.17519995      16.67782686      10.85572034
Si      10.10127260      16.05756292      11.47669184
Si       9.86974302      19.85183226      11.57469898
Si      13.05041358      18.28895321      10.10319629
Si      10.34580149      21.91724766      10.51337596
Si      20.72734475      18.73357144      16.17951971
Si      16.79635106      16.56160223      15.35455750
Si      16.37599480      18.49095925      12.03205552
Si      17.36491904      18.49039557      14.20989676
Si      16.78912063      20.48140281      10.99985394
Si      16.46046351      20.33447287      15.40709619
Si      19.65192028      18.73227595      13.98770154
Si      16.98515822      22.30039851      14.34487931
Si      20.17553111      20.71283139      12.88884929
Si      13.19871356      20.08089139      13.56227375
Si      12.65814325      22.05584838      10.27008249
Si      13.70242983      22.03208891      12.35680549
Si      16.07293926      22.31610765      12.20397084
Si      19.55042057      16.84275773      10.65737923
Si      20.01373457      18.89293631       9.47527934
Si      19.25480623      20.74884879      10.72900848
Si      19.67421804      22.71597904       9.60586316
Si      33.72107119       5.64729709      13.85261672
Si      35.06023853       0.35995379      13.96915873
Si      28.96392159       1.55888586      11.57383165
Si      32.70316163       3.98631426      12.62026814
Si      30.84251015       4.90838398      11.37109403
Si      34.18868225       2.95987210      11.19773266
Si      29.87374470       3.24661732      10.12388579
Si      31.82918637       6.49404401       9.91483012
Si      31.42272350       2.14019273       8.65414477
Si      33.42562362       5.47138315       8.41814657
Si      30.70862908       0.68497345      12.80751483
Si      34.04166102      38.65599998      12.68066171
Si      32.28518718      39.67314821      11.41584794
Si      35.65644047      37.64159244      11.34020386
Si      33.18024308       1.20899645       9.87352366
Si      32.77470967      36.86170070       8.70438201
Si      34.73491240       0.20269020       8.54635766
Si      35.28382945       8.77762366       8.26527565
Si      36.17274718       6.16487827      10.94729286
Si      39.49617610       4.30779650      10.78533386
Si      35.14394970       4.53336024       9.74600880
Si      37.05914261       7.76536937       9.46181469
Si      36.70260806       3.47541648       8.24538370
Si      38.61182028       6.79483570       8.02935734
Si      35.93604978       1.96283008      12.47468552
Si      39.26189962       0.04743337      12.40652242
Si      37.46149480       0.96315733      11.00759508
Si       0.83527416      39.00433332      10.94772708
Si      36.49767346      39.29556654       9.84214181
Si      38.40404691       2.52189073       9.62288761
Si      37.99021537      38.30121865       8.38692106
Si      39.95492123       1.53267401       8.13812205
Si       0.34840202       5.87088525       9.33652775
Si       1.97807501       4.84068937       7.87789015
Si       2.75330908       2.26273914      10.70685137
Si       1.73063043       0.56668721       9.41270590
Si       3.64346965       3.87180517       9.26627034
Si       3.25133440      39.54668499       7.96736597
Si      32.49209819       8.01572267       5.57583771
Si      32.33671434       3.73116788       7.26851499
Si      30.58975937       4.69822935       5.89242647
Si      33.83762205       2.76267229       5.73867044
Si      29.52836713       3.04374438       4.68931676
Si      31.49653664       6.34629762       4.41726550
Si      31.11642623       1.95923438       3.17464488
Si      33.01603392       5.28945345       3.06038939
Si      30.38936746       0.47558694       7.37481074
Si      33.66222727      38.56530188       7.24117478
Si      31.87970287      39.49531823       5.97808719
Si      35.20259695      37.48136449       5.83852285
Si      32.78695295       1.04611558       4.53220253
Si      34.36627942       0.02170442       3.18183562
Si      34.23172587       7.09126735       6.92104860
Si      37.58222914       5.08535752       6.81474395
Si      35.82806223       6.00443407       5.56866885
Si      39.20056049       4.03711100       5.37640532
Si      34.78985970       4.30496149       4.27638810
Si      36.37727130       3.33551917       2.84419222
Si      35.62624087       1.80351468       7.03168822
Si      38.91616071      39.90447578       6.87918791
Si      37.19292427       0.80031867       5.64057924
Si       0.49749427      38.79325073       5.48503936
Si      36.12316385      39.10132692       4.41487492
Si      38.11116332       2.41153647       4.13104514
Si      37.63658260      38.04543186       2.92969894
Si      39.63347869       1.38439730       2.78213509
Si      36.95354203      36.55689618       7.19488599
Si       1.62683902       4.68322125       2.45649219
Si       0.83721314       3.05683614       6.66571501
Si       2.43937247       2.12831536       5.31567361
Si       1.35182714       0.45208275       4.01634541
Si      32.00061733       3.57669854       1.71503836
Si      33.30685508      38.42766607       1.84412526
Si      34.00101639       6.90662268       1.47155301
Si      37.25851164       4.88898860       1.36481670
Si      38.83753606       3.89283614      39.94545946
Si      35.24902797       1.66136160       1.60317175
Si      38.56519784      39.72156648       1.49549054
Si      36.83052234       0.58737516       0.15714745
Si      37.74524020       2.18226535      38.73983616
Si       0.48712658       2.96600264       1.17438326
Si       9.65961487      16.48328567      24.50319184
Si      11.49718117      14.72020273      27.42954399
Si       4.87958440      20.27882415      27.08909120
Si       3.29055457      23.76639375      27.53218405
Si       5.03232976      22.11866166      30.54380010
Si       6.49868856      23.33596114      25.40232198
Si       7.81486024      17.17887966      28.59490496
Si       9.85287317      18.22663007      27.95747511
Si       6.22541254      20.67918903      29.04345573
Si       8.25854164      21.71821606      28.39613038
Si      10.10611002      19.98184570      31.32887760
Si       8.02485994      19.90219384      25.00440548
Si      11.27856688      19.53276287      22.86575523
Si       7.65575001      22.00943823      23.88331858
Si       9.42805685      20.29487725      26.85300719
Si       9.68311409      22.94051284      23.23759750
Si      11.34395445      21.27746450      26.25327225
Si      10.84161653      21.52945995      21.85227472
Si      12.78346764      22.68983642      21.15088686
Si      11.12111609      18.62726692      29.79805567
Si      13.28783171      19.60080431      29.17027814
Si      10.94692404      16.83422739      26.43618335
Si      14.10522135      16.44162319      24.21270850
Si      13.01585636      17.82335648      25.82030947
Si      16.22961979      17.48191139      23.70345382
Si      12.66284908      19.87365759      24.74522533
Si      14.37872296      18.21659298      27.75499916
Si      14.63107111      20.92103354      24.11909686
Si      16.36170265      19.23115962      27.13842466
Si      15.74872824      19.53822109      22.66825894
Si      17.72459404      20.51406544      21.95294135
Si      17.59925942      17.86303447      25.66699598
Si      19.58964785      18.86786440      24.98952600
Si      17.33608830      16.02909202      22.20182217
Si      19.37446281      16.97548712      21.56483336
Si      18.97026636      19.11703585      20.59291313
Si       1.73423346      27.24951239      28.01058037
Si       1.51497557      24.48823699      31.58205902
Si       4.61509759      24.07795510      29.44503923
Si       3.51030118      25.61124382      30.94233611
Si       6.66457899      25.16267477      28.81546839
Si       2.99365247      27.61936800      29.88715487
Si       4.80776630      25.88444574      32.90953803
Si       5.04716129      28.61760873      29.21434927
Si       6.78156018      26.91462141      32.27033881
Si       2.76657521      25.80948598      26.46511158
Si       6.00046317      25.41586074      24.36915964
Si       4.88415077      26.85823684      25.86368537
Si       8.10047318      26.39518168      23.80409944
Si       6.22613076      27.15539913      27.80428472
Si       8.26101819      28.19686830      27.10971879
Si       9.52907721      22.05662541      30.29413229
Si       8.40063354      23.44431844      31.71638681
Si      11.57956556      22.99293884      29.66859976
Si       7.96665816      25.50669044      30.71399069
Si       9.98341228      26.54310213      30.08164515
Si      11.73107784      24.83660322      33.08914623
Si       7.83160170      23.71424636      27.36482184
Si      10.89481707      23.33389264      25.20752930
Si       9.86138679      24.80039520      26.66234028
Si      12.99799223      24.40792019      24.53985339
Si       9.33095686      26.87243784      25.58930317
Si      11.15094944      25.10504327      28.58339631
Si      13.11133626      26.18733842      27.96297645
Si      14.49489559      19.99028265      31.11828527
Si      13.36125899      21.36174856      32.60288037
Si      16.48858233      20.97228047      30.47955506
Si      12.93649085      23.44007816      31.58780600
Si      14.74424989      21.75366537      34.52169068
Si      14.94533410      24.41977690      30.90765169
Si      12.70585993      21.67816893      28.20948392
Si      15.95324767      21.27258091      25.98096417
Si      14.80705062      22.62210573      27.53545220
Si      17.95038657      22.26689898      25.39449861
Si      14.32633382      24.73125720      26.43977160
Si      16.10838360      23.00070838      29.45921014
Si      18.10823934      24.06723992      28.72951205
Si      14.16865403      22.94759648      23.12648783
Si      17.33159300      22.56845538      20.92658712
Si      17.67633677      19.60095224      28.97969029
Si      19.24453592      22.70062952      27.28673225
Si      19.20376614      20.93148473      23.90572232
Si       6.41619707      28.94695004      31.14413894
Si      11.91468051      26.61280965      36.47339058
Si       8.11918475      27.28662348      34.13101344
Si      11.20976094      26.89139951      31.99015458
Si      10.20841967      28.33542502      33.45478607
Si      11.54926606      28.72306047      35.38831926
Si      13.05363741      25.18436823      34.97285677
Si      16.20977039      24.88291453      32.77539805
Si      14.48473950      26.49118590      29.84945928
Si       9.07535164      38.41375887      14.56035783
Si       5.81520664      36.68106809      17.03326410
Si       6.92860673      39.39260876      14.62746500
Si       4.60305792      35.60921164      15.44005037
Si       2.36617154      36.45686577      15.44515683
Si       5.57540102      38.36942835      12.91722680
Si       3.44232299      39.18600811      12.97398740
Si       4.51594482       1.87384502      10.44323641
Si       6.22131530      37.25576441      20.79371763
Si       1.72222277      34.33155432      21.67662275
Si      37.05814350      31.59996766      22.55515118
Si      38.49536233      34.87262768      23.85364222
Si       8.65104379       3.24931771      19.58430785
Si       9.41221560      39.09682207      18.35866412
Si       5.97822262      38.86538035      16.67899593
Si       7.21887802      39.95381375      18.35258459
Si       3.83909295      39.80709791      16.74523677
Si       6.34162931      39.55747215      20.47109703
Si       7.29952745       2.27110162      18.03188335
Si       4.09012138       0.42218052      20.49597204
Si       5.21310029       3.15052781      18.04984677
Si       4.87684859      36.20129779      19.16810947
Si       1.41283711      36.11215927      17.55630671
Si       2.80387189      37.11268965      19.19057810
Si      39.30203307      36.96773916      17.63849223
Si       1.77074740      36.76791809      21.35866597
Si       2.85285344      39.45390402      18.81360802
Si      39.51055472      37.59437167      21.35734366
Si       0.69545271       0.30862165      18.90079026
Si       0.28820149      33.40385727      20.05319345
Si      38.15247760      34.31029672      20.04838981
Si      37.20760878      33.85619419      22.18692770
Si      38.26047760      36.57773965      19.73699055
Si      35.05084699      34.80985863      22.22517990
Si      36.10107769      37.46322984      19.72784671
Si       3.58843222       1.53391027      12.52093917
Si       4.83589516       2.54587210      14.21238752
Si       1.37744984       2.46873765      12.60032611
Si       3.90614210       2.17522782      16.42109089
Si       1.70279360       3.08015437      16.41717583
Si       2.79818448       5.84719810      13.90801418
Si       2.49908352      38.83507327      15.10747771
Si      39.01177495      38.66974317      13.46353518
Si       0.31406120      39.73401073      15.07926540
Si      39.38594494      39.35024789      17.16539037
Si       0.44271460       2.08305537      14.76319968
Si      37.15930359       0.20504150      17.31206580
Si      38.23275816       2.95993550      14.69880989
Si      34.77763060      36.50201551      18.09088036
Si      35.81923219      39.25966657      15.59215963
Si      33.66119990       0.12866675      15.68014372
Si       1.46970744       4.72979945      12.26324800
Si      39.33419911       5.69939561      12.32771522
Si       7.76960652       2.82873873      21.76756946
Si       4.28028595       2.82916244      20.11638139
Si       5.49419163       3.79080917      21.78615819
Si       2.08494739       3.72480344      20.17087237
Si       5.63165447       6.05087854      21.41058240
Si       3.51018007       6.96151362      21.48470365
Si       3.17576647       0.01327770      22.67410924
Si      39.63671902      39.93946489      21.00064082
Si       1.01325906       0.98974125      22.77896385
Si      37.55321372       0.82555173      21.02336238
Si       1.14688759       3.29658966      22.24682595
Si      37.78650743       1.43123392      24.77288316
Si      39.00193133       4.27317265      22.36130485
Si      38.64339005      37.22545673      23.51452066
Si      35.07905449      37.13911792      21.89180574
Si      36.43052396      38.14757573      23.54416536
Si      36.54993209       0.43658489      23.15800083
Si       5.27670765       5.48461371      17.64870422
Si       1.79145675       5.35152361      16.05928060
Si       3.15300706       6.38865373      17.68138304
Si      39.77132528       6.31316971      16.15326559
Si       2.16945658       5.98880502      19.81626187
Si      39.98590517       6.90100508      19.84284447
Si       0.73206737       2.64074787      18.50107404
Si      37.26153687       2.54582048      16.93682127
Si      38.61515384       3.59921161      18.54723566
Si      35.14282556       3.52093159      16.95281339
Si      37.67274113       3.16118467      20.62521459
Si      38.71559897       5.88236013      18.18749844
Si      35.44754316       4.02808671      20.71476495
Si      36.20736200      39.88914385      19.31033294
Si      34.01139419       0.74479540      19.46122786
Si      38.39087873       5.28027909      14.41351269
Si      33.73651321       2.40574116      15.31880133
Si       0.34674106       7.50861652      23.65475314
Si      38.00536096       3.76047543      24.41869126
Si      39.04273694       6.46559450      21.92801690
Si       9.75512596      34.45041526      16.19871381
Si      12.19665866      31.69331927      12.33848643
Si       9.69907531      35.06517254      13.96415781
Si       8.74438185      33.30267913      12.64478966
Si      17.13655485      23.66834956      13.65274697
Si       7.43949546      33.56925983      19.30734518
Si      10.90624171      32.52271779      16.53578678
Si       9.96308011      30.75697205      15.28700835
Si       8.68462161      31.58102855      19.55697730
Si      11.17081699      28.20353364      17.90743693
Si       7.71326432      29.86263990      18.27560278
Si      13.44105622      29.67925494      12.56866623
Si      13.40063749      29.13246402      14.88688031
Si      12.41130150      27.88187549      11.38557372
Si      14.64311463      27.15760856      15.20074945
Si      11.16256700      28.71212738      15.57718483
Si      13.66918436      25.44428133      13.94405810
Si      10.18051983      27.06891775      14.36924854
Si      15.82706364      26.91144156       8.71273508
Si      15.88757461      26.30312308      11.04077755
Si      17.05033291      24.29933708      11.31988592
Si      13.63161118      25.94362728      11.71351873
Si      12.62942231      24.20971749      10.37626435
Si       5.32308530      33.26024636      19.92618209
Si       4.30046234      31.49878321      18.69506526
Si       7.54629907      34.17829660      16.97696676
Si       6.57866444      32.96972313      13.44401695
Si       6.53805139      32.49083579      15.61871304
Si       5.54794886      31.25827643      12.15523888
Si       7.73123878      30.45843965      16.03510650
Si       4.26938026      32.15514302      16.52016978
Si       6.75918955      28.75535428      14.74387290
Si       3.29852454      30.38432864      15.23930339
Si       9.96391018      31.33272499      12.99401055
Si       8.94939750      29.60445208      11.82034698
Si      10.22905345      27.61976824      12.07692254
Si       6.79956504      29.21511789      12.48196466
Si       9.21956697      25.95256690      10.82029089
Si       5.81642143      27.57138271      11.17769610
Si      12.42035401      28.51732564       9.02154783
Si      12.66360655      24.78626276       8.09749265
Si       9.25796408      26.42085465       8.63487703
Si       8.18247842      24.73489394       7.31730740
Si       5.76770845      28.12748444       8.88563760
Si      12.41855770      25.63766299      20.45741666
Si      14.83117592      22.78365655      16.54079658
Si       6.46543956      30.64678975      22.55550104
Si       5.57299308      28.98547823      21.22500147
Si       3.29814088      28.09833985      24.31248994
Si       9.03797262      27.88911694      18.62803102
Si       8.96007902      27.37960702      20.88361306
Si       7.97340405      26.20343604      17.32963943
Si      10.09913439      25.38387901      21.26152120
Si       6.71895372      26.99774809      21.58514280
Si       9.15023634      23.55614485      19.97662789
Si       5.82006930      25.18254241      20.36224732
Si      12.40245588      26.23142144      18.24505465
Si      11.42030144      25.03636698      14.65182796
Si      11.35668800      24.51405901      16.97810703
Si      10.43135259      23.30252268      13.39915353
Si       9.18618787      24.13162338      17.68019790
Si      14.87220284      23.49162057      14.28464259
Si       2.04616830      31.31326004      19.35585225
Si       2.03029877      30.70682089      21.73771618
Si       1.02953149      29.46760478      18.18151241
Si       3.22609424      28.64927999      22.02919967
Si      39.82081407      30.29886647      22.36412708
Si       2.30462100      26.96842100      20.72920764
Si      38.90016285      28.63524353      21.17435299
Si       5.44454206      29.59533273      18.98910554
Si       4.52733596      28.41566940      15.45763620
Si       4.52903657      27.86943414      17.79113428
Si       3.56950528      26.66858863      14.26175435
Si       5.76349194      25.83091396      18.08957463
Si       2.33759974      27.47993242      18.46948470
Si       4.75198803      24.04277462      16.82933071
Si       1.31751897      25.81825972      17.23193321
Si       7.96870347      26.73184911      15.09856634
Si       6.98742562      25.65784809      11.52759578
Si       7.00720214      25.01071405      13.85324852
Si       5.98190160      23.83590635      10.30777454
Si       8.13409837      23.02616411      14.21317085
Si       4.73927030      24.71831090      14.48097500
Si       3.78507824      22.91246776      13.29493620
Si      10.44530940      23.94024876      11.18109615
Si       1.32592200      26.29885270      14.94321705
Si       0.32823857      24.61706353      13.70987542
Si       3.56510264      27.25167324      11.97164110
Si       3.77271708      23.50821515      11.00370615
Si       6.07855765      24.42693416       7.98716174
Si       6.89423915      23.25596492      20.66743656
Si       0.10756045      26.70149226      21.47231720
Si       3.50227294      24.92839058      21.06919774
Si       2.49467548      23.77410688      17.55506926
Si      39.11720176      25.52515584      17.97724523
Si      26.42215725      15.96533322      21.50131575
Si      32.32714568      17.67160780      27.49899645
Si      34.84085323      16.75081113      30.21178973
Si      27.68760688      12.95158810      27.29683007
Si      28.92811934      14.99404240      24.28697821
Si      31.43479599      13.95587544      26.99400939
Si      27.44070646      13.27878677      24.94194843
Si      33.92388662      13.03800078      29.80541223
Si      29.97796115      12.27547485      27.71386420
Si      30.53397324      10.35592206      26.58729465
Si      30.08625905      17.06741390      21.24298326
Si      33.74431748      18.17012265      21.02580857
Si      26.13982679      16.31679790      19.18160563
Si      27.52642105      17.97367344      18.47660372
Si      26.69078723      14.33721095      18.03176066
Si      29.81323069      17.43039228      18.91055077
Si      30.32347110      15.41691469      17.72032894
Si      34.58906745      17.14946658      27.93756779
Si      35.10554627      15.15966265      26.79711449
Si      32.06606941      18.07287471      25.09656036
Si      31.16408027      14.35160004      24.65080083
Si      32.56145679      16.10229515      24.01664515
Si      31.64648000      12.39063045      23.46858075
Si      32.36048264      16.34036921      21.67002271
Si      34.85348091      15.47884081      24.42643509
Si      32.83397318      14.43945946      20.57054357
Si      35.30503647      13.50640208      23.29852745
Si      28.59166413      15.29287527      21.95177742
Si      29.10752872      13.35862100      20.73520543
Si      28.87035089      13.65634709      18.40342943
Si      31.42525472      12.68175726      21.19894138
Si      29.40914811      11.76746934      17.29409842
Si      31.93862382      10.71674093      20.10915884
Si      37.84125682      12.50852793      26.05463915
Si      33.59910531      13.36690319      27.44049689
Si      32.70210813       9.70895920      26.93825012
Si      34.12762143      11.42552446      26.38561771
Si      33.25142297       7.73122645      25.84260583
Si      33.83758159      11.73364035      24.02677090
Si      36.40364970      10.88251762      26.73836073
Si      34.44092522       9.79774965      22.82082407
Si      36.92433934       8.83323114      25.57664448
Si      30.26698680      10.65255370      24.29261648
Si      30.50786528       9.05407816      20.75905496
Si      32.92217145       8.02394379      23.58009130
Si      33.45208203       6.07528985      22.38891960
Si      35.45491040       7.09109042      26.29344660
Si      35.98583640       5.22027001      25.12059509
Si      34.53336474       3.42092704      25.87537379
Si      35.10676760      13.82855396      20.93125909
Si      35.60861269      11.92409159      19.82940090
Si      32.53958213      14.76792206      18.20963167
Si      31.62027069      11.07113898      17.74363884
Si      33.02189165      12.78196553      17.05036178
Si      32.14176558       9.16917042      16.62564900
Si      37.58424376      12.89304118      23.76136751
Si      36.64724203       9.20523723      23.23765927
Si      38.10237314      10.91818343      22.54209907
Si      37.10434649       7.23266236      22.14446880
Si      37.80637222      11.21195238      20.28066872
Si      38.39121468       9.30083277      19.17173494
Si      34.08798012      10.06153072      20.47409924
Si      33.24548287       6.51339455      20.04245905
Si      34.64200311       8.18055354      19.36050681
Si      34.38495752       8.53049485      17.06169652
Si      36.85570855       7.59656060      19.85200213
Si      34.87376109       6.55985615      15.92846436
Si      35.70778283       5.48758871      22.86288341
Si      18.90768459       4.82949947      18.21437884
Si      21.86580421       0.18188726      10.50683835
Si      19.65095835       3.71730892      16.30305146
Si      20.35047401       1.47315387      16.96730145
Si      22.89120029       1.51143703      13.96724775
Si      23.89366514       2.82070369      17.42924065
Si      17.50885557      39.02000302      14.46409176
Si      19.27960102       0.21076278      13.47134558
Si      18.16247557      36.85668329      14.99697870
Si      20.09169527      39.02031500      11.53430860
Si      21.11871673       0.35523537      14.95030372
Si      20.67091054      36.85537160      12.15216293
Si      21.77625186      38.11982827      15.55608180
Si      17.15790295      35.63133334      11.53786404
Si      17.93841968      34.45379665       9.66930471
Si      18.96740003      35.66162777      13.18424161
Si      19.58195449      33.55696827      13.74674454
Si      21.43543401       2.90958031      20.35458858
Si      22.11122871       1.67864034      18.47154020
Si      22.77662171      39.48450447      19.03342831
Si      19.93751142      36.99932044      16.51225569
Si      20.60122046      34.89758556      17.22159569
Si      24.67538337       1.60883769      15.58684550
Si      26.46035702       2.72175379      14.63734733
Si      25.32503139      39.53735760      16.16948912
Si      27.86635866      39.47690878      13.29053207
Si      23.56687572       0.32080129      12.10014328
Si      22.55644260      37.04967919      13.68501885
Si      24.24243028      38.14775111      12.69898754
Si      23.12182388      34.85758167      14.27839242
Si      26.01853032      38.30285735      14.22139887
Si      26.76038482      36.17883603      14.89602265
Si      20.38419265      32.39784903      11.81206009
Si      23.89131015      33.76388470      12.37283443
Si      24.52647110      31.49749136      13.05817305
Si      24.51421297      39.64176129      20.57061201
Si      26.30590105       0.79359697      19.55565054
Si      25.13811746      37.50444109      21.25467941
Si      27.07999416      39.70633301      17.74035150
Si      27.77805296      37.49622952      18.29961405
Si      23.49982457      38.32168258      17.16271227
Si      22.33220126      35.02865724      18.73782612
Si      24.22063729      36.17929264      17.78359440
Si      23.17559225      32.92489607      19.38019330
Si      24.96225257      35.00076566      15.88838859
Si      25.94125092      36.36732319      19.36709894
Si      25.56708460      32.78002750      16.47856437
Si      26.66362095      34.14489884      19.94225737
Si      22.76604018      30.39588509      14.02827652
Si      23.76017852      31.72681208      17.39799257
Si      27.02478091      37.63537886      22.73901991
Si      27.70932667      35.51207945      23.41319924
Si      29.64870517      39.65221470      14.92197220
Si      30.33168672      37.43101596      15.45190499
Si      27.46350562      34.98354136      13.10132573
Si      29.48003638      37.65181397      19.87698787
Si      30.15561130      35.45423430      20.54568190
Si      32.07300501      37.61909617      17.07592068
Si      28.42340058      36.35825191      16.51945248
Si      27.38483870      33.02952696      18.06174091
Si      29.15530188      34.14137885      17.02480255
Si      29.96240143      32.98148512      15.13534810
Si      30.93031353      34.27988989      18.62595150
Si      26.33092058      31.66898600      14.55959097
Si      26.98216223      29.49063184      15.19915652
Si      31.94292229      35.63212713      22.07220672
Si      18.82350187      30.19814937       8.78755945
Si      18.17594537      32.43791924       8.40333951
Si      20.06748145      33.51733963       7.40010883
Si      22.55407007      37.84376290       9.57883415
Si      19.46664975      35.77448554       7.08989160
Si      21.29203282      36.87550951       6.17943878
Si      23.72785393      25.42125222      12.29169524
Si      22.43261678      24.48146945       8.73894744
Si      23.11685231      27.66227447      11.95532021
Si      25.03343251      28.78491102      10.91584705
Si      27.50727941      33.06017154      13.01152639
Si      21.73671353      26.76217044       8.33689001
Si      23.61934878      27.91876584       7.42362652
Si      20.68128452      30.00267419      10.22199816
Si      21.88208632      33.42246988       8.89953487
Si      22.37044901      31.14006420       9.13964913
Si      23.64025597      34.53299486       7.83959198
Si      24.35614617      31.01224843      10.57077042
Si      23.01418662      30.10543756       7.09957827
Si      26.14709646      32.17525739       9.62418772
Si      24.78197402      31.32443574       6.03328042
Si      25.06131473      35.49004826      11.33477609
Si      26.35337898      38.91792422       9.96001207
Si      25.55877042      34.45248769       9.28026819
Si      28.74215365      36.53004046      11.73712534
Si      27.35787299      35.52181389       8.17919246
Si      28.18511447      38.68055295      11.33806447
Si      24.23145964      33.55713184       5.81701473
Si      25.93225229      34.66421462       4.79647157
Si      23.11508459      36.83456104       7.47726714
Si      24.30510619       0.15404317       6.20108080
Si      24.93192576      37.98040763       6.47288609
Si      26.09298384       1.33455716       5.12529446
Si      26.82577616      37.81886439       7.92655001
Si      28.55716206      38.99809909       6.89685184
Si      25.67598590       1.04517443       9.65172848
Si      28.01165911       1.23213689       6.61695061
Si      26.77064352      28.65205018      12.31281110
Si      28.65562200      29.77328123      11.27061383
Si      29.98220165      30.74335304      14.79113326
Si      31.21564974      34.09495375      13.42064819
Si      30.50721695      29.71597452      12.70549348
Si      25.42923296      27.74934311       8.86621330
Si      26.66664589      31.15211907       7.49212622
Si      27.24653665      28.98855336       7.80733556
Si      28.50112723      32.28942586       6.55076087
Si      29.08310035      28.80756647       9.24187647
Si      28.00783386      32.09041515      11.00478471
Si      29.21839796      35.45544142       9.68169439
Si      29.84457308      33.21035866      10.03602987
Si      31.10020567      36.56248039       8.64189020
Si      31.70864003      33.11985338      11.40985896
Si      30.40141460      32.24958350       7.95643402
Si      32.14543479      33.40211035       6.95411002
Si      30.66248629      36.35466408      13.13694223
Si      25.31603200      30.31620369       4.00985530
Si      29.01377803      31.35101140       4.49480709
Si      30.77469143      32.42236176       3.48181077
Si      27.82683787      34.52600759       6.16415170
Si      29.07382444      37.96983811       4.85730321
Si      29.63495024      35.68698558       5.14326171
Si      30.88255818      39.14134711       3.89115676
Si      31.61976192      35.61609600       6.60499338
Si      30.21723760      34.69552282       3.13553212
Si      30.53047848      38.87930961       8.31975066
Si      32.66051352      32.37212172       4.88782407
Si      23.26346112      19.67979935       6.23008362
Si      29.71958047      28.42826844      35.91825898
Si      27.90251541      27.06030462       0.83263785
Si      28.13115246      28.80573735      32.41679856
Si      28.21857202      26.60795510      36.38970727
Si      26.27767202      27.58919133      37.45565287
Si      24.72247048      28.01685493      33.99335677
Si      25.63034588      24.21019500      39.33899615
Si      22.17996627      23.51436317       0.80696839
Si      26.35328759      25.28746271       1.33705267
Si      24.77138483      25.83887971      37.90333107
Si      24.37582403      26.26755567       2.41810257
Si      22.85363409      26.84195040      38.90346091
Si      22.26687067      21.30229363       4.70513372
Si      23.75059346      23.00515706       4.25402050
Si      20.36142157      22.24938835       5.79075715
Si      22.89066531      24.53251324       2.82887863
Si      22.49627120      24.93991040       7.23590274
Si      20.99501638      25.49460782       3.82399757
Si      21.01397291      23.33722744       7.80316878
Si      19.02317566      24.55985591      33.86678392
Si      21.52033182      26.88592550      30.95862521
Si      21.20104281      27.28412900      35.50618800
Si      19.65638343      27.86182997      32.02174074
Si      19.11718534      22.28368911      37.78886069
Si      20.64514521      24.07700628      37.38852600
Si      17.19449513      23.31560944      38.85005492
Si      21.31494537      25.08296544      39.31482682
Si      19.62034634      25.55685186      35.87894945
Si      19.34864160      26.05223951       0.31168359
Si      17.75471023      26.52041579      36.86500347
Si      20.63986883      21.81221501       1.25523081
Si      18.83490387      22.80159352       2.30395712
Si      19.44743197      23.79658912       4.29547718
Si      17.84177595      24.33648613       0.89332678
Si      17.52902992      24.69582220       5.33226578
Si      15.87957234      25.24904798       1.87119744
Si      18.15197432      26.20927574      32.43082158
Si      16.16471017      27.01434532      33.41896478
Si      15.57445015      23.81062388      35.37101251
Si      16.25536630      24.85646759      37.42176537
Si      14.28609784      25.76025181      38.37198157
Si      25.31505099      31.34380338      31.95003045
Si      28.76515715      29.88261054      34.49654541
Si      25.28303215      29.14206135      35.95499418
Si      26.89305154      30.77831453      35.46582737
Si      23.41490938      30.07576299      37.02508864
Si      25.92149142      32.41666400      34.01557091
Si      24.00810279      33.33073424      35.07325205
Si      26.89954058      28.56456446      39.40419288
Si      23.43711111      27.84652414       0.91449088
Si      24.97017120      29.51312810       0.40298481
Si      21.60137084      28.77775357       1.89995069
Si      24.04683228      31.17930580      38.95637666
Si      25.11344610      27.34909697       4.32692070
Si      21.58396485      26.56990904       5.80260519
Si      19.64053629      27.49511553       6.83481245
Si      22.24593238      29.90424341       3.91932808
Si      20.29267528      30.77643324       4.96109860
Si      22.45042762      33.85531476      31.55905152
Si      23.73898306      29.65807253      32.42676184
Si      20.25141213      28.86915735      33.99194332
Si      21.78142082      30.51611212      33.53117580
Si      18.39580507      29.88837827      34.99989644
Si      22.45079456      31.71359438      35.51018663
Si      20.86106897      32.23912971      32.02948882
Si      20.47000447      32.59765279      36.49497185
Si      18.98302044      33.08242156      33.08186166
Si      21.82480705      28.31525367      37.43295637
Si      18.37762706      27.56314385      38.90926708
Si      19.94757330      29.33250868      38.49198483
Si      16.48495336      28.53620519      39.90149258
Si      20.54521654      30.37695504       0.45534974
Si      19.00068038      30.90842831      37.03677534
Si      18.68282588      31.33290675       1.42955994
Si      17.15990394      31.83979862      37.95271287
Si      19.98829558      27.04752143       2.36609555
Si      16.48859325      26.35612391       3.84554571
Si      18.08739810      28.02672428       3.38016708
Si      18.67316530      29.16104731       5.35000927
Si      17.11686932      29.66025199       1.88653694
Si      18.11705743      25.83105271       7.31284923
Si      17.41467123      31.41796831      33.57677258
Si      15.48188390      32.31051131      34.62381863
Si      16.79971508      28.12915092      35.53430971
Si      13.41386529      27.36577016      36.92741514
Si      14.89527536      28.99659282      36.52479535
Si      15.55075680      30.07807846      38.44342037
Si      13.92626669      30.64074494      35.05614907
Si      14.90963647      26.85279925       0.41519609
Si      23.08260820      34.86720608      33.59339855
Si      19.61635621      34.07577163      35.08141339
Si      21.15353775      35.80744090      34.59361350
Si      17.69397677      35.10207955      36.04482916
Si      21.16924692      33.63506327      38.49679197
Si      17.67452091      32.94742976       0.02680307
Si      19.31416296      34.59748227      39.61732806
Si      15.78026818      33.77025333       1.04348357
Si      19.32306686      32.31618403       3.37983639
Si      16.14197273      33.39247322      36.57615821
Si      22.89092653      19.03550057      16.78018580
Si      26.63633386      19.62467821      17.73495684
Si      22.59735194      17.78713733      18.69048103
Si      21.93859853      19.35518969      20.47686979
Si      28.59765120      22.35661509      16.03207542
Si      22.89448257      22.85791884      14.38257529
Si      24.88072546      21.78080939      15.09827157
Si      22.24104490      24.33004391      16.09846921
Si      24.61075123      20.65715474      17.02050473
Si      26.63466548      23.42702501      15.29908528
Si      23.90728922      22.14267826      18.73480995
Si      25.86756197      24.97968785      16.96768026
Si      20.23833147      21.46701235      17.76567019
Si      19.87129760      20.40478633      19.73257553
Si      21.90403008      23.18571842      18.08712517
Si      19.19259218      21.83195984      21.43721937
Si      21.25506249      24.62287134      19.75984153
Si      27.92625878      27.72811298      15.35234558
Si      24.17691071      27.12638924      14.34177705
Si      23.85131379      26.00340488      16.37512554
Si      23.20930118      27.45769379      18.00000453
Si      26.25753059      18.47912298      19.69932241
Si      25.52486380      20.00281455      21.41205346
Si      27.31453952      17.80546116      23.97814851
Si      29.23546352      20.56457279      22.33086359
Si      21.54313748      18.12835122      22.36412468
Si      23.62347795      17.18804627      23.14035716
Si      20.87608763      19.69019534      24.15511703
Si      25.24331430      18.76425295      23.41886275
Si      30.26379460      24.00068232      16.27812347
Si      29.57281438      25.59445552      17.90412638
Si      31.91121359      21.82426972      18.93785079
Si      31.21418545      23.38382086      20.64911944
Si      33.26859969      26.13017640      18.92739304
Si      25.58209994      23.76022807      19.06059667
Si      27.53675394      22.72096983      19.64447077
Si      24.88422038      25.30027504      20.71870908
Si      27.21501519      21.62905341      21.69632942
Si      29.24320662      24.40634602      20.01643400
Si      26.57315599      23.04903129      23.38506870
Si      28.54892490      25.96824720      21.68610166
Si      23.62315695      20.96280230      20.71513681
Si      20.92692516      23.47932096      21.78076870
Si      22.84888546      22.49376606      22.40256400
Si      20.22995227      25.07387177      23.37892097
Si      22.52452290      21.35135863      24.44508873
Si      24.60298874      24.18591655      22.67921421
Si      21.85683150      22.79382872      26.07357244
Si      23.84286140      25.65168183      24.40034877
Si      19.81625109      23.91190942      25.40635673
Si      29.51819733      29.38858134      15.62165970
Si      28.85122741      30.90595458      17.29110539
Si      31.25778414      27.15586899      18.30052510
Si      30.52283580      28.70056798      19.92898162
Si      27.49158100      26.57980115      17.35007828
Si      24.89441696      29.13915500      18.31055346
Si      26.85418077      28.03287433      18.98751487
Si      24.17120941      30.65919620      20.00187042
Si      26.56495387      26.97228927      21.03469929
Si      28.54038096      29.73094575      19.23485287
Si      25.78804694      28.35729745      22.67970296
Si      27.82176193      31.27967752      21.00282152
Si      22.87535018      26.26430908      20.06184349
Si      22.10436090      27.79089370      21.73178851
Si      21.86817717      26.68452316      23.74514762
Si      23.76886592      29.43453575      22.01530675
Si      21.09363169      28.16827878      25.37870194
Si      23.18424684      30.95461481      23.72612994
Si      25.90942404      32.26314052      20.31010135
Si      32.96043890      21.12625060      23.37684355
Si      28.87511749      19.37599302      24.37959996
Si      32.56120989      20.03082953      25.36127613
Si      31.90797837      21.53991844      26.99596181
Si      32.92114191      24.95387362      20.97987485
Si      32.23179655      26.47849515      22.54251776
Si      33.86236789      24.34480752      25.22768732
Si      35.80593138      27.11418942      23.52536391
Si      30.88900914      22.18513464      22.64119451
Si      28.18198572      24.74262634      23.65483040
Si      30.18135940      23.67338778      24.34732777
Si      27.54942043      26.22965874      25.38008041
Si      29.91010958      22.55291877      26.36099924
Si      31.89212648      25.36661971      24.61382722
Si      29.26221797      23.97037726      28.00602028
Si      31.17551474      26.84217821      26.29151287
Si      26.24152835      21.93353326      25.39908476
Si      23.60211115      24.48837954      26.40727491
Si      25.54994313      23.43939938      27.05407940
Si      22.81080888      25.97528764      28.10380466
Si      27.25094002      25.06109484      27.36258099
Si      26.49488550      26.56001217      29.06721808
Si      34.79855471      27.79783122      19.24598506
Si      32.20285392      30.31465225      20.23445900
Si      34.20010697      29.32501215      20.92338382
Si      31.48823430      31.90542032      21.97713863
Si      33.89728849      28.09358944      22.93129722
Si      35.87064987      30.99200648      21.17117726
Si      33.23146907      29.65310186      24.58743153
Si      35.20209525      32.46264352      22.90197175
Si      30.20970669      27.54231726      21.96268607
Si      27.49635917      30.03484672      22.94793352
Si      29.53633766      29.01213760      23.63367495
Si      26.84637546      31.54250963      24.60062761
Si      29.16558617      27.88976141      25.64850478
Si      31.14812300      30.63312467      23.95911869
Si      28.49751045      29.36798048      27.29355519
Si      30.56895775      32.20636992      25.61447156
Si      25.49098648      27.35973388      24.70021426
Si      22.77228767      29.83018962      25.67291127
Si      24.81297448      28.81980676      26.38263194
Si      22.10776401      31.35815798      27.39893768
Si      24.45773673      27.56662947      28.40378929
Si      26.52179869      30.43842142      26.64749648
Si      23.76676038      29.06836219      30.05413527
Si      25.79184229      31.89485889      28.32946233
Si      20.84049158      26.99267654      27.40538850
Si      21.80415884      30.07129911      29.39976577
Si      33.15306622      33.52045037      22.20858192
Si      32.44644517      34.94159602      23.90278049
Si      29.46752288      32.87041063      21.35687385
Si      28.82220872      34.36813730      22.91704950
Si      28.48596599      33.27455024      25.00948756
Si      27.72069991      34.70294944      26.59266947
Si      24.77217229      32.59467484      24.04725003
Si      24.13772153      34.14139580      25.64577630
Si      23.81375907      32.92672668      27.68551428
Si      23.04828511      34.43725468      29.34612626
Si      35.51469998      25.98855365      25.55108066
Si      34.87904338      27.47820603      27.30915695
Si      36.49903673      25.20074480      29.94409617
Si      38.44338896      28.08337069      28.27563117
Si      33.54539162      23.20271208      27.34957446
Si      30.84266918      25.67657234      28.31180014
Si      32.92198701      24.63704511      28.97334804
Si      30.17474892      27.23498120      29.98944032
Si      34.50660407      26.29046204      29.27324107
Si      33.85240805      27.78277615      30.87561623
Si      37.53093140      28.74070691      23.88381967
Si      34.82557660      31.31963752      24.89939765
Si      36.80019360      30.27325447      25.55736996
Si      34.13519665      32.72468893      26.53577945
Si      36.49550515      29.17229638      27.53164144
Si      35.82309537      30.57706521      29.21061555
Si      32.81689455      28.44604886      26.65924774
Si      30.20222935      31.05753828      27.61467813
Si      32.19687752      30.00098665      28.28330197
Si      29.43471855      32.56351187      29.31476665
Si      31.80070444      28.87661856      30.26230506
Si      33.82027326      31.65188422      28.65830278
Si      31.09390757      30.33057967      31.94714617
Si      33.12527000      33.12666118      30.25824883
Si      28.10282854      28.23453859      29.31684997
Si      25.35677476      30.71803094      30.38483145
Si      27.50021255      29.82283531      30.97561433
Si      29.07075356      31.40897093      31.28508008
Si      32.15922301      33.87083090      25.85722343
Si      31.50709187      35.33517623      27.61962023
Si      31.19706966      34.25584151      29.57401617
Si      27.47203097      33.55315646      28.61606784
Si       7.03619284       6.95607430      24.69028712
Si       9.31844351       9.58403120      26.30937500
Si       6.29838907       8.47087484      23.09673660
Si       4.39763143       9.64531180      23.85600965
Si       0.19466779       0.67445490      26.14686072
Si       2.37545655       3.40726073      27.82149022
Si       7.46591819       8.02157189      26.65964258
Si       8.18325595       6.53265119      28.32231552
Si       5.57653849       9.17027004      27.42510693
Si       6.47605273       4.91497225      28.63630305
Si       8.72869136       7.64110803      30.29881384
Si       4.53978717       6.05791324      29.44059007
Si       6.81775106       8.73798975      31.07286933
Si       5.23942076       5.37403818      24.99335275
Si       2.66123508       8.06198405      24.25641470
Si       3.44648570       6.45673228      25.78905288
Si       0.77921746       9.19816588      25.00373256
Si       1.68680656       4.98443394      26.21277953
Si       3.91519624       7.57932444      27.78407628
Si      39.76130358       6.04593371      26.94422492
Si       1.94563403       8.75281733      28.63227728
Si      39.05726041       7.57767174      25.31894644
Si       6.05571094      10.29109705      29.47124986
Si       4.20667871      11.40233317      30.25040873
Si       4.86361216      10.75461676      25.84396971
Si       1.23771603      10.29515098      26.95003462
Si       3.54520419      12.99165460      28.62876980
Si      39.32364305      11.45661028      27.76846586
Si       3.61150788       2.90720711      31.45460285
Si       0.63200238       1.82983366      28.19055432
Si      38.72738225       2.92761403      28.96995945
Si      37.69262163      39.77665184      30.93637887
Si      39.93801492       2.42640226      32.54200890
Si      35.77590681       1.79875889      25.69886804
Si      36.52495389       0.22298590      27.29320621
Si      34.73082291      38.72481730      27.65467830
Si      36.98923627       1.31211270      29.30825166
Si      35.07833518       2.48145484      30.12811324
Si       5.07861414       7.16136699      31.43558015
Si       5.79062194       5.61609461      33.05730399
Si       3.16643750       8.27634196      32.24288424
Si       4.10190116       4.09144528      33.41129468
Si       6.25898018       6.74571866      35.02950297
Si       2.16264652       5.14032181      34.21153169
Si       4.39667138       7.82519533      35.80240148
Si       2.85324377       4.50459070      29.80486586
Si       0.24078863       7.15138444      28.94503598
Si       0.90816441       5.60464217      30.61191533
Si      38.33684960       8.27390282      29.75563253
Si      39.29862456       3.98070870      30.99908261
Si       1.48084886       6.72112275      32.56169341
Si      37.31509025       5.18553398      31.74439350
Si      39.53811940       7.80389800      33.36576332
Si      38.04603080       4.51157189      27.37903749
Si      36.08977815       5.57569688      28.06930478
Si      34.41128938       3.99813476      28.45798740
Si      36.67367429       6.76115882      30.12114674
Si       7.26786632       9.83078763      33.06516978
Si       3.65615252       9.31082548      34.21520050
Si       1.75154460      10.51018604      34.95280249
Si       2.44489212       9.85067578      30.57137333
Si      39.83225314      12.51609010      29.72055766
Si       0.57004601      10.87848973      31.39656497
Si      37.84929297      13.62141609      30.56076234
Si      38.81520154       9.37827422      31.73585264
Si      36.85324968      10.47324217      32.51722886
Si      37.66946756       9.85189427      28.13418323
Si      36.20596704      12.07028503      30.96376529
Si      36.29536483       2.04799125      33.72195217
Si      34.03214831      39.29434614      32.06051576
Si       2.67669609       6.19425624      36.15975849
Si       3.36619157       4.74164872      37.78944046
Si       1.66345457       3.06760471      38.21017314
Si       0.44296346       3.57470744      34.56148702
Si      37.80769085       6.27282291      33.72512993
Si      38.51925841       4.69937208      35.36252780
Si      35.86144113       7.40773812      34.56111325
Si      36.80990596       3.16185505      35.74469458
Si      39.06051655       5.79515862      37.36852336
Si      35.57935565       3.62822108      32.14664133
Si       0.06443304       8.99108138      35.34818196
Si      35.15040295       8.92684559      32.94288829
Si      20.19320365       1.37216655      20.49292263
Si      19.03172507      38.88979872      17.72202041
Si      23.29035957       0.66018109      22.60030868
Si      23.27602564      37.83678107      25.20747472
Si      21.37004700      39.70369615      21.48459404
Si      20.14339967      38.55790833      23.13234766
Si      19.01030090      36.06506416      20.39763606
Si      23.40437535      33.63912892      23.56051116
Si      22.10409416      35.35236794      22.59774705
Si      21.38601102      36.91597109      24.09388079
Si      20.25447017      34.42467469      21.44378448
Si      20.07369746      35.76300272      25.77672031
Si      24.47517487      36.17497789      26.25452829
Si      23.20595890      35.06550992      27.84419660
Si      21.34106347      34.03904119      26.76453954
Si      19.40200681       5.71768529      19.52068544
Si      18.05069122       4.64842975      21.05528861
Si      16.08647516       7.82733617      21.71884076
Si      17.40996764       6.11800420      22.68893791
Si      15.90208916      39.60462878      15.67060412
Si      18.29609015       0.43772009      19.45939862
Si      16.96668786       2.11304448      18.39539966
Si      16.98622410      39.28740056      20.93119182
Si      16.23435416       3.61785595      20.00474905
Si      15.13420697       1.14691038      17.33289893
Si      14.94745229       2.51454201      21.61412340
Si      13.82815643      39.96765604      18.93209614
Si      19.41275245       2.88458784      22.11673624
Si      19.34690302       0.08254240      24.74394760
Si      18.11820113       1.79171899      23.64512095
Si      18.01612360      38.98051579      26.32945861
Si      16.20685317       0.81489703      22.63004027
Si      15.97541307       2.15202595      26.89293562
Si      14.91125680      39.71973053      24.24567089
Si      17.30193721       0.57313171      27.94861038
Si      17.12779709      37.86980715      16.78046967
Si      15.84698223      36.79972807      18.30374381
Si      15.13687618      38.35059962      19.94129503
Si      13.75632460      37.22973101      21.46367179
Si      18.22565642      37.63851087      22.09564335
Si      18.24291586      34.82890676      24.69180377
Si      16.87999516      36.42400817      23.57196665
Si      16.15739829      37.96879723      25.25230288
Si      15.13293512      35.51078932      22.60568645
Si      14.82927174      36.88710161      26.83086875
Si      19.27838191      37.29941245      27.34685410
Si      17.97862599      36.15889958      28.94590296
Si      12.92567893       5.71096748      22.14355041
Si      13.08516057       1.53048590      20.53896478
Si      11.81475486       0.42858694      22.15360244
Si      14.18751440       4.03148219      23.22345046
Si      14.10416588       1.18414836      25.83608261
Si      11.97826915      39.09460299      17.80630038
Si      10.66265572      37.93156400      19.37184461
Si       9.94599443      39.51643397      21.04180858
Si      13.08065451      38.67776154      23.17414754
Si      36.35141525      33.26359544      26.53380852
Si      39.54503777      34.92942558      27.78869568
Si       0.80026417      31.75277686      29.34042735
Si       2.82068279      36.68288298      29.01033805
Si       3.98065967      33.46602736      30.57655657
Si       5.97415465      38.48656470      30.27456089
Si      35.15435232      35.20465675      26.85915960
Si      36.13029764      36.42105673      28.57137405
Si      36.34917209      31.95370904      28.45377462
Si      39.53341581      33.65149036      29.68151080
Si      37.35065087      33.09120140      30.16960343
Si       0.47490636      34.87784957      31.41757542
Si      36.11059624      35.06813721      30.53048699
Si      37.02976424      36.32848261      32.35974977
Si      38.34467206      37.05627243      28.10942954
Si       1.57917060      38.72185941      29.30368017
Si      39.31931621      38.17343848      29.84564845
Si       2.52424471      39.90951093      31.12439354
Si      39.23971051      36.80996036      31.76353494
Si       0.29117096      38.05390010      33.62880248
Si       0.69024046      30.37632961      31.28766404
Si       3.93505010      32.12216393      32.53819111
Si       4.82922875      33.29573677      34.32134588
Si       0.46986458      33.54326681      33.44430404
Si       2.69680189      35.42784034      30.96556693
Si       5.95200699      37.10222193      32.22257466
Si       3.67918944      36.61775743      32.72934628
Si       6.87163110      38.35255517      33.95529033
Si       2.43364037      38.59510227      33.09400467
Si       3.64426027      35.28517137      34.71391440
Si       3.40100042      39.77719721      34.75628012
Si       4.60086628      36.49414076      36.41072463
Si       4.70375648       0.44790822      30.61193537
Si       5.67704669       1.60960948      32.32040390
Si       5.67193945       0.31295929      34.36182372
Si       6.62528172       1.51203482      36.13711097
Si      35.86213273      38.27621978      32.76910895
Si      39.03818094       0.10976370      33.94565736
Si      36.79622683      39.44964135      34.45075917
Si      39.96030719       1.23896469      35.72539231
Si       0.19691746      36.74803512      35.52939188
Si       3.38176882      38.42161034      36.74150164
Si       4.35992563      39.70506161      38.55840739
Si      39.85791878      39.88579837      37.67088544
Si       2.21006032       1.71459696      35.13482873
Si       5.38342842       3.47884758      36.49070325
Si       3.17406980       2.95238804      36.95335570
Si       3.14472655       1.68458957      38.90354156
Si       6.53506289       0.22317606      38.01740676
Si      35.36836269      25.90563117      34.14811924
Si      38.54893852      25.11243100      36.42053672
Si      32.98790751      30.39699653      32.53885065
Si      32.11772414      30.01481507      37.02372288
Si      33.29279995      31.83951119      36.15310913
Si      36.05011976      29.58132047      34.76369874
Si      33.56942089      34.18556688      33.17147539
Si      38.28568360      23.71488739      32.76909230
Si      38.56528398      26.06168512      29.74978697
Si      37.71976446      25.48469424      34.18016359
Si      38.83323895      27.47569839      33.35230660
Si      35.80073124      28.17362252      31.20826916
Si      35.38659859      30.14937490      32.52639989
Si      38.17809656      27.83100346      31.15360738
Si      36.45081298      32.03981833      31.77448568
Si      39.21303876      29.83389239      30.32402456
Si      35.94337485      28.66486529       1.24835937
Si      38.99912665      27.85655500       3.52335388
Si      33.53849285      33.35688840      39.72502689
Si      35.55728235      30.44411816       2.76838223
Si      33.73719127      34.67357362       3.30121791
Si      36.63504121      32.42205756       1.91702659
Si      32.99266065      35.11991375       1.15455667
Si      34.17340267      37.00024388       0.26040799
Si       1.52912722      24.29680781      38.54506028
Si       1.80937461      25.66865109       2.06437490
Si      38.02297230      26.90857695      37.74604623
Si      38.77890215      26.50013578      39.86026155
Si      39.17674787      28.79974625      36.86501907
Si      38.35220590      28.31699759       1.32529377
Si       1.14242667      26.14620727      39.93091773
Si      39.35899942      30.22094521       0.45406535
Si       2.20183137      28.02144239      39.04747024
Si      35.56307823      31.48709677      36.15851819
Si      36.31762854      31.03000661      38.29711861
Si      36.60598455      33.40331649      35.31827481
Si      35.88948157      32.84183200      39.67325050
Si      38.67991662      30.64395394      38.27908686
Si      36.93158720      34.73579027      38.82665468
Si      39.73657456      32.56821719      37.49275145
Si      33.83390423      35.62366432      36.61926325
Si      36.11971753      35.27039026      36.74202630
Si      34.48862508      39.31231582      37.22831783
Si      37.27054434      37.16567104      35.86682603
Si       5.03530723      25.79499203      37.69370708
Si       0.89048641      24.68690674      36.36286708
Si       1.14607033      27.06964722      33.27671344
Si       1.93934406      26.56707389      35.48657266
Si       2.29675915      28.94945079      32.53444733
Si       1.48785118      28.45402764      36.88028954
Si       4.27106710      26.23370374      35.46151465
Si       2.52598928      30.31290239      36.04885269
Si       5.38067875      28.18636163      34.65487809
Si      38.39788679      29.23713285      34.68483768
Si      38.70794026      31.53235484      31.67607389
Si      39.50591836      31.25180762      33.84839791
Si      39.04686175      33.02312411      35.28528934
Si       1.75630719      30.77797068      33.84146210
Si       0.09356077      34.98616651      34.42970715
Si      35.92704682      33.86528872      33.12939880
Si       4.63371362      28.55759598      32.42830045
Si       2.09123560      27.03357690       5.70001418
Si      38.59257157      29.79602433       4.90262391
Si      39.62179904      31.59010321       4.03485520
Si      36.05638007      34.28840704       3.29230977
Si      36.84487256      33.87097963       5.43134026
Si      37.17223518      36.20309747       2.45612343
Si      39.22434917      33.51115802       5.47668648
Si       0.26199795      35.34325081       4.56979090
Si       4.16216490      25.26506585       2.08813372
Si       1.41043190      27.46243625       3.49217952
Si       1.70917243      29.87252623       0.42744169
Si       2.46427063      29.46944766       2.61475940
Si       2.77404365      31.76394210      39.61656833
Si       1.99971861      31.25502163       4.03225573
Si       3.00570175      33.14838279       3.24491112
Si      38.94572031      32.05680534       1.94283352
Si      39.23611336      34.38248384      38.81131360
Si      39.97966920      34.00104897       1.08143120
Si       0.31762266      36.33720807      38.04618004
Si      39.48236835      35.76438526       2.41105808
Si       2.31797888      33.62343515       0.99608316
Si       0.63593642      37.67340721       1.58162427
Si       3.43256579      35.46469557       0.10885183
Si      36.41918139      36.63316964       0.26793814
Si      36.79461974      39.03580771      37.29667983
Si      37.54268396      38.53832654      39.35788899
Si      39.86080300      38.17998790      39.43917568
Si       4.47169283      27.69387721      39.09904780
Si       4.87914344      29.98782152      36.01805393
Si       2.09844491      32.22897648      37.43992803
Si       3.13551203      34.10085025      36.66230893
Si       2.70146433      35.97504829      37.98144451
Si       5.46434222      33.75428112      36.57900209
Si       2.57759340      34.94168241       4.52513894
Si       2.96384332      37.35864609       1.62528041
Si       2.14502599      11.83821343      29.65075538
Si      38.64873698      36.91382852       6.08660273
Si       4.61115087      38.84962892      33.66491789
Si      37.82116323      32.57439509      38.81402685
Si       0.02297534      11.85625454      18.18346337
Si      24.27719198      24.86899298       8.67810462
Si      13.84211554       6.51843668      36.40733110
Si      30.44445243      36.71309011      22.82772934
Si       4.34446219      37.57767651       5.90080159
Si      25.40828459      34.47742706      24.23619748
Si       7.39031742      29.42044968      36.16579266
Si      39.47428740      30.85771542       7.66421805
Si      20.66207309       2.34885284      23.84220795
Si       3.58788258      36.34032202      11.55410703
3068
Lattice="40.0 0.0 0.0 0.0 40.0 0.0 0.0 0.0 40.0" Properties=species:S:1:pos:R:3 relative_density=0.96 cell_dim_angstroms="_JSON [40.0, 40.0, 40.0]" n_grains=37 grain_size=15.0 crystalline_fraction=1.0 grain_radius=15.048347763179653 pbc="T T T"
Si       0.38631880       0.88994476       3.25151807
Si       3.15607224      39.51808515       0.81866909
Si       2.24795442       0.69099282      39.09831500
Si       3.24207622       2.87771419      38.95390063
Si       5.97994366       1.47950438      36.68661450
Si       2.36121616       4.02499193      37.16203210
Si       3.40583380       6.19914801      37.06485404
Si       6.20234306       4.79805004      34.82941534
Si       6.20961841      34.68500596       4.26053262
Si       3.62105393      39.43688541       4.62447613
Si       5.81083040      35.78983257       6.31676235
Si       6.77034185      37.93593198       6.19376065
Si      39.98776665       2.03797940       5.12291757
Si       0.82911436       0.79682464       6.96913499
Si       0.91599244       4.16800036       5.13561580
Si       3.15050522       0.58621537       6.63745991
Si       1.40258347       4.04003520       8.90688844
Si       4.14302685       2.68798411       6.60858332
Si       0.51777844       5.32851985       7.11241172
Si       1.54864882       7.39147457       6.99052770
Si       9.12124601      36.62071953       0.10066865
Si       8.54454827      34.44099891       3.97336656
Si      11.23056013      33.02922656       1.67819907
Si       9.53489139      36.44973351       3.90577895
Si      12.23373541      35.12536358       1.57964722
Si       5.49900631      39.25958392       0.57521172
Si       6.35505169      38.00608165       2.39709516
Si       6.45409635       1.36250039       0.47890636
Si       5.87332367      39.16084616       4.44989751
Si       8.63937190      37.72690758       2.10675896
Si       6.88211354       1.28615670       4.37778818
Si       9.71947065      39.89708410       2.02146009
Si       2.73809898       0.63409028       2.85225467
Si       2.86886003       3.95898447       1.01785768
Si       3.69681281       2.72387662       2.79569870
Si       3.83945195       6.11623690       0.93231146
Si       3.26370906       3.91886857       4.83229580
Si       6.13292980       2.58005065       2.53635497
Si       4.34584194       6.02783661       4.72638417
Si       7.06919370       4.62503046       2.42419369
Si       1.13226488       7.50008682       3.24913072
Si       3.46807870       7.18950513       2.95340390
Si       4.48984361       9.30815522       2.93737422
Si      11.38023535      36.32502448      39.79001970
Si      12.46699820      38.45458782      39.79586981
Si       8.20409083      37.85753039      38.22532023
Si       8.37786041       1.24809911      36.43139731
Si       9.26726439      39.94593473      38.16150750
Si       9.37305886       3.27995197      36.34614671
Si       8.81788143       1.10803186       0.24698174
Si       9.87066865       3.20350695       0.14055870
Si       5.55639772       2.62869296      38.66771343
Si       5.69890589       5.98392021      36.81442809
Si       6.54841396       4.72273424      38.62803121
Si       6.77831258       8.08186547      36.75068139
Si       6.19526620       5.82956333       0.68476748
Si       8.90885355       4.42954610      38.26765418
Si       7.21086259       7.93990279       0.50897955
Si       9.99275473       6.54752753      38.28459656
Si       2.99135814       7.30392279      39.13981960
Si       4.01973332       9.42297205      39.09237203
Si       3.64331097      10.59248880       1.04530919
Si       6.28025685       9.21016633      38.79622827
Si       7.43222379      11.27873498      38.73355202
Si       8.45075973       4.52057791      34.56318651
Si       9.05202287       7.85287364      36.47301993
Si       5.89746886       9.25762079      34.92160443
Si       9.98173483      36.39287757       7.72827052
Si       6.30862913      39.04468932       8.22737520
Si       7.34635473       1.18019856       8.16637441
Si      10.55915525      39.73372514       9.75446373
Si       3.69533659       3.80982747       8.59261628
Si       4.62425592       2.57395797      10.42307825
Si       4.73934324       5.94119562       8.53938422
Si       6.95578493       2.28011193      10.13593759
Si       7.90700352       4.46042688      10.06246407
Si       1.09489418       8.50281008       9.08108833
Si       1.99156580       7.35064770      10.85747005
Si       4.30856697       7.11196113      10.61379363
Si      15.92164868      33.52498920       6.89262891
Si      11.74723928      32.93072021       5.62568124
Si      11.85170266      36.26062615       3.65077768
Si      12.74509101      35.03329719       5.47952808
Si      12.83071518      38.38761497       3.48399456
Si      12.26410377      36.18750018       7.45641077
Si      14.97702995      34.76368215       5.19931362
Si      13.38566522      38.28683103       7.31577330
Si      16.04877271      36.88088773       5.16180422
Si       9.08608176      37.74669622       5.93111215
Si       9.25618129       1.05361472       3.98882138
Si      10.13991036      39.79312580       5.87996554
Si      10.23482556       3.07404825       4.03642658
Si       9.73037371       0.94290802       7.83871704
Si      12.45956805      39.61576249       5.55407313
Si      10.72880574       3.02968198       7.80604447
Si      13.39790831       1.66072315       5.51855498
Si       6.49942087       2.39579644       6.36899833
Si       6.64278549       5.77668865       4.43181000
Si       7.43794053       4.48232048       6.24224430
Si       7.67417273       7.86381513       4.41056343
Si       7.04971943       5.71693432       8.28919597
Si       9.80831510       4.23417343       6.01651951
Si       8.13524527       7.81640672       8.19339694
Si      10.85561479       6.42417800       5.92605920
Si       3.86250968       7.14666885       6.82778379
Si       4.02854174      10.46678283       4.90286652
Si       4.87116546       9.27814224       6.65971109
Si       7.28757028       9.05011607       6.43894321
Si      15.14013933      38.04096361       3.28743397
Si      16.19309845       0.31250477       3.21435186
Si      12.02988698      39.56710685       1.75093943
Si      12.14796342       3.02361453      39.89284869
Si      13.09627964       1.70835116       1.71226221
Si      13.15393145       5.14063935      39.85112965
Si      12.63950223       2.87855314       3.71710250
Si      15.31636454       1.44509909       1.39543879
Si      13.56099749       4.96619356       3.64739050
Si      16.30666974       3.58766121       1.38211707
Si       9.38356421       4.31838118       2.13959901
Si       9.56294259       7.70434381       0.27289402
Si      10.43726903       6.57841910       2.12064374
Si      10.51951184       9.85230903       0.17733702
Si       9.98439975       7.64312108       4.08995793
Si      12.74842168       6.26564440       1.79993145
Si      11.05403649       9.72011024       4.00772506
Si      13.71706531       8.31743711       1.73902610
Si       6.82765521       9.12879090       2.62022264
Si      12.26193301       6.35933898      38.00258909
Si       9.70075345      11.06175880      38.44454200
Si      11.12291892       2.99902428      11.59712837
Si       7.52325030       5.56877298      12.08460016
Si      15.51597051      34.71723490       8.98717283
Si      15.60538037      38.06176388       7.15984711
Si      16.53003030      36.83009495       8.92813489
Si      16.60572912       0.16877814       6.98661231
Si      17.08660679       0.07545356      10.86867975
Si      12.82934976      39.43999180       9.39971617
Si      13.02641726       2.83630398       7.49028776
Si      13.94731798       1.55759106       9.29571766
Si      14.05639415       4.94651950       7.48208747
Si      13.47100257       2.70993357      11.35521555
Si      16.20607345       1.29516040       9.05254659
Si      14.42539456       4.83386277      11.28028964
Si      17.28315742       3.46524019       8.97293746
Si      10.25012386       4.26204956       9.69939322
Si      10.41561581       7.53472498       7.88731578
Si      11.29383664       6.29031832       9.74319750
Si      13.52286690       6.01644876       9.43171614
Si      18.95132192      39.88259455       6.79202235
Si      19.94853083       2.02984128       6.68343609
Si      15.76100811       1.43502130       5.22688358
Si      15.86086278       4.72879704       3.35683803
Si      16.81557626       3.50542785       5.09966038
Si      16.39444789       4.60757986       7.16537140
Si      19.13011766       3.24156547       4.93870891
Si      13.22201219       6.09967717       5.67686813
Si      13.26387720       9.52656710       3.70317152
Si      14.19059891       8.23299171       5.57484721
Si      19.55898792       3.14384113       8.69504530
Si      13.33929329      21.26221015      22.68026648
Si      11.33427007      23.81826140      24.78539825
Si      15.58262726      28.80646650      25.82269747
Si      14.89513224      28.72103747      22.05230584
Si      13.75147624      27.30866237      26.17012394
Si      14.62072354      30.98268805      25.89149377
Si      12.20041926      27.52135983      24.53357297
Si      13.00093420      31.26163613      24.25399728
Si      15.61941716      24.72382850      24.08270603
Si      15.07057405      24.61095120      20.24752483
Si      14.05519039      25.00683959      22.40073776
Si      13.43279480      24.73290811      18.57085405
Si      12.41571098      23.34816745      22.69583858
Si      13.22851789      27.12574294      22.42125142
Si      10.75685969      23.61431849      21.02957134
Si      11.56924953      27.36037364      20.74512203
Si      11.67604015      23.32674901      19.02055888
Si      15.18195989      32.29696192      17.98270633
Si      14.05847861      30.86065746      22.17046451
Si      14.84464241      34.61036857      21.83594020
Si      12.44377257      31.03096217      20.38508704
Si      13.23765666      34.78493320      20.21973656
Si      15.31890178      28.09901876      16.15262777
Si      14.27233936      28.46256518      18.29470376
Si      13.63368583      28.36293347      14.49992336
Si      12.59863883      26.98931371      18.66812457
Si      13.44531648      30.65010350      18.32740081
Si      10.99400784      27.17346304      17.03591027
Si      11.82744702      30.96375141      16.67146320
Si      11.92338915      26.77490037      14.85581300
Si      14.16038891      38.62587068      19.86802445
Si      14.25794673      34.43944040      18.03378799
Si      15.08257417      38.17209968      17.78626427
Si      12.61112099      34.65378631      16.34694000
Si      14.44509444      32.12550019      14.21167933
Si      13.84861363      31.94798689      10.42439028
Si      12.70233655      30.52203561      14.54014565
Si      13.65440696      34.24766070      14.26576931
Si      11.13504416      30.65873791      12.86894583
Si      12.14737664      30.30446535      10.73884420
Si       9.49197173      26.35880283      27.03139001
Si       7.96849768      22.47084974      23.44245532
Si       6.14787282      25.02725097      25.66581588
Si      11.16993227      33.83552413      26.44595949
Si      11.32191526      29.65130362      24.58437858
Si      10.35110024      30.09788782      26.66435876
Si       9.68454153      29.86179680      22.88246441
Si       8.59003365      28.43741088      26.96025075
Si       9.46224700      32.30992821      26.66554822
Si       6.98506971      28.77634460      25.34520244
Si       7.76515461      32.47674958      25.06622558
Si      10.45505126      25.99813344      24.91052026
Si       9.86908642      25.77162157      21.09169545
Si       8.91833349      26.16932076      23.22210728
Si       8.17475692      25.94775886      19.42338313
Si       7.10331755      24.62724491      23.56025758
Si       8.01160070      28.35297960      23.18452215
Si       5.52870039      24.80612933      21.83010349
Si       6.34121847      28.60332253      21.58109610
Si       9.06159921      21.97669812      21.38821872
Si       6.50394957      24.49778541      19.80735571
Si      11.32150455      37.34765336      22.28288792
Si      12.20666833      33.46217418      24.27672201
Si      11.49612205      33.28647987      20.45814009
Si      10.54697340      33.71661689      22.52478277
Si       9.87342153      33.52001288      18.79284107
Si       8.87586184      32.13062992      22.95180070
Si       9.62999756      35.77720877      22.69554520
Si       7.21275221      32.33599003      21.21739208
Si      10.70734705      29.47581158      20.76673846
Si      10.07877642      29.38060577      16.98908632
Si       9.04243108      29.75106741      19.04639342
Si       8.40011659      29.59536430      15.34089847
Si       7.33887282      28.17393680      19.45093720
Si       8.22746822      31.92644334      19.20842581
Si       5.71435300      28.42408915      17.75061058
Si       9.22415812      25.63717840      17.22476572
Si      12.36361819      36.99490263      20.16971881
Si      10.83554270      33.08991899      16.72933052
Si       6.12875213      30.91466823      25.34605085
Si       4.41800623      31.22397493      23.70436335
Si       5.20960463      27.28130625      25.70457810
Si       4.62539586      27.02440643      21.95522728
Si       3.66066070      27.43901928      24.02000156
Si       5.45006135      30.76098548      21.61894502
Si       4.01062875      26.86476124      18.11165766
Si       1.10040462       6.59080193      29.06601708
Si      11.21121274       1.70182740      24.23437283
Si       7.73082402       2.41658965      27.10468729
Si       6.00485678       1.50807170      25.79563738
Si       5.43347203       4.96405977      24.18722522
Si       7.79163771       2.48409628      22.55446327
Si       2.55613262       2.24661022      28.64062113
Si       3.59711991       3.99033548      27.43436975
Si       0.74957773       1.43834248      27.38373434
Si       1.95271044       5.73544974      26.96709125
Si       4.38767119       3.21401770      25.37783875
Si       0.21268610       4.85836502      25.74297006
Si       2.59950013       2.34218169      24.06779765
Si       0.08723467       4.75991104      30.24391827
Si      37.30661679       2.13251508      30.09548793
Si      38.34290260       3.88287384      28.97776329
Si      35.53029499       1.25491458      28.86355725
Si      39.17911378       3.01070336      26.89271410
Si      37.38177172       2.15248414      25.69982416
Si      11.99719625       0.84614604      22.23427255
Si      10.20101297      39.98506941      21.04973080
Si      10.14467093      39.96961419      25.46856417
Si       7.38499589      37.25415926      25.38487572
Si       8.40119896      39.00402218      24.14833659
Si       6.77168098       0.77065884      23.70347611
Si       9.27095886      38.20217605      22.16962208
Si       5.03125137      39.78903129      22.47097495
Si       4.95351697      39.72344530      26.97118372
Si       3.22504416      38.88213903      25.76133264
Si       1.56826027       0.57999203      25.33088071
Si       4.03903952      37.99601007      23.72645647
Si      39.86618466      39.60967439      24.02409998
Si       2.22388648      37.15052867      22.43008755
Si      39.83430270      39.65577770      28.44461300
Si      37.98601471      38.72840183      27.23195581
Si      36.42807693       0.33445414      26.77246768
Si      38.80661481      37.95264152      25.15962740
Si       1.45051683       9.14184915      20.85003442
Si       9.62285911       3.39859025      19.33439751
Si       6.18388710       4.10599829      22.13237837
Si       7.23639764       5.91086642      20.93366586
Si       4.43930667       3.25782588      20.90805859
Si       8.10983045       5.09831171      18.93571199
Si       3.93191137       6.62938263      19.21446661
Si       6.32981211       4.15029361      17.62584925
Si       3.80818854       6.71168440      23.72799926
Si       1.02065417       3.98587330      23.74299857
Si       2.01910644       5.78699353      22.47273562
Si      39.33127683       3.08583678      22.47076104
Si       0.42197648       7.43615906      22.04121560
Si       2.92645878       4.94224142      20.48345638
Si      38.67204754       6.55714403      20.76473988
Si       1.13631408       3.99341249      19.16229829
Si      38.55865997       6.47045890      25.29742699
Si      35.76115292       3.76962841      25.21016375
Si      36.77665227       5.61797325      24.04268449
Si      34.04189392       2.90673895      23.90177605
Si      35.27730369       7.31384299      23.63786541
Si      37.66440640       4.75950136      21.98587072
Si      35.89689158       3.87450834      20.70465357
Si      10.51843917       2.56146865      17.27309191
Si       8.62178452       1.69357818      20.48120366
Si       5.89092586      39.02180076      20.39183856
Si       6.93931418       0.74595117      19.32640626
Si       5.35212559       2.47518845      18.80112556
Si       3.52650579       1.57630720      17.56436225
Si       3.46668471       1.55405239      22.04533987
Si       0.66741432      38.89223405      21.97605655
Si       1.70012131       0.56351905      20.86362188
Si       0.12667143       2.23977264      20.36859805
Si       2.58768884      39.77613429      18.71399729
Si      38.37368663       1.44570550      19.15247157
Si      38.35206114       1.35773410      23.58738961
Si      36.45376697       0.48972079      22.28001871
Si      34.85387718       2.15158061      21.89881117
Si       3.31241961      10.12142484      17.59928018
Si       9.92417045       6.03907613      15.72640778
Si       8.14413518       5.08445393      14.42271650
Si       4.69677851       5.80407661      17.23362526
Si       5.81767855       7.61840249      16.02912308
Si       2.89533757       4.95368787      15.97389443
Si       4.16869660       9.27650073      15.57381591
Si       6.63502216       6.79409909      13.96609854
Si       2.33268144       8.45897295      14.31566728
Si       4.84997236       5.83588857      12.65197935
Si       2.32373494       8.39184955      18.84980421
Si      39.45147338       5.82009934      18.76084002
Si       0.49987658       7.41821451      17.53620789
Si      37.76408175       4.79444873      17.51953877
Si       1.41190237       6.63044470      15.49980711
Si      37.20325783       8.22441098      15.88084937
Si      39.62822233       5.73630729      14.25730221
Si      37.06108476       8.24328340      20.41884324
Si      34.37816620       5.56307053      20.25975031
Si      35.29903355       7.29761231      19.11104844
Si      36.16784081       6.47513783      17.04800004
Si      34.38822059       5.55460612      15.83483545
Si       7.15523636       3.41276819      15.58682194
Si       3.77238340       4.13370480      13.86686577
Si       1.92126705       3.21344525      17.11184322
Si      39.18655419       0.55667635      17.03270480
Si       0.25576537       2.28727694      15.88515223
Si      38.62781598       4.04710538      15.42449560
Si      36.74293023       3.10025135      18.67235414
Si       3.24151270       7.59941692      12.32029491
Si      38.04454561       7.42006280      13.81117897
Si      36.21563876       6.55680878      12.57181024
Si       0.39155791       4.93467046      12.23467055
Si      35.21044249       4.75436937      13.73016743
Si       5.95844882      21.78244800      11.17428412
Si       8.44410024      20.76173550       8.49042862
Si       9.00096063      24.04020558      10.38927090
Si       5.11520468      16.68976505      12.61926785
Si       6.93957991      20.04567121      10.14771903
Si       8.23328274      18.88908896      11.76222362
Si       3.08356619      12.61654215      12.36902541
Si       4.33464397      11.51585722      13.97291641
Si       6.18992784      14.79628285      11.66433917
Si       7.49188915      13.58503382      13.21167584
Si       6.33664102      23.17428468      16.45461214
Si       7.53221595      23.30679647      12.11513021
Si       8.19104178      26.51538777      13.98721702
Si       8.82987755      22.06509504      13.71378153
Si       9.43632218      25.38370252      15.63694221
Si       4.48984751      21.10041301      12.88404138
Si       5.80749391      19.86556562      14.53637524
Si       5.51475289      18.00853377      17.82578190
Si       6.73923006      18.07573014      13.56959104
Si       7.32953597      21.37024785      15.47710739
Si       8.04586619      16.94574252      15.14150818
Si       8.62001284      20.16931363      17.12832670
Si       4.97538610      14.82704354      15.90795183
Si       5.94144153      12.94436515      14.83425595
Si       6.58685765      16.18247348      16.86259160
Si       7.82193147      15.04342999      18.44541926
Si       7.12792342      19.41588762      18.77814798
Si       8.48879460      18.19944296      20.38717592
Si      12.13262102      26.15247656       9.66845995
Si      13.97026406      29.54301699       7.29890656
Si      14.64758564      25.05409507       6.92279300
Si      15.20121205      28.36512850       8.83052522
Si      10.08513368      22.13836053       9.35012448
Si      11.47238081      22.87244435       7.68290313
Si      11.27655925      21.00620852      11.02650684
Si      13.14067138      24.28660136       8.64772211
Si      14.32914462      23.17184694      10.26071652
Si       9.31122467      16.97441251      10.82937039
Si      10.47887705      15.80534736      12.40125790
Si      12.34964706      19.14826328      10.02513907
Si      13.60371649      17.93795286      11.63298370
Si      13.78882138      27.52573230      10.50823048
Si      14.99323654      26.38357756      12.07732111
Si      10.61654398      25.39381109      11.35680214
Si      10.54799632      23.50003529      14.65712976
Si      11.94483172      24.18763978      12.87253974
Si      11.77644621      22.33407202      16.28749743
Si      12.97859406      22.35003381      11.90820773
Si      13.54922862      25.69458553      13.81083932
Si      14.19090456      21.26545915      13.60086772
Si      14.76844585      24.49183124      15.49642877
Si       9.86974519      20.19856901      12.66782675
Si       9.71122776      18.28187374      16.03664915
Si      11.10635236      19.10031494      14.32974489
Si      10.97206947      17.10336123      17.62935767
Si      12.15676714      17.22159679      13.33981908
Si      12.71460998      20.50730535      15.22485197
Si      13.36461123      16.00771029      14.89903319
Si      13.98594636      19.28664212      16.89247192
Si       9.06631710      15.07196689      14.15588468
Si       8.87036441      13.18356528      17.37568624
Si      13.31341460      23.66536172      17.19364258
Si      14.57037234      22.56258943      18.74487570
Si      10.26546723      21.55854845      17.94173136
Si      10.11698003      19.68269186      21.23282893
Si      11.48508060      20.41881827      19.55178512
Si      12.50958844      18.53911137      18.55548816
Si       9.39748052      16.44775985      19.36651695
Si      16.01350202      24.56556973      11.14298375
Si      15.78977398      22.60511511      14.42817934
Si      17.24248273      23.35210655      12.81741666
Si      17.14714953      21.46032123      16.11022949
Si      18.39933476      21.48235295      11.80886490
Si      15.28025946      19.37187960      12.53131897
Si      16.46875930      18.13211562      14.13538142
Si      15.66229902      20.69520325      17.80038999
Si      24.35969343      11.57127309      20.41220991
Si      24.96452522      12.21062563      24.77452496
Si      25.61932062      10.18479536      23.66726511
Si      22.05079779       9.46208607      22.56230665
Si      26.21216271      10.69437420      21.41339745
Si      18.45522483       8.74515124      21.46563344
Si      22.66553237       9.92098109      20.40889481
Si      19.74963547       7.27174993      18.07959299
Si      25.68763211      10.10069062      17.04159113
Si      22.04265569       9.53439324      29.23947415
Si      26.23159424      10.63596621      28.11070660
Si      25.58261433      10.26293048      30.36755959
Si      26.84833568       8.83303967      27.04850868
Si      24.59740285       6.72904132      29.32006018
Si      19.05243337       9.33799387      25.78749548
Si      19.73095049       7.38177808      24.71812986
Si      21.05235110       6.00844529      28.12945112
Si      17.36145845       5.25117468      27.02337956
Si      22.61983289      10.03966901      27.00690003
Si      23.95712941       8.52385423      23.67909982
Si      23.27392293       8.03735806      25.92594412
Si      21.58069272       6.46277633      25.96865730
Si      16.72149327       7.16733928      21.42587910
Si      16.10242980       6.70952620      23.66675368
Si      17.44055904       5.22685565      20.33466582
Si      18.04108412       5.75223335      24.77928692
Si      15.18719817       3.15249747      22.59356951
Si      20.26669024       7.86900683      22.60512806
Si      21.02093352       5.89275230      21.45836272
Si      13.84751089       4.42482925      19.20986071
Si      18.02155593       5.74570836      18.19416136
Si      19.28488743       4.39766686      28.13140082
Si      15.65174860       3.68860073      26.91469812
Si      13.39559977       1.54209727      22.61479373
Si      24.36854736      27.89332000      23.94293347
Si      21.52737648      25.87176266      25.49216938
Si      26.90196175      29.56150119      26.19069395
Si      25.60426300      27.71351212      25.95966438
Si      26.90295482      25.74450434      25.97517235
Si      24.68887333      24.41768957      19.87406288
Si      23.04373992      26.08656860      23.70431858
Si      24.37186118      24.05168914      23.70429923
Si      21.74532081      22.43462268      21.30635040
Si      25.92494125      28.08396448      22.18635118
Si      27.27499812      26.13958576      22.12373798
Si      28.40128606      26.02053504      24.15409936
Si      25.86557228      24.26030458      21.83663668
Si      29.78175525      24.00810799      24.04385609
Si      18.59695884      23.90397268      27.06120313
Si      22.74085135      25.69843045      27.50864878
Si      24.00339611      23.78799718      27.39964352
Si      21.18048316      21.79030257      28.98186454
Si      29.39558796      23.65429153      27.81656846
Si      26.52469959      21.72603293      29.37682960
Si      30.71627530      23.46996620      29.93853891
Si      16.03059578      22.21250836      24.71576259
Si      17.19954274      22.00721110      26.78499588
Si      20.05741086      24.04291675      25.24312552
Si      22.98600873      22.22694946      23.34534900
Si      21.45304224      22.10022188      25.12912895
Si      22.61195588      21.95970035      27.11908881
Si      20.04366187      20.19191092      24.89461123
Si      23.99384408      19.96927784      27.09554728
Si      25.53245913      23.97200677      25.64075951
Si      26.81374404      22.04289908      25.54510803
Si      28.00121658      21.76634461      27.59540360
Si      25.47710079      20.14098907      25.31593441
Si      30.92793751      23.78890325      26.14024673
Si      20.41422361      20.47238607      21.06506863
Si      19.71738038      19.90750615      28.63432257
Si      25.13362425      19.73445332      29.10383524
Si      26.47498908      17.82643734      29.15317599
Si      27.68243220      17.66346248      31.06036005
Si      30.52046195      19.67545102      29.57668999
Si      37.79235035      25.30002873      34.07391962
Si       2.72552250      27.36741371      34.77106917
Si       0.82339343      25.83455475      31.85908283
Si       3.93485188      26.42463499      29.59714294
Si      36.75704256      19.79254821      37.70129298
Si      39.24870227      24.81329914      35.97127686
Si      38.21985406      23.29093932      37.36438546
Si       1.27242569      23.90618375      35.06791106
Si      39.74661077      22.88860647      39.25807636
Si      37.76787907      21.24754966      36.28376551
Si       1.76426598      21.93029535      38.39114399
Si      39.69186529      20.32846518      35.47178707
Si       6.18125810      26.05856100      35.80388452
Si       2.74493804      23.51163468      36.91553127
Si       4.81166652      22.57197352      36.14042278
Si      37.41587466      23.25912046      32.96439449
Si       0.37961875      23.84830918      30.67472766
Si      39.39573336      22.29982833      32.15584807
Si       2.44073644      22.89931698      29.90281298
Si       0.87361576      21.87124114      33.91783415
Si       2.80737890      20.86036395      33.25229771
Si       2.34870793      25.43771882      33.60823984
Si       5.30077933      26.07143605      31.41079309
Si       4.35229170      24.48534100      32.87485650
Si       5.75923419      24.04038654      34.69788256
Si       3.89738038      22.41618825      31.68469702
Si       5.87985567      21.60601258      30.91380093
Si       4.02412160      19.95537817      27.92501598
Si       3.46533048      24.39015750      28.42782724
Si      38.16060523      19.34765449      39.51199237
Si       1.22093802      19.91008719      37.24689001
Si       0.25406434      18.41937012      38.73786410
Si       3.22837768      18.96961193      36.45090003
Si      39.74900245      16.38639860      37.65391648
Si       3.64828998      17.11304789      39.74222187
Si       1.79782640      15.47186381      36.84243552
Si       8.23213282      21.11680759      37.10208805
Si       4.67527174      18.54594009      38.28805449
Si       6.66104552      17.63911543      37.46661086
Si      39.33611903      18.26771709      34.35947617
Si       2.33251417      18.90375457      32.09644156
Si       1.39200820      17.38465202      33.51826419
Si       4.33273766      18.03817452      31.30897100
Si       2.80244566      16.94880787      35.42090977
Si       4.77947169      16.02988682      34.53566721
Si       4.25724019      20.47731177      35.02388548
Si       7.28822443      21.16520068      32.69526492
Si       6.34110931      19.57873331      34.18448160
Si       7.69797693      19.14420155      36.01275791
Si       5.79489866      17.59196730      33.09357172
Si       7.84379995      16.59096269      32.24365221
Si       3.88159278      15.96628281      30.16477581
Si       5.38676363      19.56512544      29.84593746
Si       3.16595833      15.03333408      38.59292368
Si       2.17928985      13.48412007       0.12579287
Si       5.24176795      14.12966230      37.82855912
Si       4.30667271      14.03077444      33.42710852
Si       3.25332837      12.45352406      34.93425831
Si       6.36929095      13.13139719      32.66844771
Si       4.69948604      12.09333638      36.74118405
Si       6.20461664      15.60489875      36.36979211
Si       8.23265341      14.67566322      35.55729145
Si       9.64862092      14.22363227      37.30987221
Si      29.59685881       6.96064636      29.83060817
Si      32.00010690       0.94750204      31.63457938
Si      28.16023136       0.12027504      33.86775449
Si      29.86508934       3.98926816      32.36864298
Si      30.01211153       1.19656566      34.90803684
Si      31.76813333       3.90024072      29.15035449
Si      35.64640067       4.16009645      29.17338300
Si      31.63688118       6.27211163      28.87549474
Si      31.81495505       3.28115058      31.38566390
Si      33.41468039       7.21731557      29.92918014
Si      33.65748644       4.37370048      32.48101035
Si      32.03953142       0.46598647      33.86881650
Si      33.83210472       1.44352782      35.06122740
Si      33.97422500       0.22833551      30.56755836
Si      35.83321285       1.30857589      31.78161951
Si      35.64666676       3.66519481      31.44016734
Si      35.85579083       0.72640262      33.95349060
Si      37.45346650       4.69403480      32.65799982
Si      37.64031525       1.78249325      35.05746483
Si       1.29622959       5.01314360      32.66724681
Si      27.64563605       7.19551452      33.14991701
Si      25.64957870       7.27131011      36.47359350
Si      28.00887289       1.36898007      38.28683718
Si      25.75199110       4.45052737      38.92727549
Si      25.98340353       1.55496421       1.44701602
Si      25.99335184       3.14735159      34.61254464
Si      29.80884536       3.45081100      34.71682207
Si      27.74849795       4.23234424      35.75600450
Si      31.65254584       4.51158075      35.69272547
Si      27.59035405       6.60555791      35.40383801
Si      27.78292674       3.64260372      37.94595466
Si      29.40428560       7.64072956      36.43854893
Si      29.67892089       4.72599355      39.01762364
Si      29.63607751       6.40655553      32.15907780
Si      33.46886227       6.77459323      32.26307937
Si      31.45132782       7.40035508      33.25269698
Si      35.19723119       7.75178029      33.26403901
Si      31.51961879       6.92343822      35.50152717
Si      33.25801476       7.96249750      36.53562752
Si      28.16733786      38.41638538       0.70240329
Si      27.93716618       0.72137821       0.44514247
Si      29.82989577       1.86061121       1.53739637
Si      30.02995290       0.63051950      37.19036474
Si      33.83587890       0.85774077      37.29499018
Si      31.84927492       1.65067227      38.22382688
Si      35.73509007       1.94530000      38.30596243
Si      31.66425869       4.03025342      38.05079533
Si      31.80574650       1.09756094       0.56193450
Si      33.45003598       5.01917670      39.06860892
Si      33.69884273       2.19811018       1.56886610
Si      33.64420651       3.81342283      34.73252015
Si      37.49222495       4.11098900      34.78964694
Si      35.51041330       4.84910609      35.79609858
Si      39.27618801       5.20133950      35.90126547
Si      35.34577781       7.21274213      35.55055989
Si      35.43598898       4.23346452      38.07961799
Si      37.07652374       8.23897921      36.62098696
Si      37.30434001       5.33973944      39.15601268
Si      37.29801936       7.09105689      32.33984773
Si      39.12416861       8.02334585      33.35553189
Si      39.07826391       7.47318994      35.66310894
Si       0.96520593       8.49974404      36.74548882
Si      35.62891477       1.39296835       0.66755462
Si      37.47338951       2.38584732       1.65849863
Si      37.67299744       1.27207745      37.37301786
Si      39.52929620       2.31813000      38.43908007
Si      39.32820969       4.63370328      38.21171454
Si      39.46104795       1.68649323       0.69028311
Si       1.12902877       5.67720049      39.14439907
Si       1.27827285       4.37711888      34.92023324
Si      24.00312047       1.65870006       4.74340078
Si      25.83495423       3.81107021       1.12992343
Si      27.63448145       4.84323514       2.31210174
Si      23.76406570       4.03813934       4.42553898
Si      25.52992948       7.91414291       3.02236938
Si      25.61756861       5.05894976       5.57656663
Si      25.66948948       6.74825936      38.69328154
Si      29.39783956       7.10567523      38.80227800
Si      27.36560192       7.78922544      39.73889222
Si      31.24764135       8.08263700      39.89259742
Si      27.46577897       7.21968987       2.01752428
Si      29.24438906       8.26925893       3.11138629
Si      23.92923442       1.14948816       7.04135110
Si      25.81793931       2.23305756       8.10894652
Si      25.98315767       0.98993933       3.71463877
Si      29.80142961       1.25741620       3.76097443
Si      27.82648389       2.08859010       4.84663681
Si      31.57735430       2.31851779       4.92639223
Si      27.61641411       4.38474245       4.55165148
Si      27.80495305       1.44923395       7.06810009
Si      29.45501627       5.35857266       5.57457044
Si      29.61851616       4.19355289       1.32186430
Si      33.45556693       4.49195383       1.32255725
Si      31.44029887       5.25312701       2.37718152
Si      35.28983714       5.54155579       2.40818219
Si      31.30384619       7.51747159       2.14596778
Si      31.43745110       4.64582932       4.58934235
Si      33.05607825       8.53795715       3.20720039
Si      33.26337744       5.65861337       5.73325731
Si      33.24078832       7.38365812      38.85314426
Si      37.15805929       7.65735746      38.89530447
Si      35.06579158       8.44133333      39.90837039
Si      38.88591589       8.74080270      39.94494381
Si      35.10944815       7.89585709       2.23937062
Si      36.91688650       8.89067678       3.20462616
Si      33.46364312       2.79438531       8.20925435
Si      33.59617393       1.59671864       3.82344391
Si      37.51258585       1.87125019       3.91080730
Si      35.45365033       2.56371509       4.99280782
Si      35.32877900       4.99098909       4.73228538
Si      37.10129541       6.02817089       5.82098267
Si      37.26313239       3.17737927       8.34024566
Si      37.25756329       4.77037349       1.47590592
Si      39.11339686       5.81706844       2.47590671
Si      38.95410200       8.20508991       2.28930783
Si      39.12623155       5.27520779       4.76990484
Si       0.74360451       9.20351219       3.26463445
Si       0.96034195       8.04938098      38.98245865
Si      25.47135174       7.37973300       5.33063296
Si      27.30256306       8.43040796       6.43117487
Si      25.60404474       4.55483009       7.82395016
Si      29.40973587       4.86599469       7.90220304
Si      27.52267116       5.58181803       8.88418599
Si      31.27027942       5.89417194       8.98315823
Si      27.24274588       7.92647666       8.63245924
Si      29.06132537       8.93307885       9.77041910
Si      29.28617098       7.64873889       5.38161364
Si      33.11907088       7.99614935       5.43445661
Si      31.09994932       8.80545582       6.45330276
Si      34.90450417       9.05273026       6.54583331
Si      31.09080659       8.19666451       8.72414728
Si      32.94577823       9.23306437       9.80116053
Si      31.31139560       5.30565224      11.21839990
Si      33.14828090       6.32304742      12.34873220
Si      33.29116036       5.14662333       7.96412137
Si      37.11068312       5.42111340       7.99441617
Si      35.18113573       6.22060578       9.06285405
Si      38.95950217       6.47130809       9.08532177
Si      34.87824232       8.51805788       8.80493486
Si      35.13893184       5.57444040      11.31102625
Si      36.73597568       9.54326586       9.86890582
Si      36.87483524       8.27523898       5.55914041
Si       0.75025496       8.66427421       5.60585655
Si      38.72180655       9.36178244       6.63217922
Si      38.66808020       8.79815276       8.88614661
Si      38.23798293      36.55472563      25.97836719
Si      32.79729511       2.51091362      19.85787482
Si      33.15612200      39.34676254      17.65327304
Si      31.89869707      33.96176364      18.54336287
Si      36.20988579       1.46049253      18.21101595
Si      33.34331375       1.31037713      21.75396690
Si      35.21887813      38.32252492      23.05974716
Si      34.85193537      39.51776254      21.18933340
Si      36.67867722      36.46859797      22.49230074
Si      33.63195477      38.07298878      19.64430314
Si      36.69799863       0.28237611      20.19133591
Si      34.97906758      36.29851361      19.01017565
Si      38.09986571      38.43234146      19.65393062
Si      33.49046973      34.24898431      21.97747396
Si      35.57954062      35.05316834      21.00648257
Si      33.78191832      31.02099914      19.88053225
Si      36.81631461      33.25703651      20.48953566
Si       1.64910581      35.58985720      24.46711582
Si      38.63923928      37.21678858      21.59071334
Si      39.96390753      35.38376353      21.03249342
Si      37.15424934      35.25268288      24.50406774
Si      38.49868689      33.42713656      23.90029604
Si       0.40508922      30.37977736      25.22623922
Si      37.39981931      32.01085268      22.39150607
Si       0.54915925      34.21342111      22.90754711
Si      38.79717605      30.18057309      21.79977887
Si       1.89432806      32.34898967      22.42740265
Si       2.42650496      31.08247920      24.26409229
Si      33.14407636       3.15483844      15.33858692
Si      34.54106648       1.37449310      14.80421598
Si      31.96249223      37.97815721      16.16608246
Si      31.49029019      39.24964223      14.20070928
Si      33.33864231      36.12655264      15.52690088
Si      33.53746335       0.02061692      13.18886559
Si      30.76133054      32.71759732      16.92571860
Si      30.30319522      33.95348205      14.99958620
Si      32.22567582      30.88924038      16.41274545
Si      36.62659085       2.11610429      13.81887256
Si      35.03697915       0.19308269      16.78085821
Si      37.00794683      37.06794297      18.07427360
Si      36.46544392      38.29391422      16.11733674
Si      38.43153094      35.22375971      17.50978093
Si      35.32724777      36.88801866      14.61516274
Si      38.47669737      39.13063761      15.21093077
Si      36.71840234      35.08669862      14.07284594
Si      33.89563057      34.84752301      17.44444994
Si      35.72168944      31.78592434      18.89365506
Si      35.29741345      33.13711723      16.86125397
Si      37.12408645      30.04437514      18.39363033
Si      34.16503266      31.69334448      15.46067060
Si      37.16184129      33.86254037      15.99082530
Si      35.49295356      29.82983611      14.84886932
Si      38.61797654      32.04375902      15.35174724
Si      34.03716656      27.82184799      17.74532095
Si      36.02573809      28.61465073      16.75164750
Si       0.32597156      36.06791214      16.59622023
Si      38.92546082      33.98682374      19.43496223
Si       0.77801203      30.99062080      20.80223942
Si       0.25512519      32.22750470      18.92862875
Si       2.19031125      29.18238103      20.23246482
Si      39.16551314      30.76978297      17.34501835
Si       0.57018596      29.04289513      16.82524750
Si      37.64277314      28.76214210      20.28063036
Si       1.06446438      27.80263294      18.73577988
Si       2.61834518      27.97344826      22.24565151
Si       3.92500324      24.40059236      19.16697046
Si       4.65274670      23.97888607      16.98141362
Si       1.81003191      23.07911416      19.50030239
Si       1.01509361      23.52032700      15.81698261
Si       3.08304552      20.50951748      16.93833716
Si      39.01700639      26.48483928      20.58389641
Si      39.80821473      26.06306384      18.31870720
Si      38.21242909      26.78329339      16.87417298
Si       0.27676553      23.85938287      17.97038490
Si      36.17433788      25.60823677      17.18211398
Si      38.29603485      22.57477650      18.30183343
Si      35.38638384      25.90779174      19.36680502
Si      33.46571008      24.68313945      19.66852655
Si       5.92966766      21.33938265      20.34305485
Si       4.02296632      20.08971623      20.65003442
Si       2.33549702      20.91065337      19.19119315
Si       4.44499501      17.76326166      20.40118108
Si       0.41917443      19.56577232      19.49866333
Si       2.46588576      16.55477656      20.73748717
Si       1.44503248      21.26446526      15.50524766
Si       2.22313007      20.83030799      13.24978621
Si      39.52264691      19.89169227      15.77546233
Si       2.61701944      18.59113302      12.91831304
Si      38.53860893      20.40854333      12.20896726
Si       0.70924087      17.39055754      13.25030872
Si      39.32148940      24.23376434      14.32257579
Si      36.70606441      23.30220670      16.82892469
Si      37.35757792      22.95656384      14.61769504
Si      34.66972816      22.05835392      17.12371413
Si      35.77198924      23.68012524      13.06778911
Si      37.84610960      20.71740659      14.25034540
Si      35.85952679      19.44808793      14.59682541
Si      34.56862135      26.27546400      15.60467100
Si       3.67615499      13.95813681      18.14438026
Si       2.73784082      14.32601900      14.43413629
Si       3.52430222      18.13995768      16.59830071
Si       0.80039345      17.25577871      19.16569111
Si       1.57617619      17.00380595      16.96633069
Si      38.91091838      16.05027789      19.52162773
Si      39.93537301      17.67828501      15.48121891
Si       2.03382818      14.76328384      16.65717250
Si      37.90166707      16.45292474      15.81818990
Si       0.01151875      13.44582561      16.94386724
Si      38.65627917      20.33809493      18.05548671
Si      36.68804548      19.02461902      18.38110592
Si      35.12382900      19.81034766      16.80986800
Si      37.17786688      16.79821005      17.99362282
Si      33.08380955      18.58152770      17.18528718
Si      35.17064506      15.59049726      18.28173569
Si      33.87746265      22.40373816      19.41197914
Si       2.86056887      14.27913013      20.29045098
Si       0.93544943      13.05536493      20.70411886
Si      39.23667700      13.76930032      19.13119051
Si      37.35329774      12.60128949      19.50228559
Si      39.03068017      18.03229848      11.81158810
Si      37.06138448      16.81519935      12.09860139
Si      38.24528348      14.23286508       9.51828914
Si      34.27260443      20.10706938      13.14601753
Si      34.95463784      19.84716479      10.92052822
Si      35.38900113      17.50372745      10.60318574
Si       1.18137991      10.80100665      14.36578044
Si       0.34860044      11.13507570      10.72998504
Si       1.10409197      15.15219944      12.92153379
Si      38.31350510      14.20049790      15.52168974
Si      39.12294358      13.87437887      13.28038650
Si      36.40795195      12.86512186      15.76919062
Si      37.53311916      14.52832265      11.73340775
Si      39.57144681      11.64871196      12.92692370
Si      35.50471208      13.28953403      12.13268967
Si      37.58212904      10.31854182      13.23984079
Si      36.28734381      17.13439663      14.25235373
Si      33.57243346      16.26976357      16.86661267
Si      34.30442372      15.88104770      14.62570934
Si      34.75313011      13.67960527      14.25199687
Si       0.53942427      11.13050274      16.66907093
Si      37.70350007      10.30193112      19.11068984
Si      38.49771218       9.99153304      16.95236772
Si      36.83492046      10.67961050      15.44674290
Si      34.90817986       9.39602889      15.77817451
Si      35.59889904      13.24712620      18.04470237
Si      34.03693164       9.67654839      18.03695110
Si      35.97826349      11.05007422      11.77159132
Si      14.37323068      31.27139572       3.63209825
Si      10.15957351      32.94515797       4.02741659
Si      10.60263493      30.57733658       4.16119263
Si      14.76494248      30.72477724       5.81047758
Si      15.28522846      28.44208066       5.99832896
Si       8.32866499      29.93048389       1.25008077
Si       6.06478454      29.24388682      38.20171648
Si      12.04387501      30.67911672       0.59299806
Si      12.48757855      30.09390263       2.83125237
Si      10.20509789      29.42202587      39.81558958
Si      13.02088664      27.72917949       2.96425556
Si      10.69960518      27.10946279       0.01031013
Si      14.94698822      27.31161791       1.71930656
Si      11.06273898      30.01628360       6.40575531
Si      11.51232057      27.72037061       6.55434281
Si       6.47035035      28.70406756       0.38397629
Si       4.56507867      29.19243239       1.76494096
Si       6.93469588      26.40999402       0.55801517
Si       5.06870981      28.56795004       3.96015786
Si       3.20766121      25.64218182       1.17681034
Si       8.74035018      29.30144663       3.40566944
Si      11.18586049      26.53476458       2.23640199
Si       9.21810000      27.09936787       3.57685491
Si      11.63269613      24.26999358       2.40200247
Si       9.69091889      26.46172290       5.72508582
Si       7.40662075      25.92960660       2.72742218
Si      10.09375589      24.21315033       5.94416972
Si       7.82042362      23.56874197       2.92749405
Si      13.46711053      27.14044939       5.27300771
Si      13.86751799      24.92653022       5.43483114
Si      12.01472752      23.68907057       4.61083782
Si       5.13401794      25.13139099      39.77453457
Si       5.56148116      22.90357128      39.92126154
Si       8.84022461      25.88415478      39.27538843
Si       9.30343526      23.59232268      39.36400148
Si       9.71307883      23.00421881       1.54076484
Si       7.44571702      22.36892872      38.62611245
Si      10.22686840      20.68314536       1.83634711
Si       7.94756558      20.05952896      38.80476412
Si      13.43430858      23.74055637       1.04628501
Si      12.09785895      20.16444578       0.48200485
Si      39.46217455      24.96773170       1.62777764
Si       3.65443255      25.12537404       3.35217928
Si       4.08990838      22.77132338       3.50037440
Si       8.28239508      22.92702488       5.18294872
Si       8.70797056      20.66423831       5.35303371
Si      38.08949110      21.45283892       1.09372857
Si       1.36886594      24.42083651       0.33465750
Si       3.62356012      21.60252003      39.16859216
Si       1.82336432      22.21205731       0.48018674
Si       2.29929947      21.59592150       2.70431324
Si       2.70729300      19.27119381       2.90333735
Si       6.00566481      22.32469999       2.20466550
Si       8.31595037      19.51592120       1.04325164
Si       6.44622424      20.03924710       2.28421001
Si       6.90637055      19.41115799       4.61167175
Si       4.59698217      18.86119643       1.53023893
Si       5.06217454      16.50943702       1.74126498
Si       6.93739420      15.95082572       0.37275686
Si       0.88827037      18.04863438       2.12023042
Si       1.35679770      15.83574252       2.30843226
Si       3.17997711      15.25338943       0.98372809
Si      14.24389852      38.28813039      21.94794307
Si      15.79057488      32.22499264      24.38426842
Si      17.32768118      33.26581915      25.86204317
Si      13.66059673      35.38500176      24.50771146
Si      13.08140023      32.58400103      27.03291079
Si      15.13918654      36.34293615      26.02040714
Si      14.66699377      33.61469392      28.52855861
Si      17.96028633      36.12034020      23.30586673
Si      17.84214629      38.38767217      22.97367871
Si      17.34451619      35.51213529      25.53891702
Si      18.87003687      36.56915856      26.92944869
Si      14.05343464      30.77685974      31.10203956
Si      18.94225876      29.61515053      27.89707635
Si      16.75911771      30.42095588      28.33656237
Si      20.50288635      30.58983501      29.37181915
Si      16.72140284      32.76905515      28.04436747
Si      16.15833682      29.93110897      30.63571913
Si      18.32055576      33.74239409      29.56039352
Si      17.75766826      30.98662376      32.00739423
Si      19.49239221      32.45955642      25.42716580
Si      21.05579188      33.42106546      26.84204478
Si      20.44053695      32.97529755      29.01300690
Si      22.08811738      33.91569022      30.50531490
Si      11.48879527      38.66152880      24.71862634
Si      13.04207169      39.56575379      26.19176905
Si      13.06442255       1.92629105      25.85528778
Si      11.87914580      33.95306869      31.16761247
Si      14.63359558      35.97730421      28.26059299
Si      12.38686145      36.75696541      28.72602279
Si      16.20258527      36.98538749      29.65619575
Si      12.47157956      39.06117719      28.34396354
Si      11.89216573      36.25215898      30.96364367
Si      15.10963891      38.72938461      25.70031538
Si      18.87433218      38.92901256      26.69184086
Si      16.76092958      39.73030404      27.09296355
Si      20.51325660      39.82684197      28.15461565
Si      16.67591680       2.05134870      26.80830819
Si      16.15446121      39.23269590      29.31877876
Si      13.41647996      30.28401781      33.31287568
Si      15.05691642      31.25570329      34.74830107
Si      14.02466602      33.09823227      30.74729215
Si      17.74547972      33.27350393      31.76987496
Si      15.62675888      34.11993915      32.21395155
Si      19.33581112      34.23973160      33.20013361
Si      15.61989254      36.42994652      31.93090821
Si      15.04637321      33.57424159      34.47324588
Si      18.31378044      36.11216626      29.23507271
Si      22.02999275      36.21104097      30.16887878
Si      19.90256025      37.04824584      30.66408206
Si      23.55067983      37.26862080      31.62886102
Si      19.74604032      39.46544278      30.32260270
Si      19.32649301      36.60882844      32.90649057
Si      23.56838397      39.59528051      31.34058185
Si      17.19618588      30.44541009      34.31380417
Si      18.73105557      31.43486525      35.74348228
Si      18.67011943      33.79647706      35.49713544
Si      21.48386813      33.40059932      32.75201185
Si      23.04060295      34.35176071      34.17492529
Si      22.97289712      36.75721483      33.87491098
Si      22.43177578      33.88923725      36.45444298
Si      26.61438793      36.96303929      34.93023725
Si      26.65683915      22.44543922      19.87978024
Si      30.16293243      24.98982949      20.77849022
Si      30.24650228      22.73859850      21.17041286
Si      28.80031129      21.63021419      19.55224534
Si      28.89562615      19.30406037      20.00025575
Si      22.36316757      19.38583761      21.17204824
Si      25.88964521      21.93766023      22.04015554
Si      25.97150779      19.59540585      22.46284432
Si      24.62450908      18.56294885      20.94364933
Si      27.49424475      15.91258417      18.83111651
Si      24.61334069      16.25242055      21.30937422
Si      21.61462833      18.85132321      23.47589362
Si      29.51704459      22.18864985      23.30687275
Si      29.58808118      19.85343444      23.69083808
Si      30.36816241      20.49532054      27.37415685
Si      32.43875282      21.87479986      20.80069528
Si      31.11249339      18.55886170      19.69845921
Si      32.54249371      19.58519178      21.18878209
Si      31.06740214      16.15667560      19.95733796
Si      31.81766000      19.11819687      23.40297731
Si      31.83203044      16.78394215      23.71944078
Si      33.30619866      15.40710905      19.73194286
Si      33.37496253      13.07489860      20.10107402
Si      25.29091867      16.90319042      25.05312508
Si      28.87494922      19.42919581      25.90092489
Si      28.89117750      17.05034547      26.26670138
Si      28.19121473      18.80895009      22.18310287
Si      26.75779644      15.41404628      20.95615870
Si      28.23407155      16.49667759      22.52343218
Si      26.79096306      13.13329577      21.38265498
Si      30.34725462      15.74539108      22.19115768
Si      27.56652429      16.04447230      24.71137677
Si      30.44988772      13.35640877      22.59997846
Si      27.59786904      13.72072068      25.02836354
Si      29.70061566      15.16358747      18.43893368
Si      29.65693668      12.86785843      18.84032051
Si      31.98413437      12.02400317      18.53241552
Si      29.02956349      12.34747067      21.01742041
Si      31.96337932       9.67307944      18.92842840
Si      24.63655970      16.33292784      27.20458125
Si      23.91015249      15.81322850      23.49475593
Si      26.16627888      12.66481199      23.57598852
Si      28.27935062      16.57405677      28.41656219
Si      28.30141011      14.30763554      28.78220346
Si      31.14647187      16.34656490      25.98443426
Si      29.77858856      12.85503340      24.82249510
Si      31.24056178      13.97948194      26.32299445
Si      32.65129505      12.60782581      22.24800172
Si      32.72745904      10.29689710      22.67266855
Si      26.91091758      13.21283320      27.31218307
Si      13.71654469      17.36753998      20.75745314
Si      10.60488568       8.88773107      16.18309000
Si      13.42650122       7.26016833      20.54546621
Si      10.88687124      11.73473595      13.68005739
Si      11.34053146      13.82040478      19.21030296
Si      10.63710780      12.48560003      17.53549732
Si      13.64768956      13.80298997      19.39203951
Si      11.31628039      10.25171663      17.91671227
Si      11.61300649      13.19771227      15.43518440
Si      13.68701333      10.18742648      18.04958113
Si      13.87667251      13.08267752      15.67754239
Si      14.38141733      11.56297504      19.83388195
Si      16.71016177      11.55489511      19.93907120
Si      14.62241553      18.17701232      18.70769766
Si      14.00152957      16.77462641      16.99703096
Si      16.95767313      18.04543038      18.86211947
Si      14.60537387      14.49024802      17.33242797
Si      16.94515745      14.48128005      17.56502499
Si      17.65843125      15.89868280      19.33514460
Si      19.99667047      15.81923019      19.37877344
Si      17.88048501      18.85192187      16.88739340
Si      20.22714273      18.77438025      17.07734094
Si      11.29459391       6.63555698      16.54705955
Si      13.64352834       6.60910985      16.72890381
Si      11.55302426       5.97902464      12.78414334
Si      13.93265251       5.96923826      12.91925328
Si      14.39064327       4.41063449      17.14708194
Si      14.14371424      12.49614146      11.80023835
Si      11.52809836       9.60470834      14.13369060
Si      14.57209008      10.97286505      16.08226289
Si      13.88741016       9.58656215      14.24293634
Si      16.95014851      10.82029779      16.17269399
Si      14.50646366       7.35288410      14.70350860
Si      14.77583108      10.26605969      12.28561461
Si      16.96526393       7.25735696      14.85461063
Si      17.22258583      10.22047219      12.41296034
Si      14.38707432       8.00117052      18.49933632
Si      17.41039273       9.29869389      20.32243675
Si      16.73562365       7.88388814      18.57378583
Si      17.67802086       8.67471317      16.63004670
Si      19.99348519       8.61711707      16.77802737
Si      14.84686862      13.88267310      13.55560448
Si      17.88563560      15.27234494      15.50482141
Si      17.20469613      13.90090020      13.74429823
Si      20.27852551      15.18946241      15.71512321
Si      17.92284811      11.62479618      14.17291181
Si      18.05823773      14.63696713      11.77980742
Si      20.23787943      11.64463232      14.32882698
Si      20.52129409      14.52523531      11.96285590
Si      17.65671310      12.28406153      17.94367026
Si      20.73926107      13.66825987      19.84930797
Si      20.02886354      12.19619923      18.18318556
Si      23.08261535      13.58057084      19.99481622
Si      20.70147452       9.93427054      18.58950853
Si      20.97394442      13.03948328      16.04349298
Si      23.32146362      12.94384971      16.26542175
Si      18.09612387      18.16337491      13.09792371
Si      21.19893423      15.95086430      13.67928928
Si      20.87631829      16.59966715      17.48486518
Si      24.00584902      14.39170849      18.08330286
Si      14.61090807       3.73423716      13.32881050
Si      16.94435320       3.76059888      13.51274464
Si      14.90725216       6.73183156      10.85960195
Si      17.86103882       8.04190113      12.76147607
Si      17.14049651       6.67023438      11.00831099
Si      20.30242595       7.98122005      12.97024688
Si      17.88068520       4.45550249      11.47375305
Si      20.47814960       7.35478553       9.22270113
Si      17.59988386       5.07868245      15.29897532
Si      21.04984042       5.78094446      13.43031146
Si      21.20646189      12.37705452      12.33322243
Si      23.53904172      12.31264015      12.46314079
Si      21.19041490       8.67764372      10.96639706
Si      23.60233189       8.69075394      11.12717341
Si      20.96816420       9.37875371      14.72841276
Si      24.00012190      10.76343955      16.61400307
Si      23.28179841       9.32641137      14.94639217
Si      24.22841926      10.01052369      12.90586045
Si      21.24388311       5.10685627       9.65021418
Si      32.19367218      21.05103749      39.68790352
Si      32.23081917      19.17390908      36.33865522
Si      34.55655776      21.43695429      39.48184609
Si      35.69469580      19.64869561       0.48198017
Si      35.72517068      17.80383166      37.11779227
Si      29.38640380      18.69859491      38.84745858
Si      26.53280004      18.17805960       1.29645412
Si      26.49768890      16.24517288      37.96137102
Si      31.69680667      20.85800089       1.99003584
Si      29.39589763      20.57155270       2.18470024
Si      32.89523858      19.13991377       2.91301219
Si      28.78524104      18.51258160       1.11508320
Si      29.95726057      16.77222499       2.03058477
Si      32.31800581      18.97966757       5.24378941
Si      33.41571993      17.30479190       6.30034382
Si      29.37050106      14.89097726      32.14868502
Si      25.39202485      16.15288927      33.59617190
Si      26.54095947      14.34077039      34.67416669
Si      26.49972388      12.47152621      31.26849760
Si      31.70860699      17.11860492      35.24299598
Si      29.37274742      16.76127967      35.50720511
Si      32.86707210      15.32043887      36.30310474
Si      28.80441531      16.70019277      37.74489404
Si      28.83024740      14.71218468      34.45287396
Si      29.97029676      14.83587937      38.74621550
Si      29.98760578      12.93968461      35.42867927
Si      31.68930122      19.01865748      38.62710323
Si      35.14647045      17.61000907      39.41336782
Si      32.87876536      17.27152285      39.65018395
Si      36.36773874      15.87207100       0.39473466
Si      32.22379624      17.12633732       1.86278961
Si      32.32371369      15.19528047      38.57002470
Si      33.53122448      15.33994051       2.95773463
Si      33.41450972      13.51387706      39.53216614
Si      35.27536609      19.47747509       2.76079971
Si      36.38553367      17.75001058       3.79987627
Si      35.74447703      15.74358570       2.71193627
Si      36.91596065      13.93453576       3.76775133
Si      28.80069657      12.85894709      31.10007342
Si      29.99155223      11.03302456      32.10212809
Si      32.36414097      13.41218379      35.15774422
Si      33.49556767      11.55844478      36.17518389
Si      33.48759797       9.67466368      32.85936067
Si      35.17241955      15.75292078      36.08874636
Si      36.34069636      13.94831905      37.05626987
Si      39.84698911      12.55996347      37.88750424
Si      35.77769259      13.77304255      39.36057022
Si      35.84303131      11.93044829      35.96731820
Si      36.94235129      12.03267708       0.35855944
Si      36.93750895      10.19350712      37.04542916
Si      38.71714422      16.21039805       0.22837857
Si      39.83652820      14.45655370       1.33456894
Si      39.26598658      14.35301025       3.54539737
Si      39.23925352      12.38119978       0.15951779
Si       0.44770079      12.51924073       4.48579706
Si       0.40600904      10.63964786       1.12049402
Si      39.29406537      10.55321467      36.81394844
Si      25.98813097      16.06291272       0.26506939
Si      27.09801678      14.34752546       1.19740490
Si      29.40918922      16.65488899       4.34698944
Si      27.05463591      16.22422331       4.58318282
Si      30.65794172      14.86418092       5.42952098
Si      26.45610056      14.23094276       3.54599860
Si      27.69673310      12.45449555       4.53504171
Si      27.14446282      10.60380187      34.54224123
Si      25.90440589      14.20321261      36.91857479
Si      29.40726213      12.86075665      37.63086138
Si      27.10531323      12.46408337      37.98198558
Si      30.54239113      11.12117029      38.72362595
Si      26.52514461      12.32524988       0.14043863
Si      26.54756777      10.44928090      36.89364488
Si      27.76582143      10.65646403       1.18558626
Si      29.45687118      14.73089745       1.05430156
Si      32.87160464      13.30421203       1.91203034
Si      30.65975897      12.94336916       2.01156141
Si      34.06597087      11.60106969       2.81947414
Si      30.03297687      12.86569632       4.34307883
Si      29.97674036      10.91986759       1.01917319
Si      31.14608699      11.07929711       5.30993096
Si      32.89745955      15.22904846       5.11182071
Si      36.42275443      13.81751766       6.00355715
Si      34.07840909      13.43834698       6.20324336
Si      37.57814238      12.02844252       6.99769911
Si      33.47820341      11.48319241       5.09635134
Si      34.65360067      11.57806276       9.43510254
Si      36.95238889      11.87724552       9.25522929
Si      29.39101354       9.12717781      30.95646476
Si      27.09575990       8.62765880      31.22470930
Si      26.47452936       8.64025246      33.53919634
Si      29.44067009      10.92611217      34.32620215
Si      32.89572597       9.50949543      35.15194871
Si      30.58653660       9.16664792      35.34980021
Si      30.03476743       9.12482354      37.57872803
Si      32.90772461      11.51776911      38.51167548
Si      36.37888726       9.98571408      39.24757317
Si      34.06913125       9.67155127      39.48871897
Si      36.34533572      11.94624559       2.65242123
Si      39.80284398      10.58411150       3.41294281
Si      39.82209193      12.40050458       6.83155767
Si      24.80890205      10.09298500       3.64891816
Si      27.13934721      12.34992152       6.86952855
Si      28.35981076      10.60446926       7.85020143
Si      27.13440518      10.38796198       3.41357822
Si      30.59819551      10.87277714       7.61255366
Si      13.53922259      14.51738528      38.73863952
Si      13.53435521      11.24663432      36.57135713
Si      14.15269205       7.97011821      38.22145924
Si      14.13550623      11.14308354       0.35963694
Si      14.64585244      10.21553074      38.24723455
Si      17.61745933      10.23209273       1.67258482
Si      17.05010208      10.43030087      37.90306225
Si      16.35278483      10.63594083      34.06924369
Si      14.14789632      13.59573978      36.57015669
Si      16.99744229      16.06961366      36.24384934
Si      16.40774583      13.85057390      36.27780501
Si      19.33012098      16.34336137      35.94151818
Si      17.70611797      12.72870969      37.98015721
Si      17.01795560      12.94403892      34.18115526
Si      19.91484189      12.97464858      37.49089757
Si      19.29834722      13.10289095      33.74938300
Si      20.50110850      15.25634070      37.54079754
Si      22.84118723      15.49295702      37.22970500
Si      16.43260344      16.36239325      32.45923210
Si      19.89795803      15.39531591      33.78170565
Si      22.15526194      15.56973451      33.38698719
Si      19.91231975      18.56352086      35.88433848
Si      18.22378758       6.85104817       3.41613587
Si      19.39654158       5.63188329       5.02278541
Si      16.95520670       7.21427165      35.75393158
Si      15.34302083       6.79616629      39.90293621
Si      18.23082532       9.33574558      39.52805546
Si      17.60741654       7.02223916      39.52579031
Si      20.53279703       9.55968340      39.16058180
Si      18.77165173       5.90036324       1.30052887
Si      18.11692564       6.10947704      37.46304028
Si      21.06897214       6.10484590       0.87447469
Si      20.47252745       6.32948293      37.05904733
Si      21.10864927       9.30328023       3.06336250
Si      21.67785271       8.32271887       0.87848764
Si      24.03414014       8.61270582       0.49804288
Si      19.83675141       6.52337105      33.33491141
Si      17.51828454       9.46399782      35.80206261
Si      20.50538240      12.00569697      35.42288202
Si      19.89816323       9.65923133      35.41762857
Si      22.74417164      12.19751890      35.15607448
Si      21.02795382       8.52600205      37.12988044
Si      20.38573963       8.70630271      33.36563316
Si      23.37324802       8.77202614      36.71797763
Si      22.70588202       8.97290658      32.95835749
Si      21.10322673      11.80339360      39.17303461
Si      23.95534728      14.29737892      38.91845471
Si      23.48539781      12.02559252      38.81817639
Si      24.57316939      10.85718878       0.57289838
Si      23.99602562      11.09829066      36.81298266
Si      22.72447164      14.70543915      31.34851488
Si      22.16869216      12.44123931      31.31547338
Si      23.30979162      11.26545541      32.98470643
Si      25.63500315      11.50341799      32.61606175
Si      23.39513229      14.46670618      35.16513762
Si      22.82271260       4.76521550       6.34531131
Si      21.61441003       5.14874731      38.84996634
Si      23.91715411       5.46404867      38.40908173
Si      22.22872152       4.96048153       2.62093541
Si      21.03291427       5.40185624      35.04230041
Si      23.95983365       7.85604199      34.65828465
Si      23.39239280       5.57021449      34.69294189
Si      24.47621834       4.47076487      36.29512852
Si      23.32608072       8.07179108      30.88159690
Si      15.26837368      22.76501891      26.67698163
Si      18.01908387      21.77906645      29.26057083
Si      15.89948056      25.00654770      26.93675793
Si      14.52489638      25.86290193      28.67768605
Si      17.12130542      24.87254091      31.21466099
Si      13.67358277      29.08164030      30.74919991
Si      16.35322603      28.12568465      33.26742453
Si      12.61001536      20.23959935      25.68770375
Si      10.33910017      20.04269533      25.06821559
Si       8.98217600      20.92614429      26.80734112
Si      17.86000870      18.29841696      30.92974433
Si      15.74201739      21.53139507      28.65264257
Si      15.28557607      19.28212219      28.27800891
Si      14.40819042      22.44730837      30.32560508
Si      12.98719847      19.09703231      27.79059068
Si      15.54103196      18.08710333      30.33317938
Si      11.58512479      19.97231326      29.40433020
Si      14.24878857      18.99270068      32.01068427
Si      13.13029796      22.45583959      26.05921889
Si      12.33958919      25.68170132      28.07215275
Si      11.73454429      23.40268311      27.71636909
Si      10.95094934      26.55549230      29.74536704
Si       9.49035330      23.19517480      27.12818176
Si      12.21085275      22.23317524      29.74285665
Si       8.12207957      24.10731183      28.83178310
Si      10.80491256      23.08778053      31.41006302
Si       8.64317656      26.35451180      29.11747845
Si       7.38175659      27.29956115      30.85356034
Si      16.88722490      18.03654335      34.58125531
Si      18.38000661      20.61101907      31.21656605
Si      17.60163491      23.70490516      33.21657841
Si      17.05458755      21.44684625      32.98338092
Si      16.26734431      24.61042294      34.97038743
Si      14.81443095      21.24836559      32.31084748
Si      17.43715726      20.35313456      34.91262957
Si      13.46506595      22.11588826      33.99389600
Si      16.03386024      21.22310993      36.59003495
Si      14.97793644      24.69051372      30.58818254
Si      14.08210854      27.79553289      32.64315789
Si      13.55600215      25.55415904      32.32281599
Si      12.81008561      28.77419675      34.32999382
Si      11.25394302      25.43014374      31.78224931
Si      14.04734680      24.44574296      34.34417237
Si       9.93140610      26.32071239      33.48224997
Si      12.60945228      25.35288933      36.02733063
Si      11.50071734      28.83684612      30.07909198
Si      10.50942515      28.51642828      33.77327131
Si      16.65154592      23.44718137      36.95720039
Si      15.15050814      24.34190589      38.66141666
Si      16.78148164      26.89702854      35.29624307
Si      15.88461140      30.01871000      37.30262105
Si      15.39346704      27.77144209      36.93993111
Si      13.14888995      27.56880874      36.31621534
Si      15.75353685      26.55888941      39.05401692
Si      11.85033772      28.41872208      38.12129683
Si      12.33097417      30.81493594      38.34959347
Si      17.19045259      30.00295010       1.56757955
Si      14.93350450      29.73475118       0.93856132
Si       8.87124146      17.50935865      28.51931354
Si       6.74158906      20.69150322      26.15211881
Si      12.86696452      15.60748759      29.38688122
Si      11.98482848      18.74673542      31.42163034
Si      11.53080326      16.53701481      31.07112505
Si      10.68906243      19.59989798      33.12590292
Si       9.17218663      16.31383916      30.47706590
Si      11.83540995      15.35617979      33.02040180
Si      10.46289439      16.20051782      34.78367446
Si       9.31498044      19.73264008      28.76436345
Si       8.57614705      22.94204789      30.85421033
Si       7.95309312      20.62029638      30.50712152
Si       7.18166082      23.85876319      32.53418525
Si       8.37592802      19.42811468      32.48444559
Si      14.65250522      17.79752222      33.95400811
Si      13.79676645      20.95557346      36.15390896
Si      13.29394942      18.75087507      35.72631463
Si      12.42063696      21.81283006      37.76018980
Si      11.02632767      18.44254260      35.08847946
Si      13.65069848      17.50098878      37.74467018
Si       9.64270963      19.33598226      36.78446661
Si      12.34476566      18.46289349      39.45962699
Si      11.13462603      21.88621990      33.41522544
Si      10.34989978      25.09697887      35.49432228
Si       9.76031645      22.90254759      35.05241301
Si       9.04588364      25.99333913      37.19834747
Si       7.49493712      22.60077812      34.50651557
Si      10.17083766      21.62845097      37.14894371
Si       7.65997884      26.06838796      32.85973339
Si      12.94028855      24.12773305      38.05269972
Si       9.49925003      28.28673845      37.41281161
Si      10.05537159      18.23851838      38.78668566
Si      11.65589046      19.85527993       6.47821495
Si      13.42253505      17.72797667       9.16446182
Si      12.87179035      18.79420330       4.86551262
Si      13.03310432      17.12423822       0.65916218
Si      11.61076743      16.89627296       4.18566734
Si       9.76092828      15.93846138      39.17708869
Si      11.41034619      18.55992394       8.42896917
Si      10.14561844      16.53243783       7.73581776
Si       8.40840957      18.72881491       4.99013196
Si       9.49936640      17.52446911       3.32538561
Si       8.04494122      17.27766861       6.89161169
Si       8.23037438      15.64719931       2.73205151
Si       6.79303087      15.35458742       6.25294179
Si       5.42317313      15.10733607       9.78392437
Si       4.67012398      16.03079042       5.41338241
Si       3.42952741      14.09991442       4.76896448
Si      13.39611524      14.74859112       6.82585672
Si      15.19321785      12.59878521       9.44446933
Si      12.79605146      15.73206595       2.48767956
Si      11.53773826      13.83132375       1.84349153
Si      13.30978789      11.70946258       4.50864179
Si      12.64278018      12.64666325       0.11432523
Si       9.82897521      15.18851315       9.56839036
Si      11.94091902      14.43184345      10.35920103
Si       8.61247757      13.28854078       8.93893786
Si      13.15089134      13.32295477       8.63347379
Si      11.65658468      12.94327752      12.25569867
Si      11.81563067      11.43209132       7.97168668
Si      10.37574257      11.15920247      11.52995449
Si      11.30118037      15.41356464       6.05799389
Si       7.92560633      14.20984695       4.48903995
Si      10.06005836      13.52814489       5.33182767
Si       6.81834564      12.31407559       3.97039298
Si      11.22836746      12.40962836       3.63025681
Si       9.78702981      12.11329609       7.19781973
Si       9.95534588      10.51030146       3.01634466
Si       8.56319459      10.20936927       6.60021741
Si       9.40804973      14.59141438       1.05715873
Si       6.07826776      13.29344341      39.63068970
Si       8.25129002      12.61866279       0.37492718
Si       7.87955098      11.18641805       2.12911412
Si       3.73320620      11.76523230      10.99201452
Si       8.35025683      11.84319270      10.67298268
Si       7.08314040       9.91525887      10.04502412
Si       5.59691456       9.70629398      13.61943465
Si       6.46570850      13.97687794       8.08000210
Si       3.20334977      12.73688021       6.56984604
Si       5.29743267      12.00050211       7.38471438
Si       2.00678720      10.84377691       5.91507172
Si       6.35337082      10.86233736       5.76916900
Si       5.03944808      10.62554736       9.19987561
Si       4.65087417      12.98626685       3.06629678
Si       3.51306008      10.30389464      12.81319103
Si      14.43998726      10.60004435       2.75565877
Si      11.52453924       9.99936552       9.84154738
Si      13.69738758       9.28268772      10.64791432
Si      14.81614807       8.20891412       8.91286143
Si      13.03287729      10.28531169       6.36526478
Si       6.80735660       8.47498618      11.89654912
Si       8.88660236       7.75368087      12.74284311
Si      22.18995024      14.25452705      22.86053738
Si      22.11376652      11.85673349      25.88726770
Si      21.05647415      12.66252633      21.62235097
Si      18.72208311      12.90983742      21.78196289
Si      24.88060481      12.93637081      29.22980962
Si      22.55193886      13.37577272      29.46749746
Si      22.08853454      17.81181408      25.64939337
Si      22.65708382      15.60555545      26.43914021
Si      19.72764843      18.07886690      25.74198746
Si      21.60766076      14.08895523      25.15270304
Si      22.05032976      15.46427908      28.65542213
Si      19.20305780      14.39972103      25.31830835
Si      19.63297842      15.76669966      28.84704851
Si      21.62891351      16.36376136      22.09030418
Si      18.73408218      18.85600645      21.47134833
Si      19.24926017      16.66406313      22.23524946
Si      16.44747159      19.14646326      21.69360523
Si      18.09584012      15.10993338      20.97631985
Si      18.67758653      16.49368298      24.53570865
Si      15.86652528      15.41025208      21.17656267
Si      16.41202284      16.80498014      24.85059480
Si      19.18312427      17.85748171      28.10212677
Si      16.83810151      18.23193997      28.26274102
Si      16.90134935      20.61973299      25.24066134
Si      15.66701040      18.97705295      23.95677576
Si      13.51087340      19.27603357      24.16013203
Si      15.87580676      21.29945103      20.90948678
Si      18.66901183      10.65564591      24.81035998
Si      15.18540020       9.32106135      23.67019256
Si      21.47158554      11.70646388      28.16383133
Si      18.54271329      14.18627449      27.49601374
Si      19.19546009      12.00266134      28.31040149
Si      16.30299293      14.43643600      27.77538247
Si      17.99049591      10.38480542      27.05665440
Si      15.71197643      10.71784394      27.28107610
Si      18.13653005      12.72843122      24.06896150
Si      15.19923322      15.22367701      23.49881309
Si      15.79712356      13.04192949      24.19096813
Si      12.92094759      15.59069001      23.58083935
Si      14.71404534      11.45638986      22.93919410
Si      15.13331582      12.83367758      26.46963224
Si      19.00659646      15.52540538      31.09545707
Si      15.69618710      16.57401814      26.95958768
Si      13.37169134      16.98310313      27.16719313
Si      12.22736217      15.28520529      25.88815717
Si      12.31462668      17.68493912      22.87746778
Si      14.52536423       9.10715601      26.00045995
Si       7.30641239      28.98153775      28.91730655
Si       8.87508809      29.12291984      32.43163450
Si      11.83345653      31.21734197      31.05907629
Si       0.91127696      28.03355983      29.61948764
Si       0.19578616      31.29432061      27.67180993
Si       3.83424003      28.41870896      36.73088933
Si       4.52684792      28.10057349      32.24234576
Si       2.33473554      28.21940446      33.07146709
Si       5.26973229      30.23975176      31.78031200
Si       0.87234270      29.28822145      31.66786780
Si       2.38402356      29.46916821      35.21977439
Si       1.71518287      31.41375681      31.21563166
Si       3.22527760      31.65777718      34.70512690
Si       3.00592598      27.93641361      28.73031731
Si       5.88142760      30.04898822      27.30997381
Si       3.76760907      30.13988010      28.27880881
Si       6.67998719      32.10774604      26.92818815
Si       2.32895558      31.15121035      26.76760814
Si       3.90094232      31.28805695      30.32072831
Si       3.05087080      33.29992531      26.32577695
Si       4.58873236      33.45167322      29.86846351
Si       5.26911442      33.17105151      25.45889394
Si       6.02591042      35.37695568      24.89771452
Si       8.26846015      30.63572714      38.87922527
Si       4.69051488      31.79690545      38.24716785
Si       6.09280717      28.26580040      35.81222462
Si       8.98500438      30.30442776      34.45659904
Si       6.74233754      30.47713849      35.34313796
Si       9.73150578      32.54984441      33.99070954
Si       5.32448841      31.52702815      33.83001170
Si       6.90419939      31.67251173      37.38334779
Si       6.08846512      33.64486871      33.35072251
Si       7.67101884      33.86754867      36.90568251
Si       7.46170237      30.14295655      30.89465250
Si      10.42189861      32.25862965      29.47769018
Si       8.20081952      32.33422714      30.50098379
Si      11.09632884      34.46907772      29.07721718
Si       6.78283616      33.38253811      28.94464015
Si       8.25764715      33.61567962      32.45424612
Si       7.47715161      35.54985532      28.48483842
Si       9.07860295      35.69564058      32.06451984
Si       9.73316842      35.47496448      27.58242807
Si      10.48091608      37.64844003      27.13539687
Si       9.13523539      33.98346331       0.45169518
Si      10.50873465      30.46972814      37.94559248
Si      11.25306908      32.71827596      37.55099944
Si       9.76067507      33.79560787      35.93223251
Si      10.57047271      35.98078517      35.59378193
Si      11.89600491      32.41127066      33.03859434
Si      38.10617402      32.59145101      30.66421007
Si      37.43482350      35.81161659      28.73619514
Si       1.69060079      32.63403818      33.17239355
Si       2.54296675      34.86039904      32.74694166
Si      38.14608115      33.82770932      32.59392535
Si      38.83615944      35.94480924      32.21376690
Si       0.41906564      36.16687578      35.74877458
Si       0.19010736      32.47490395      29.69566375
Si       3.19029698      34.52829045      28.29478884
Si       0.96780171      34.64242409      29.24982833
Si       3.94835216      36.70993779      27.90224395
Si      39.57249932      35.74247125      27.76693235
Si       1.01328622      35.85594454      31.25227716
Si       0.34751685      37.87703449      27.33728719
Si       1.80893830      38.11190323      30.81169019
Si       5.51778935      35.20194636      39.83284014
Si       3.25598576      32.81629651      36.77233876
Si       6.13517098      34.91692148      35.38720246
Si       3.97845094      34.97665691      36.30079256
Si       6.91112955      37.10811123      34.90724400
Si       2.48702596      36.07694450      34.78155196
Si       4.05960528      36.33272586      38.32005105
Si       3.33677388      38.21311201      34.34280793
Si       4.86891360      38.38391890      37.82066397
Si       4.68819687      34.69976408      31.80039151
Si       7.54329851      36.78688194      30.53549615
Si       5.43352345      36.94753126      31.44792432
Si       8.37232165      38.97283449      30.11427219
Si       3.98082300      37.95086580      29.86396326
Si       5.36876759      38.14118135      33.43256771
Si       4.76822976       0.16612094      29.51726648
Si       6.24755630       0.32295233      32.98268874
Si       6.10424502      36.60665319      26.97722084
Si       6.85593673       0.10590942      28.50465302
Si       7.74377472      35.08009280      38.89379554
Si       6.98245459      38.36176970      36.96439225
Si       9.18840320      37.00996315      33.99259505
Si       8.45224576       0.14884524      32.04530082
Si      10.49506794      38.98660709      29.12361854
Si      38.97258697      37.17293252      34.26279289
Si      39.67852742      39.42517500      33.75432407
Si      37.39332091      37.01586794      30.63293595
Si      38.25806916      39.20172662      30.21223683
Si      38.30645137       0.38495695      32.22751790
Si      39.06175800       2.62891981      31.81127096
Si       3.41746984      39.52356024      36.33183411
Si       1.31232542      39.59941500      37.31536472
Si       4.18752948       1.67837478      35.97171953
Si      39.83448933       0.59025488      35.78478020
Si       1.88541076      39.33238357      32.82220926
Si       4.87014192       1.35701850      31.48408439
Si       2.64088382       1.48191781      32.37169222
Si       1.21945675       2.55044188      30.90201427
Si       2.80378376       2.68207462      34.44824399
Si       6.35347251       1.47185761      34.95771276
Si      21.99011331       2.76307210      30.49871084
Si      25.54288673      38.50949485      37.07829890
Si      25.00985709       0.95102686      33.32197299
Si      23.33789697       2.47393418      34.05334163
Si      24.69711709       2.30179193      37.66002699
Si      22.85453158       4.93377140      30.31173249
Si      22.70989439      36.11857144      35.94064956
Si      21.38361402      33.45993167      38.33489725
Si      20.61714148       0.11955497      32.83297271
Si      19.20467713      37.44624033      35.29866993
Si      20.13473378       2.53292386      29.08603920
Si      18.39251111       4.02035202      29.88173617
Si      18.72612986      39.83382303      31.51720660
Si      15.70297787       1.63820066      28.55917504
Si      16.95885087       1.28715701      32.29143849
Si      16.54504651       3.79246284      28.51836540
Si      22.69716101      33.20016368       1.93662956
Si      24.93690647      38.11040726      39.35123086
Si      24.05626628      35.92094236      39.48816853
Si      23.33900370      39.58741976       0.00812742
Si      22.21357896      35.67941157      38.15468777
Si      20.54209042      37.25130863      38.78185698
Si      21.81986595      36.98849606       2.41021155
Si      23.55300268      38.32901288      35.75486095
Si      22.85027482       2.05647341      36.24128613
Si      21.99046019      39.85868044      36.47284985
Si      21.12164610       3.55563468      37.03624541
Si      19.99312470      39.63494574      35.02607495
Si      21.42085363      39.42657968      38.74644746
Si      18.38887170       1.23339596      35.86155572
Si      19.73591981       0.94559155      39.37906567
Si      21.48269243       2.27855532      32.77832801
Si      19.79556298       3.81094186      33.49395415
Si      17.81973553       3.60619692      32.00565202
Si      19.25844821       3.38453604      35.64621145
Si      17.57507144       4.89538655      36.33532204
Si      24.64065122      39.43817525       3.63706879
Si      22.70764432      39.17799417       2.27681722
Si      21.15500108       0.69559102       2.92184858
Si      22.48730904       0.53433208       6.60712048
Si      24.08623665       1.83626015      39.88687107
Si      22.43192145       3.34034306       0.56508950
Si      20.56865837       3.11097158      39.23876723
Si      21.94591501       2.86896122       2.89115171
Si      17.73046656      34.81849557      37.68596434
Si      16.36054939      32.20079484       0.10287396
Si      17.31107318      37.20901317      33.92513315
Si      15.66352030      38.73519877      34.68470303
Si      15.88642762      34.53808964      36.39566910
Si      12.92554209      36.29287469      33.42135669
Si      14.22262350      36.15716824      37.02184316
Si      15.10231305       1.14766391      30.89731889
Si      14.24151483      39.02098516      31.03688491
Si      13.45267014       2.65881666      31.63523286
Si      13.77454073      38.54954910      33.30674651
Si      10.70260167       0.26335593      30.43937829
Si      12.08035412       0.09684098      33.97779283
Si      11.52568378       2.47600249      30.24236963
Si      20.54604585      34.30105948       4.82049433
Si      17.70436348      31.99129820       3.66298361
Si      20.80326512      33.12648401       0.53102099
Si      19.99968322      36.77122427       1.12448726
Si      19.13340662      34.55128567       1.25655163
Si      18.38512698      38.28975513       1.80642092
Si      17.26892711      34.27730082      39.95046276
Si      18.63946795      34.12777327       3.54056582
Si      15.60570447      35.94971746       0.65422127
Si      16.96940679      35.66075054       4.15986759
Si      18.64535028      37.05982310      37.45690082
Si      17.80711625       0.75156349      38.02278502
Si      17.05478187      38.49998398      38.20854162
Si      16.18528720       2.23946995      38.78680087
Si      15.08474462      38.31955412      36.89856318
Si      16.36887355      38.01979539       0.44626024
Si      13.44621086      39.87601824      37.61264150
Si      14.77846285      39.56705657       1.14967180
Si      16.46402008       0.89638004      34.39170429
Si      15.65668124       4.60622956      34.99178426
Si      14.82848344       2.45262885      35.26373251
Si      12.93477696       2.23772389      33.82715487
Si      14.23089933       2.01369332      37.39384907
Si      11.29052175       3.83379066      34.54867467
Si      21.36253682      36.58494968       4.71202671
Si      20.55981472       0.29250889       5.29850059
Si      19.69029485      38.03600747       5.37493324
Si      17.75268122      37.84520116       4.00836343
Si      19.20958107       0.47227061       1.66341716
Si      17.57155383       1.98389974       2.32841405
Si      16.97529501       4.45900235      38.60105004
Si      14.47113645      31.95977178      38.74335045
Si      12.89145528      33.40794464      39.51592382
Si      12.36361063      35.89320796      35.67193349
Si      10.67245553      37.42778454      36.41580624
Si      10.22210278      39.76483819      32.64518320
Si      17.16079032      31.59528738       6.00844336
Si      15.81591858      31.73138077       2.34688694
Si      15.07194705      35.42481209       2.87542910
Si      14.18535515      33.24558125       3.10104313
Si      13.65023557      35.69514488      39.28972495
Si      11.53585841      39.54979416      36.23559652
Si       9.37245875       3.57452998      33.21433818
Si      13.20401822       4.35937387      24.23069457
Si       9.80178389       1.99835379      27.69721612
Si       7.83567629       8.75371445      15.63833811
Si       7.30034178       9.52382072      17.81667337
Si      10.75801495       5.80942169      20.79106055
Si      10.12556453       7.46627320      19.16186951
Si      10.30880704       6.52189029      22.89392437
Si      11.41564743       9.37369265      19.62860629
Si       7.94116819       7.79904270      19.36973906
Si      10.99163976      10.10538449      21.77382520
Si       7.40835486       8.63959241      21.52685112
Si      13.82325940       7.99040612      23.07792171
Si      11.56064187       8.42792387      23.35644734
Si      10.98619443       9.22396566      25.52380979
Si       6.93414260       4.08276479      26.39312329
Si       8.00230662       6.95082078      23.07277611
Si       7.60729319       7.66050849      25.20275333
Si      10.88869662       4.87455165      24.45547800
Si      10.95056128       3.91127869      28.15134719
Si      10.50601152       5.55533121      26.61329540
Si      11.75249958       7.55310721      27.04271936
Si       8.18000762       6.08551716      26.81432038
Si      11.22177684       8.23976297      29.26254367
Si       7.67196814       6.70856777      28.96156786
Si       4.15688346       5.27146386      28.76638938
Si       7.02099846       3.16419949      30.09802986
Si       8.17025657       5.12445390      30.54236503
Si       5.04158163       9.96502085      17.98470329
Si       4.45119070      11.67028002      16.42150368
Si       4.47505054      10.82316103      20.14241907
Si       8.48962065      11.47501074      18.24624192
Si       8.60916079      10.60556893      22.01698412
Si       8.03810406      12.23954316      20.45764589
Si       8.22805640      11.29130166      24.18815372
Si       9.26542000      14.16013876      20.94143427
Si       5.77719123      12.70545399      20.58108766
Si       8.80245081      14.97673690      23.02918202
Si       5.30553772      13.40574010      22.83868373
Si      12.15414374      12.05746048      22.27662578
Si      12.35133129      11.12301478      25.97259203
Si      11.66305442      12.79235323      24.46287408
Si      11.81630941      11.89637651      28.15441557
Si       9.38083617      13.27405079      24.64153559
Si       8.90627234      14.00130369      26.78102229
Si      13.03647645      13.86874245      28.62116521
Si       2.25197506      11.22806468      20.36591918
Si       1.72976775      11.98197738      22.55470813
Si       5.03270338       9.07688486      21.77368350
Si       5.25652324       8.15860896      25.42609649
Si       4.67541872       9.77691825      23.92813972
Si       4.81901195       8.97507035      27.62265153
Si       5.88107318      11.82032212      24.39638118
Si       2.31942993      10.34567862      24.07374593
Si       5.37151874      12.48206382      26.66147756
Si       1.83794278      11.04054938      26.24410930
Si       8.75257685       9.61620597      25.78744534
Si       8.90614549       8.68738342      29.35457644
Si       8.31731352      10.32158580      27.86057436
Si       8.44163763       9.46714101      31.62328666
Si       9.52041895      12.39102532      28.27483567
Si       5.93707026      10.88913976      28.04380803
Si       9.00401108      13.12338434      30.55594866
Si       5.46924595      11.57423013      30.28835330
Si       1.23375503       7.37200353      27.34206669
Si       1.34290439       6.50110786      31.07467977
Si       2.46236844       9.31965844      27.86028180
Si       5.37759138       7.25080029      29.21411292
Si       5.52130654       6.34559434      32.90803174
Si       4.93699943       7.96971812      31.38330109
Si       6.16401878       9.94082162      31.76345626
Si       2.60346318       8.40362472      31.53983346
Si       5.62413689      10.67783018      33.98841497
Si       6.45910554      15.38157678      23.27843618
Si       6.05017328      16.19195946      25.45482686
Si      10.02663359      16.89824413      23.46833599
Si      10.09156808      15.99236790      27.20542045
Si       9.48518938      17.67546304      25.71737577
Si       7.23379571      18.06822774      25.88037402
Si       3.01693885      13.91842022      23.02474128
Si       3.08553832      12.97971208      26.74899372
Si       6.61296257      14.45385326      26.99231157
Si       6.71292551      13.56210556      30.69872381
Si       6.16109040      15.24722320      29.17403493
Si      21.54719937      29.83550930       4.31692505
Si      24.48336310      36.86948819       9.80771287
Si      26.15587794      34.28764866      12.13913822
Si      21.66966539      35.74378250       7.28574295
Si      22.59856901      33.52297756       4.40781673
Si      23.73401909      35.07050737       8.43347169
Si      23.62975594      37.18808050       4.44171747
Si      25.32235281      34.72789686       6.77348256
Si      24.54060053      34.96622393       1.37743796
Si      25.40299412      32.62101261      10.76965600
Si      27.01956790      32.20057734       9.02705656
Si      28.82664949      29.69741154      11.42214829
Si      22.75460779      31.37978738       8.34805957
Si      23.53013495      29.23185482       5.29670902
Si      24.35613545      30.93413081       6.67734993
Si      25.22980036      28.80880810       3.71462982
Si      24.58909549      32.88646644       5.33675452
Si      26.32535367      30.40706919       7.69680731
Si      26.28334729      32.49454951       3.72871052
Si      27.95850850      29.97836006       6.06460025
Si      25.51801904      30.73476641       2.34449316
Si      27.08291759      30.33682437       0.71423509
Si      28.06777514      27.86781243      10.01134472
Si      29.68906349      27.45604004       8.38452271
Si      26.22492658      24.52179682       4.65190524
Si      26.92339002      26.25206171       5.99377988
Si      27.27705920      28.19613648       4.68590051
Si      28.97901409      25.72248450       7.01236729
Si      28.87193573      27.78662153       3.01287912
Si      30.64123485      25.29525412       5.36865083
Si      28.17760564      26.03894953       1.62339607
Si      29.94263047      23.44267485       4.01360007
Si      31.42175772      23.10259610       2.34347652
Si      28.94342906      35.53342364      14.44109777
Si      26.47121716      36.28488514      10.80334148
Si      28.13666688      35.78962770       9.16132817
Si      27.47088429      39.97138363      10.85527758
Si      29.17187018      37.51482334      13.19348428
Si      29.12425038      39.52279692       9.20308819
Si      30.82515433      37.05059652      11.56263215
Si      24.83251271      38.73185155       8.43883714
Si      25.60803056      36.65881622       5.46734972
Si      26.41331139      38.34817404       6.84139605
Si      27.27305869      36.17504553       3.82332903
Si      26.69800952       0.28635214       5.55291870
Si      28.41879395      37.77382874       7.81710909
Si      30.01861724      37.43629850       6.16087775
Si      27.61962813      38.07390100       2.54616750
Si      29.92937948      31.22524325      15.43861634
Si      31.56962599      30.80198854      13.88766006
Si      32.60721228      34.54532469      13.84862505
Si      28.19061466      33.78205187      13.08407628
Si      29.10427740      31.59160837      10.13203905
Si      29.81382987      33.31265167      11.43946437
Si      30.78385463      31.14847028       8.44196225
Si      30.15999421      35.28779891      10.17586463
Si      31.84148112      32.72373264      12.49404407
Si      31.73776582      34.88487503       8.44800718
Si      33.48620520      32.36566526      10.89025208
Si      27.39121953      34.12210100       7.72853004
Si      28.24279618      31.90343825       4.78283205
Si      28.95668969      33.69350492       6.13959527
Si      29.84786093      31.46435044       3.11487583
Si      29.30395866      35.63726097       4.84713656
Si      31.06852680      33.09486899       7.19979058
Si      30.98599898      35.16507332       3.14905035
Si      32.68882026      32.68668565       5.53819285
Si      26.59360492      34.45836296       2.44708276
Si      28.20353041      33.93879870       0.79776105
Si      30.20293683      33.34726271       1.79191939
Si      35.15819996      29.78896774      13.13281506
Si      30.82588715      29.07362942      12.49523061
Si      31.74661582      26.88285753       9.45553174
Si      32.47045309      28.64420704      10.80529643
Si      33.35622020      26.45450564       7.77110921
Si      32.75957463      30.60708719       9.47972855
Si      34.53595824      28.03612075      11.82289316
Si      34.35868591      30.16583990       7.83751437
Si      30.04294261      29.39586606       7.05652130
Si      30.84148753      27.16702498       4.11484296
Si      31.56207188      29.00491955       5.51371024
Si      32.51002928      26.85639941       2.49369733
Si      31.92079110      30.91297591       4.12904015
Si      33.63576519      28.38137750       6.44020673
Si      35.27139280      27.96929190       4.81661902
Si      29.18059407      29.72169664       1.77324426
Si      35.35568497      25.86183270       8.78864860
Si      32.62249594      24.69153537       6.39447045
Si      33.39356999      22.46445514       3.36554560
Si      34.27350218      24.23515346       4.78580543
Si      34.56400312      26.17209108       3.47038670
Si      31.20363296      38.93814152      10.17048408
Si      31.93578264       0.75128835      11.60755020
Si      32.81827245      38.56905465       8.57590493
Si      32.24495229       2.70039900      10.30130136
Si      35.52512749      39.73289774      10.99385704
Si      29.48610459       1.44729983       7.93349279
Si      30.34478019      39.29079175       4.92372864
Si      31.05121330       1.06201960       6.25202929
Si      31.94007362      38.84214058       3.22128644
Si      33.15008662       0.54087130       7.26496176
Si      34.71452690       0.04821144       5.61702682
Si      32.90984166      36.55198248      12.61002870
Si      33.69733141      34.21126021       9.54254658
Si      34.54010986      36.00422728      10.88007796
Si      35.41848931      33.83059135       7.94235491
Si      34.87521248      38.01214933       9.57165051
Si      36.49094496      35.48708672      11.91120051
Si      36.48445585      37.54143980       7.97318916
Si      38.15869527      34.95878700      10.23948966
Si      32.08931380      36.78525224       7.17821535
Si      32.92724730      34.58298374       4.18298420
Si      33.69068833      36.34802562       5.56708290
Si      34.58300837      34.17130200       2.55152573
Si      33.97040097      38.29555439       4.27952816
Si      35.66998113      35.75217184       6.58171106
Si      35.60868161      37.78969658       2.61082590
Si      37.29666257      35.33999609       4.94337654
Si      31.20207322      37.12779233       1.79488370
Si      35.45834746      31.72223981      11.90543686
Si      36.41970362      29.49650286       8.88340259
Si      37.07527709      31.29475288      10.23040807
Si      38.02228215      29.13423554       7.19761912
Si      37.45315526      33.21925733       8.96868155
Si      39.05480734      32.84611639       7.21576055
Si      34.65458359      32.07291622       6.51362230
Si      35.57156468      29.91478737       3.54701979
Si      36.29729871      31.65472447       4.87229688
Si      38.34478510      31.07405540       5.80885620
Si      39.97529474      30.58443848       4.23001649
Si      37.33461566      27.38222319       5.82879727
Si      35.95563184       1.66702278       9.68478685
Si      36.65084643       3.53977825      11.01570144
Si      37.51461639       1.19125466       8.01203159
Si      38.45827280      36.93987692       9.05102384
Si      39.24534159      38.68223005      10.30843041
Si       0.13960880      36.47456364       7.29006839
Si      39.58146670       0.59568515       9.09064434
Si      36.73585526      39.47794780       6.69637280
Si      37.56271113      37.27123191       3.59145718
Si      38.33358921      38.98584793       4.98332979
Si       0.34746073      38.41972941       6.07319509
Si       2.02539619      38.05291840       4.32771246
Si      39.33329219      34.75172158       5.95125151
Si      18.97441318      22.00520192      20.32524071
Si      17.93443118      21.94732405      18.17851054
Si      18.52104285      23.97129520      17.07714905
Si      17.56642882      23.93952821      14.95459813
Si      18.01082721      25.98672488      13.82119912
Si      17.58206073      27.89791530      10.54620484
Si      18.07007406      23.79435507      21.58922133
Si      18.64411428      25.78591809      20.48842907
Si      18.27895117      25.64032630      24.94341848
Si      18.73794644      27.65641654      23.84149729
Si      21.90961358      26.07667287      22.32653028
Si      17.83123769      27.67573932      21.70204618
Si      18.29984793      29.64133050      20.61298758
Si      20.80625579      24.19993193      16.92447086
Si      21.86278698      24.15496848      19.09705641
Si      21.41836509      26.10859199      15.73908957
Si      20.92913620      26.05136294      20.20513432
Si      21.41522845      28.02402126      19.11390287
Si      17.64423180      25.76274960      18.25236449
Si      17.16780538      27.74681666      15.06802704
Si      18.18110068      27.81839839      17.22308687
Si      17.68998901      29.81598531      13.90740426
Si      17.29746932      29.58531300      18.35165316
Si      20.51407197      27.98058901      16.98815742
Si      17.82597000      31.61780614      17.29768529
Si      21.00669976      30.04154075      15.85669299
Si      16.89121001      31.59448416      15.17904400
Si      17.38389037      33.55875786      14.02049598
Si      23.73264806      26.34098402      15.53967600
Si      24.16585417      28.35334626      14.43633025
Si      20.38527993      26.10759614      13.64027082
Si      19.94443167      28.10200664      10.43853726
Si      20.86364208      28.13004674      12.50689190
Si      20.42983929      30.05132432       9.25360558
Si      19.98424781      29.98340655      13.78987448
Si      23.20476319      28.35872167      12.35652432
Si      20.55221156      31.96342999      12.63641328
Si      23.71545473      30.38075598      11.13889934
Si      16.73993733      29.74951681      11.69343197
Si      16.25737415      31.80138282       8.58347033
Si      17.24629557      31.78109224      10.62499601
Si      16.45272424      33.52067315      11.92332302
Si      19.54383473      31.91619881      10.46627835
Si      16.89069262      35.61830265      10.85287656
Si      20.05597463      33.96320975       9.34455240
Si      19.40890908      30.04182534       7.07548290
Si      19.95734905      32.13347623       5.95929666
Si      19.07217245      33.91694028       7.20526899
Si      21.11237645      27.90407331      23.64079000
Si      21.67818620      29.89669058      22.52013620
Si      21.75460434      31.65307219      25.85613622
Si      24.96487888      30.11465093      24.47453022
Si      17.88183189      29.50364378      25.04521737
Si      17.47730721      31.44257142      21.84284700
Si      18.44174318      31.51554235      23.90204165
Si      17.96601332      33.41727571      20.67550198
Si      20.77877270      31.74126672      23.74743773
Si      21.32397674      33.71149736      22.64144326
Si      17.17991672      35.29442872      21.87708776
Si      23.84851991      28.21275882      18.91599181
Si      24.84898175      28.21242827      21.00945068
Si      24.34395875      30.25624598      17.70472752
Si      23.91346774      30.07599839      22.26131439
Si      27.17705956      28.47158136      20.85340756
Si      24.47530336      32.08607882      21.17155437
Si      27.60547713      30.49425149      19.69137392
Si      20.67254150      29.79608834      20.34006527
Si      20.17437859      31.86464475      17.10686978
Si      21.18294055      31.78696066      19.20567574
Si      20.69618979      33.82465373      16.08119956
Si      20.32603468      33.69210684      20.48351178
Si      23.49487968      32.03524509      19.01396819
Si      20.83296603      35.64771135      19.37283024
Si      24.02657964      34.01555825      17.94500348
Si      17.01676858      33.46752724      18.50400048
Si      16.52780743      35.45988953      15.31031764
Si      17.49075315      35.46713871      17.34120179
Si      17.01652011      37.41646092      14.14823533
Si      16.63839526      37.25290567      18.62535697
Si      19.88375479      35.66872134      17.23059488
Si      20.38246309      37.61705566      16.04419855
Si      26.46757719      28.51929251      14.22335585
Si      27.45212704      28.66969838      16.40663780
Si      26.95502577      30.58531847      13.08012973
Si      26.65276909      30.41418875      17.58429670
Si      27.16667165      32.37156564      16.43928407
Si      23.30418757      30.22395145      15.67362503
Si      22.85793053      32.15777848      12.34453276
Si      23.85280372      32.20593659      14.51240813
Si      23.42771032      34.24307531      11.22605308
Si      23.02310348      34.03604278      15.75111164
Si      26.20897583      32.43668905      14.38385535
Si      23.52751518      35.99210225      14.63380929
Si      19.64959500      33.72667812      13.90003523
Si      19.26470677      35.81342653      10.52929909
Si      20.24995676      35.77610326      12.63129557
Si      19.78627056      37.78534458       9.39881452
Si      19.47067206      37.65267492      13.89374627
Si      22.55310885      36.02528907      12.48113053
Si      16.14378426      37.40672328      11.96839961
Si      22.41297376      34.11651800       9.14056263
Si      22.06213607      37.98189558       9.18595699
Si       3.30166203      34.10750511      18.69726980
Si       5.31584649      37.38131312      18.45715108
Si       4.50893878      35.93777849      22.64837731
Si       6.10630802      34.82779298      21.28111857
Si       5.06222065      33.14159290      19.96587496
Si       7.01005979      36.41622660      19.76769024
Si       6.69099234      32.13457921      18.58204122
Si       8.52479531      35.36250566      18.26778263
Si      10.45218968      38.75984447      18.13000657
Si      38.35611880       1.10620863      13.35382541
Si       0.90147831      37.68616345      17.48098140
Si       2.49286606      36.65706589      15.90824447
Si       0.09037163       0.23899084      14.67818169
Si      39.67513356      35.87968662      13.44315677
Si       1.57961899      39.22346206      13.23028262
Si       2.22475108      32.32727981      17.44723159
Si       3.86206585      31.36007306      16.03174783
Si       1.51037759      34.96910581      14.73508013
Si       3.03308086      33.95859957      13.34042395
Si       3.62500015       2.53440433      13.00884935
Si       6.16889830      39.01587777      17.06816659
Si       4.41211144      39.89726505      15.78265860
Si       7.67078583      38.04389784      15.63440987
Si       3.31712550      38.22347310      14.51376687
Si       5.31722928       1.64025328      14.31302299
Si       4.86168209      37.20880781      13.06858816
Si       6.89094695       0.55813453      12.85370394
Si       4.22575845      35.66597221      17.22266904
Si       7.53474512      33.70350686      17.14848578
Si       5.75891952      34.67364427      15.84785342
Si       9.08229253      32.69504998      15.65272342
Si       4.71166264      33.00928013      14.59677819
Si       6.66341617      36.33417499      14.33403660
Si       6.32965670      31.95035422      13.21950142
Si       8.28107681      35.28497672      12.96631118
Si       5.52952805      30.46903547      17.35208938
Si       8.02275123      30.98237290      14.39528115
Si       8.78136764       3.83812659      12.66288280
Si      11.37876023       0.32915974      16.71065522
Si       9.71684882       1.29276850      15.40230634
Si      12.99072422      39.36055143      15.29462969
Si       8.58586616      39.58720346      14.15218810
Si      10.54776163       2.90756110      13.92914848
Si      10.20958026      38.58613783      12.76074980
Si       9.42513196      37.02950295      16.92095339
Si      10.98660156      36.00980151      15.43699068
Si       9.95198437      34.32940662      14.16553210
Si      11.87477998      37.58484314      14.04775918
Si      13.50033826      36.60336991      12.59167251
Si      13.87575329       0.91935141      13.87251150
Si      39.18910612       2.75757253      11.92788685
Si       0.75994163       1.77060061      10.44182972
Si       0.51878447      37.52334793      11.93736904
Si       2.15332276      36.44656527      10.51860025
Si       4.48981259       4.12065907      11.57434597
Si       2.54245047       0.82388897      11.72729270
Si       5.81249368      38.81848195      11.66294777
Si       4.16471254      39.75084757      10.36183354
Si       7.41197695      37.85226178      10.19865640
Si       3.05958858      38.04438710       9.05808107
Si       4.63588652      37.11485545       7.73698128
Si       3.91205794      35.57721043      11.84010754
Si       7.15309859      33.54126144      11.65063237
Si       5.46461193      34.59988008      10.45094246
Si       6.34950539      36.16311741       8.93116220
Si       7.90253273      35.08376540       7.56104757
Si       9.11071192      36.80511921      11.54215726
Si      12.38361926      34.96548520      11.39556832
Si      10.68494667      35.89094514      10.05743544
Si       8.97909298       3.82132485      31.66477055
Si       7.62137044       9.06498708      35.46589767
Si      12.29816526       5.21252744      32.86878551
Si       8.63981123       7.67796600      33.99723944
Si      10.70771429       8.64135955      33.34164314
Si      12.48804174       6.99157492      36.29170426
Si      13.69205749       6.46081007      27.87402276
Si      11.87281868       7.24608170      31.88512772
Si      13.86203698       8.31072468      31.24815189
Si      13.58271323       5.55875825      34.88757737
Si      15.66944720       6.59703197      34.22965342
Si      15.48761792       4.82933991      30.83815014
Si      15.05645097       6.90397646      29.74414223
Si      16.83001439       5.21723900      32.72053749
Si      17.06641145       7.95462239      29.12496578
Si      18.86756482       6.24274616      32.02691542
Si       7.10364384      11.13948050      34.45138931
Si       9.09336518      12.13672245      33.80259458
Si      12.00630203       9.00740437      35.23084575
Si      10.83328105      10.45507618      36.74034577
Si      14.07419268      10.04469679      34.59096893
Si      10.44063800      12.46503223      35.76027718
Si      12.44455854      13.57205752      35.10388770
Si      10.21258041      10.70691754      32.29382752
Si      13.48455622      10.33058257      30.19652612
Si      12.25359259      11.76779140      31.63085854
Si      15.50159382      11.40863866      29.55495747
Si      11.84234891      13.82001025      30.60713181
Si      13.64934336      12.21453222      33.67598986
Si      15.62222565      13.09210085      32.97087818
Si      15.17610387       8.61673016      33.17175924
Si      18.39286533       8.30891513      31.05331824
Si      17.27618199       9.63236266      32.60316048
Si      20.40242193       9.31374670      30.39734659
Si      16.80980006      11.76817980      31.41427907
Si      18.85150071      12.71978756      30.82858205
Si      15.21176941      15.18967661      31.85511286
Si       8.60570061      22.53101134       6.94744688
Si       5.32432744      16.80408714       7.73783807
Si       1.97383971      17.20103701       5.95980731
Si       4.20024056      16.46156442       9.75925735
Si       5.72573744      19.07943770       7.52823067
Si       2.15622661      17.64264636       9.72472833
Si       3.69760283      20.32400370       7.48684729
Si      38.97236736      13.81565626       6.45878211
Si       0.40146158      14.57923800       8.24390102
Si       0.80266639      16.87942370       7.96546084
Si      38.79840090      18.03090713       7.97010172
Si       5.24729579      22.91726568       5.15647361
Si       2.33656135      19.52854713       5.65140194
Si       0.31403214      20.60572335       5.68286578
Si       0.58626951      16.39652947       4.19055958
Si      38.54435342      17.57540812       4.09560613
Si      37.44205915      17.24311681       6.21791030
Si      38.96588932      19.89563671       3.87313065
Si      35.40076417      18.40684043       6.19196124
Si      37.02770884      21.04505106       3.83760464
Si       7.47102481      22.15620174       8.95866724
Si       5.35664845      23.32154193       8.96399728
Si       2.56222336      19.96651462       9.50143593
Si       3.87158705      20.76221041      11.28456009
Si       0.50714348      21.06507490       9.45085207
Si       4.31639758      22.90981453      10.98814083
Si      10.73643842      27.88038318       8.10556763
Si       5.64675176      25.22836117       4.85744373
Si       6.97766339      26.02456125       6.55178361
Si       3.56581279      26.33043384       4.79374589
Si       5.88124682      25.67029422       8.66377670
Si       7.36987298      28.29936679       6.30627528
Si       4.10741504      22.58636960       7.15253309
Si       0.71200059      22.90872612       5.28416386
Si       2.07156121      23.71307984       7.15070523
Si      39.15553284      20.30269078       7.65218185
Si      35.81345824      20.75472567       5.87491057
Si      37.12151900      21.49616315       7.70320420
Si      37.30445381      23.29060116       3.59373692
Si      34.41623322      21.42384893      37.36986459
Si      39.20372429      19.60012172      30.37901749
Si      36.98534246      18.66636352      33.43248727
Si       2.69098816      18.42197977      27.69753675
Si       1.68073182      16.71841267      26.54339873
Si       0.42377800      17.49994352      30.71870530
Si       2.85388154      14.10792713      29.08260329
Si      39.40857723      15.79804767      29.46562711
Si       2.90628998      14.70288099      26.85466742
Si       1.90808165      13.00020307      25.57974618
Si      34.52841213      22.03338675      35.14824370
Si      33.55688448      20.27133133      33.84001498
Si      35.78504110      21.17192544      30.78185742
Si      36.98043087      19.20915640      31.23407228
Si      33.49111737      20.86563384      31.51287619
Si      35.97545127      17.45495761      29.90811968
Si      32.52432761      19.19647086      30.26877868
Si      39.37711713      16.42485609      27.19408074
Si      35.95190677      18.08462847      27.57221125
Si      38.46099059      14.71624540      25.97420165
Si      35.02329361      16.35659385      26.35573090
Si      32.59057415      19.67029761      28.00839717
Si       1.79313130      10.73162518      34.71100049
Si      38.14851391      16.65833437      33.67386071
Si      38.18926164      16.16016006      36.02973076
Si      37.14757121      14.91301319      32.46171761
Si      39.39383163      14.08795894      36.34038679
Si      38.40376161      12.32763119      35.10931855
Si       1.61691073      15.00837436      33.30311724
Si       0.66510601      13.82310173      29.85290777
Si       0.59518540      13.25086905      32.15407113
Si      39.65485961      12.08156076      28.51986670
Si       1.86188717      11.35251285      32.39493764
Si      38.36951625      12.89885019      32.83558290
Si       0.80613767       9.54129458      31.13524777
Si      37.40708856      11.24168139      31.57188399
Si       0.87719826      10.08579811      28.85192226
Si      39.89426149       8.43889548      27.71068986
Si      31.39369095      19.95852919      34.56366392
Si      30.33615298      18.17479502      33.35760470
Si      34.69560228      18.32368351      34.14626038
Si      33.76058725      17.16315582      30.56125952
Si      33.76295009      16.53810032      32.84790752
Si      32.76472419      15.45360841      29.42777810
Si      35.04189633      14.55912570      33.17528808
Si      31.55928427      16.18994978      33.62810377
Si      34.00734588      12.82546217      31.98814702
Si      37.16033625      15.46048805      30.22105213
Si      36.22962772      14.32746845      26.71919878
Si      36.16343541      13.75280373      28.94281837
Si      35.21020230      12.60254403      25.41588949
Si      37.45778892      11.79384075      29.26036202
Si      33.94695087      13.43104102      29.62645742
Si      36.42660506      10.01776248      27.99928244
Si      33.08299628      11.75295294      28.47633725
Si      39.65480505      12.67255850      26.24792060
Si      38.65868514      11.49271584      22.73833032
Si      38.73569570      10.96667167      24.99415341
Si      39.90790103       8.95385499      25.30633515
Si      36.44350391      10.59637880      25.77596188
Si      35.50916583       8.94522431      24.50120946
Si      30.30655732      18.86174853      30.99932796
Si      30.55869962      15.08392131      30.12693809
Si      29.60378721      13.32971954      28.81547999
Si      32.78997421      16.02514042      27.06082880
Si      33.08355269      12.30225030      26.16050906
Si      31.94354425      10.54034816      24.89464915
Si      35.25790838      13.17559736      23.19929931
Si      35.45558620       9.47605942      22.17447007
Si       3.14573242       8.73366747      35.00459764
Si      38.64786513       9.24169346      31.87795091
Si      37.66791799       7.44541950      30.64316606
Si      35.18674328      10.90292533      32.30804244
Si      34.20829741       9.73082630      28.72108549
Si      34.23499222       9.21101524      31.00118184
Si      33.29248869       7.99835358      27.52184185
Si      37.60888202       8.04225264      28.44675473
Si      36.70017340       6.30295903      27.08679557
Si      34.49542956       6.03466081      27.78828276
Si      30.76005594      11.41193353      29.11877184
Si      29.83564985       9.65711045      27.83666063
Si      31.04888926       7.61004022      28.23211813
Si      33.23807964       8.60832919      25.20458410
Si      17.63748500      28.03138446       5.94277271
Si      20.06719184      27.12550051       8.69324953
Si      16.13527977      26.34223979       6.65275558
Si      16.69503750      24.34762662       5.50686031
Si      13.26393267      21.60502345       2.30088705
Si      18.65189749      25.37224872       9.42854918
Si      19.13610363      23.29901390       8.27923403
Si      15.42040017      22.23633915       8.52039236
Si      14.53058722      18.56580950       8.11239561
Si      15.25751188      22.58439350       6.23874616
Si      17.70293477      21.61415404       8.91628412
Si      15.62864073      20.49446643       5.00019164
Si      18.22694421      19.62948413       7.78978068
Si      14.29824972      18.85889862       5.75247938
Si      14.73810849      16.91208104       4.66323774
Si      20.69194907      18.66312045      10.60101950
Si      15.61764547      15.80659472      11.54977106
Si      16.94753773      17.59646576      10.76691510
Si      16.10677208      13.78504286      10.41344108
Si      16.78969742      17.90810131       8.51380204
Si      19.28621652      16.93001521      11.32646945
Si      17.27486572      15.93681788       7.37639427
Si      19.81548109      14.95834595      10.11957501
Si      15.90051812      14.28061988       8.07318838
Si      16.36737589      12.18797919       6.92311934
Si      18.28025242      13.30200871      10.85067728
Si      18.83403095      11.17943058       9.62708457
Si      15.42072744       8.60067567       6.47590317
Si      17.93839083       7.58517212       9.18970198
Si      19.77037356      27.39691100       6.44354954
Si      21.29431610      29.07680684       5.75270593
Si      20.32677840      25.42979308       5.26970298
Si      17.33915214      28.36726365       3.63377342
Si      16.37824786      24.64700558       3.17080542
Si      17.85310529      26.37733551       2.58378529
Si      16.87701355      22.68323728       2.05306352
Si      20.05258152      25.77784665       2.95344226
Si      20.52108964      23.77596512       1.79873196
Si      21.89503661      20.77039969       7.60602786
Si      22.54003643      24.80115141       5.69645794
Si      23.02903646      22.84257361       4.49584899
Si      18.85396270      23.72082910       5.95939808
Si      17.93198350      20.02146614       5.46533051
Si      19.41428083      21.72714829       4.79344850
Si      18.49285872      17.99649658       4.32390749
Si      19.14167874      22.13407303       2.50043395
Si      21.59417151      21.05929900       5.21022022
Si      19.64358805      20.09598054       1.34648979
Si      22.13663568      19.12463856       4.05159609
Si      15.37667031      20.99179764       2.74793902
Si      14.54296981      17.32019390       2.24521304
Si      16.00190284      18.96719598       1.57483776
Si      15.01203720      15.28593284       1.08598407
Si      15.76090684      19.37669491      39.22541118
Si      18.21553309      18.38619352       2.02634576
Si      16.21754155      17.32127477      38.11851932
Si      18.74012055      16.32771429       0.86833865
Si      14.80481150      15.64254775      38.75155202
Si      20.41439232      18.94937807       8.29668360
Si      19.52108980      15.35278691       7.72671945
Si      20.97712993      17.04768003       7.01838173
Si      19.99869479      13.32971402       6.61437194
Si      20.70042949      17.39829119       4.76802359
Si      23.18425845      16.41490182       7.53824802
Si      21.17753227      15.39175121       3.63040174
Si      23.71489692      14.43230025       6.41506400
Si      16.97088955      16.35920920       5.04374454
Si      16.08061396      12.59877744       4.59221094
Si      17.51168667      14.26452903       3.84541105
Si      16.59770972      10.61410836       3.46938414
Si      17.30634126      14.70248896       1.54922296
Si      19.76259057      13.72353954       4.36326519
Si      20.22511502      11.72543212       3.22930802
Si      22.07058545      14.33192261      10.56736192
Si      21.08825966      10.69548333      10.08030415
Si      22.53289881      12.40408176       9.41663657
Si      21.59373209       8.72132643       9.02037739
Si      22.28662735      12.73070455       7.11519173
Si      22.74547950      10.81430419       5.96009564
Si      25.28020285       9.78565114       8.67579297
Si      18.56662611      11.61700799       7.40527703
Si      17.65291446       7.97391338       6.93391555
Si      19.10651612       9.65523325       6.17575818
Si      18.83695298      10.02975299       3.87476038
Si      21.36160935       9.11103199       6.59737732
Si      21.88571720       7.10440254       5.53422163
Si      24.31856487       6.10059238       8.22834219
Si      20.35182488       5.38575450       6.21227884
Si      25.23696349      22.23550505       4.96315186
Si      25.83035016      20.28047964       3.79133212
Si      22.80489403      23.19435919       2.19580920
Si      21.84110876      19.54342709       1.76355869
Si      23.29695657      21.15799103       1.05888498
Si      22.31921565      17.50606145       0.58853068
Si      25.48552621      20.58711380       1.51322301
Si      19.36239178      20.44399890      39.00947807
Si      18.44209566      16.76768119      38.56485628
Si      19.85021238      18.45685576      37.90127211
Si      22.10189596      17.84171715      38.34261260
Si      24.35111726      18.53540592       4.55840274
Si      23.36200740      14.85526264       4.12940079
Si      24.85053968      16.48836213       3.38985356
Si      23.93414862      12.79335619       2.94893677
Si      24.55820830      16.92354756       1.07133338
Si      20.91396441      15.78569416       1.25187604
Si      21.49451612      13.80166067       0.20825761
Si      23.70463599      13.19015720       0.59591382
Si      25.93233185      13.83028626       6.82508469
Si      25.02631842      10.17074984       6.38462207
Si      22.54951970      11.12622071       3.65505093
Si      17.65278295      28.30270838      30.62012063
Si      18.71026569      29.48095272      34.04967923
Si      19.70093415      30.88388230      37.53958600
Si      16.92340839      28.46493077      35.03597942
Si      17.95440128      29.75335785      38.52239958
Si      18.59672064      27.62392973      39.16206248
Si      19.69061900      28.96667282       2.58836761
Si      26.96461170      35.49501499      33.65744433
Si      21.31766964      29.54799497      31.11292793
Si      23.10741828      31.68907719      27.69708665
Si      24.15673107      33.07106052      31.13204976
Si      23.78988483      29.46127593      28.28031386
Si      24.84334766      30.80502326      31.83878905
Si      18.42522468      27.06811391      28.71910116
Si      20.23726124      28.25263794      27.73955606
Si      19.06359439      24.92861082      29.36237750
Si      22.00005697      28.38778579      29.23199278
Si      22.67321307      26.23975695      29.85071275
Si      23.25117653      32.16492560      38.08480399
Si      25.19482508      34.31680173      34.62795752
Si      26.21323921      35.65152240      38.07404613
Si      25.78473337      32.16688967      35.29142556
Si      20.50969860      29.73291716      35.67722812
Si      22.21148099      30.85692118      34.61851169
Si      21.17488501      27.59444865      36.24153607
Si      22.98944047      29.73859149      32.74909501
Si      24.10671592      30.98880619      36.26300040
Si      23.70736854      27.52852997      33.30810750
Si      24.72394698      28.84898802      36.81326625
Si      19.48757202      28.38230947      32.08388933
Si      18.35179398      25.14837751      33.78869158
Si      20.18565468      26.18234647      32.75766089
Si      18.96308784      22.87193171      34.36742496
Si      20.85436459      25.07946994      30.92916961
Si      21.90933936      26.33793861      34.31726338
Si      21.60314117      22.91933598      31.51122251
Si      22.62103824      24.24108642      34.96955816
Si      19.75547787      21.73914254      32.51467084
Si      20.43416470      19.58709871      33.09353062
Si      25.03328021      32.38028542      39.66694334
Si      21.48925042      31.02679051      39.04185712
Si      20.42333876      27.71201583       0.66021992
Si      22.19483443      28.89564456      39.66534891
Si      21.05959489      25.55556462       1.27149678
Si      22.91219797      27.71135098      37.75548936
Si      23.93867379      29.04289463       1.28966178
Si      23.63396773      25.52178917      38.39322688
Si      24.66531295      26.84497588       1.86591902
Si      19.32529459      26.39316277      37.22634400
Si      19.97769255      24.28793131      37.83237631
Si      20.72202339      23.07353604      35.93684015
Si      21.74533698      24.36182058      39.38501843
Si      21.38111220      20.88024424      36.55645606
Si      27.72767202      34.31276287      31.75763069
Si      28.38246577      32.08397390      32.38107972
Si      25.56463741      29.67155781      29.84095971
Si      27.34646671      30.86713669      28.81499284
Si      26.30196344      27.49114457      30.55568898
Si      29.82726423      28.81719125      31.07826627
Si      27.04202317      26.37066121      28.58468618
Si      27.64446540      32.24690620      36.77159267
Si      28.28616755      30.18826116      37.37418889
Si      26.56692146      30.95037943      33.35829692
Si      25.50745747      27.70071392      34.85431419
Si      27.25544161      28.83916322      34.02341706
Si      26.19089329      25.50700273      35.50046777
Si      27.98289836      27.70114827      32.07948735
Si      29.01509111      28.99139857      35.51844668
Si      28.69771472      25.51718514      32.71546928
Si      29.75829722      26.79125499      36.11302159
Si      24.43711820      26.45316272      31.43345444
Si      23.31416675      23.07120232      33.08921592
Si      25.15807380      24.19195518      32.08316656
Si      24.00063842      20.93593319      33.69363494
Si      25.82469106      23.08628057      30.16188065
Si      26.89486550      24.37954011      33.58919288
Si      26.54316868      20.91431886      30.80026555
Si      27.54513867      22.21349331      34.27820231
Si      21.07203575      18.44795011      31.25194325
Si      24.74034433      19.71072993      31.78376216
Si      25.36581342      17.55632365      32.36863905
Si      26.48288043      28.98455235      38.38080059
Si      25.36775868      25.70299607      39.97872838
Si      27.15256571      26.88058743      39.01370176
Si      26.05477205      23.53489498       0.62570768
Si      27.93252097      25.74235134      37.10651568
Si      28.60560158      23.51554086      37.66700784
Si      24.25117281      24.39723127      36.47279506
Si      23.16796061      21.11409132      38.06855843
Si      25.00862908      22.27817355      37.12089585
Si      25.74783404      21.08117511      35.24195833
Si      26.72727087      22.30570936      38.71254558
Si      26.45154294      18.90077494      35.80669074
Si      22.20429472      19.73704845      34.58867204
Si      22.90049185      17.61650806      35.26063780
Si      24.64451511      17.80160653      36.81670318
Si      27.79132961      23.78049048       2.12815297
Si      30.41911963      25.70154982      34.21026807
Si      31.16726620      23.49769466      34.81019623
Si      29.43853508      24.34159430      30.71943698
Si      28.30752608      21.06277555      32.36058625
Si      30.16808325      22.20063414      31.37518954
Si      31.87555636      22.29600805      32.93589009
Si      30.35646214      23.69781577      39.28402238
Si      29.30906461      22.36289711      35.80373652
Si      27.15678812      17.69875099      33.93219817
Si      33.53021655      20.66718117      25.34764611
Si      34.61882462      17.45415754      23.66599033
Si      34.77802066      21.57435643      28.85652013
Si      35.40429372      20.59183051      26.82835132
Si      38.62519752      22.60756009      29.26301982
Si      37.21030647      21.74954502      25.76206474
Si      37.97152519      24.84153739      29.01723397
Si      39.78748561      26.00546909      27.90800224
Si      34.04800554      19.62932662      23.26292131
Si      35.86321058      20.82936756      22.27866967
Si      32.94305884      22.92030084      24.96778759
Si      34.70748043      24.12907616      24.01291989
Si      36.60713449      23.92984903      25.49140641
Si      35.21199343      23.16430061      21.93451387
Si      38.44028001      25.08763859      24.43015846
Si      37.05305143      24.31842777      20.97157113
Si      36.49502846      26.50328127      20.59940320
Si      35.67135662      14.22648840      21.87551000
Si      36.47981053      17.30757428      25.06786728
Si      38.32781570      18.40519612      24.06157029
Si      37.60138174      14.09972121      23.32020556
Si      39.42814984      15.21838035      22.29025252
Si      39.05490678      21.57484503      27.19107874
Si      39.67852668      19.35580887      27.50412490
Si       0.88695804      22.65712461      26.21640512
Si       0.14815819      18.32013493      25.53767547
Si       1.99937697      19.48374163      24.46195880
Si       2.75040190      22.52699815      27.61487480
Si       4.59695967      23.76528167      26.61237617
Si      35.03232421      16.42287851      21.55809732
Si      38.84306144      17.41837558      21.99314300
Si      37.67646957      20.74494319      23.68849746
Si      38.96113850      24.06660981      22.43335375
Si      39.52649779      21.85859249      22.74086995
Si       0.77046186      25.29824033      21.36305116
Si       1.47887892      21.74190757      24.14400675
Si       3.18346730      22.81935472      23.04679603
Si       0.27693339      24.96587365      25.89218841
Si       2.08415575      26.18006270      24.86618558
Si       3.92860975      25.99993946      26.26666442
Si       2.57757411      25.08831063      22.79836967
Si       1.32025166      15.08319759      23.75729108
Si       3.07047788      16.23757551      22.72526455
Si       3.83209587      19.39356611      25.89405224
Si       4.44045242      17.05176587      26.21958226
Si       5.64519214      20.47928061      24.88875782
Si       2.52098160      18.46953154      22.42390602
Si       6.15125335      19.46685440      22.80644415
Si       5.03106810      22.70391381      24.61752713
Si      28.83333992      35.12510749      17.62502116
Si      31.00631834      37.86542043      19.17392251
Si      29.41098423      38.36942438      15.65741663
Si      30.36375342      34.61493949      21.10412569
Si      26.95285636      33.82984954      22.55282753
Si      29.34116742      36.09233164      19.64472743
Si      29.16091446      36.54878275      24.02266489
Si      27.51225026      37.06113217      20.56151003
Si      28.53448046      33.29614044      25.93262281
Si      25.08528373      32.52907437      27.46549160
Si      29.12480086      34.36281018      27.98257525
Si      27.61355769      34.94875839      24.50704442
Si      27.26202102      35.32274778      28.95908644
Si      25.69525469      35.82742995      25.60738129
Si      25.71662454      33.65063519      29.48053641
Si      27.19617161      35.64734462      14.06078466
Si      27.83215392      36.66376086      16.15476927
Si      26.26507713      37.14774020      12.67244035
Si      25.90056403      37.63936179      17.13006502
Si      27.25881880      33.36333231      18.02676762
Si      25.28905869      34.36423852      19.03881352
Si      26.02587643      35.39904448      21.07474047
Si      24.36328298      35.92496623      17.60324450
Si      24.05446033      36.35870126      22.11859965
Si      22.45834257      36.88948762      18.58367236
Si      25.39170251      32.09698834      22.97975689
Si      23.49487804      33.10231698      23.96136564
Si      24.10967010      34.16709104      26.01793012
Si      22.20069234      35.07561909      27.02125963
Si      20.59415901      35.65030410      23.58062139
Si      33.20332970      38.38337330      24.58622714
Si      31.31122793      39.32904834      25.55032794
Si      33.55375175       2.13283116      27.10919234
Si      31.91007868       2.55665728      23.66188872
Si      31.40385328      37.16676760      29.51412635
Si      29.53429903      38.02882077      30.48911686
Si      31.93782664       0.43009300      27.63710583
Si      30.08415953       1.31998092      28.54800088
Si      30.07828250      39.13155883      32.55006323
Si      30.02649819      39.41495517      17.67997256
Si      31.54939103      38.90839165      21.07621589
Si      28.12463103      38.12930383      22.61837906
Si      29.73294609      39.80401240      22.10712723
Si      26.30855496      39.09797513      23.63683204
Si      30.32644838       0.89094266      24.17260413
Si      28.70899551       1.43655794      20.67609497
Si      28.47729224       1.89399494      25.16862168
Si      29.76682182      37.67485821      26.04186050
Si      26.32980476      36.93767816      27.51955594
Si      27.82798819      38.59683776      27.06629968
Si      24.40160228      37.82096185      28.53952046
Si      28.50528444      39.64087152      29.03146756
Si      26.83779485       0.20104712      25.59480933
Si      26.56871989       0.57801722      30.07191288
Si      25.00985582       1.06728651      26.60117119
Si      27.84553791      36.44599576      30.97651287
Si      25.98651487      37.34359517      32.01405611
Si      25.00696284      38.83536349      30.54070525
Si      26.51891379      38.66067625      19.10928494
Si      23.08764278      37.88720993      20.62772790
Si      24.62060239      39.56953759      20.15330574
Si      21.22750816      38.88729458      21.69633226
Si      25.26064065       0.72733726      22.08561478
Si      24.69924301      37.38672020      24.11097336
Si      22.78961996      38.34076077      25.04154614
Si      23.45864102      39.38276443      27.19433136
Si      21.84234556      39.94400883      23.61346461
Si      19.62561902      37.16041713      22.04997910
Si      32.59960879       3.65861661      25.66072509
Si      29.07573407       2.90708179      27.09082267
Si      25.63272337       2.21861896      28.66883475
Si      23.74631178       3.06572986      29.60412400
Si      27.28799502       1.63521319      32.07256071
Si      26.40603583       9.33452415       9.96237914
Si      28.38377509      12.20469226       8.24878533
Si      25.71738371      14.68329060       9.26647151
Si      27.66588913      17.50755737       7.54272586
Si      23.08566083      17.20928856      10.20946764
Si      29.72056628      20.35038677       5.81281852
Si      25.67141495      18.54883368       6.94470824
Si      27.72359988      21.28419046       5.20834851
Si      25.05771821      20.04399425       8.52141865
Si      26.92860198      22.80730056       6.82437230
Si      22.34789933      22.56842416       9.62928845
Si      24.92771703      23.86421792       6.23384817
Si      24.32140896      25.38300946       7.93878516
Si      22.25487256      26.41262874       7.23041194
Si      32.06924681      12.76565188       9.17689847
Si      33.73027402      10.58907842      11.86042589
Si      28.07317397      11.02618496      10.24225961
Si      30.09549934       9.94039727      10.91498903
Si      27.41293278      12.46976689      11.86046340
Si      29.76772811       8.77898530      12.90193085
Si      31.69032481      11.60471850      11.22243208
Si      29.07512043      10.31202050      14.57997565
Si      31.09176461      13.08525227      12.87134795
Si      27.08056082      11.33765149      13.90263275
Si      26.31181316      12.79646445      15.60935573
Si      31.34308457      18.10823798       8.47302640
Si      33.75619300      14.40541561       9.48617817
Si      33.04668657      15.90127096      11.23832734
Si      30.04045410      13.80375005       8.55406643
Si      27.32181128      16.40258086       9.58508775
Si      29.37864415      15.30403974      10.15994277
Si      26.68440898      17.84512064      11.17347994
Si      29.00580637      14.14192665      12.22361338
Si      31.07555542      16.97632546      10.56349281
Si      28.32925132      15.57376386      13.89625383
Si      30.29845443      18.45252989      12.18922107
Si      25.42992949      13.54429044      11.30805297
Si      22.66498471      16.04500303      12.30759725
Si      24.61592999      15.02777847      12.91441574
Si      21.99056372      17.59996466      14.01803932
Si      24.37522101      13.89881801      15.01768558
Si      26.30894755      16.72644359      13.29908320
Si      23.63613142      15.35793001      16.60834879
Si      25.59812311      18.17878306      14.89937729
Si      31.34336877      21.92816129       6.12646262
Si      33.32051979      20.91246507       6.79238543
Si      30.64566216      23.43550383       7.80748583
Si      32.99654175      19.71871726       8.77899145
Si      32.30043761      21.25023903      10.52589114
Si      29.39278620      19.17793723       7.90551041
Si      26.64841864      21.63760381       8.92505194
Si      28.66494801      20.66003409       9.51061614
Si      25.92022552      23.15811067      10.51473964
Si      28.33601883      19.48463523      11.54332962
Si      30.24951042      22.31053452       9.82595501
Si      27.62333515      21.02185591      13.20424709
Si      29.63960583      23.79935541      11.49031666
Si      24.62988173      18.84318312      10.61793529
Si      21.98398413      21.44319251      11.65503388
Si      23.90677167      20.36049871      12.21851600
Si      21.28719510      22.90260626      13.24311432
Si      23.63694288      19.25636487      14.28652094
Si      25.66364202      21.98722378      12.65628421
Si      22.94738963      20.68188583      15.93548324
Si      24.93871922      23.48489172      14.18594348
Si      19.96269279      18.64087921      13.33109539
Si      19.26720918      20.09548768      14.99660510
Si      20.90592923      21.70879155      15.33491228
Si      25.90388561      26.96481380       8.18745266
Si      27.96633157      25.95205464       8.84767143
Si      25.21790101      28.56309947       9.83822864
Si      27.62788220      24.81641556      10.85346963
Si      26.94906817      26.32433846      12.51265696
Si      23.92438263      24.20631969       9.91149924
Si      23.26747189      25.65951114      11.55053869
Si      22.94364978      24.55629456      13.57415700
Si      24.96467735      27.37094973      11.83517051
Si      19.23402450      23.99772198      12.68971421
Si      33.47817018       9.37975678      13.91695059
Si      30.73170765      11.89761824      14.88132502
Si      32.72811678      10.92249215      15.59381355
Si      29.98378658      13.48037338      16.58493673
Si      32.74532312      14.72804138      13.14213165
Si      29.97099784      17.27431721      14.23999279
Si      32.01874279      16.26602261      14.83000368
Si      29.31362322      18.74198689      15.92359783
Si      31.70226914      15.12436527      16.93524369
Si      28.06119793      14.52817503      15.88330026
Si      25.30724996      17.00784628      16.93681545
Si      24.60527783      18.58766978      18.60561746
Si      29.02817428      17.65320087      17.88396211
Si      33.95782738      22.91066083      10.75175700
Si      33.33727443      24.47490829      12.42323385
Si      31.97062539      20.06169882      12.55480113
Si      29.28552537      22.58942992      13.58253420
Si      31.32174558      21.59514207      14.08979331
Si      28.62146958      24.04877573      15.16266781
Si      30.99136628      20.47669294      16.16864442
Si      33.02086040      23.18194449      14.41440165
Si      30.31534755      21.94523105      17.87132275
Si      32.31340967      24.70890776      16.15168205
Si      27.29378936      19.84651109      15.20808987
Si      24.65059823      22.32136720      16.27863654
Si      26.68413941      21.29565215      16.89386332
Si      23.89424708      23.84889504      17.93489943
Si      26.20075614      20.22607184      18.92703468
Si      28.25276388      22.97738021      17.22876134
Si      27.50531864      24.47077437      18.92084634
Si      22.61818635      19.54967639      17.94559080
Si      21.93071636      21.07769205      19.61828415
Si      31.29498857      25.47692772      11.76643757
Si      28.60126864      27.88912689      12.83530861
Si      30.57607269      26.93377218      13.49978312
Si      30.27383688      25.79882666      15.52519292
Si      29.57867860      27.28663178      17.20260747
Si      26.62247491      25.16862590      14.56135871
Si      25.91417558      26.67446021      16.20200422
Si      25.54671488      25.45978284      18.22596942
Si      31.96334215      23.61108436      18.12404294
Si      29.28019550      26.05011406      19.19525548
Si      30.33033233      29.28819154      16.53551914
Si      38.25266809      27.73853934      21.84127007
Si      36.37270864      28.86219665      22.63589746
Si      39.42619140      27.30371435      25.48260430
Si      35.24256132      25.71791040      24.65160787
Si      37.54463762      28.36048801      26.23664274
Si      33.34919587      27.75294747      19.36837166
Si      34.15869102      26.11430755      20.97810587
Si      31.44838895      28.81273591      20.06216279
Si      32.35679343      24.57138241      21.35169985
Si      34.60297874      27.25490949      22.99921606
Si      30.37569705      25.74729067      22.13457542
Si      32.75385985      28.42244637      23.68179399
Si      29.79431677      27.38082807      20.56239504
Si      36.81916824      30.02784401      24.65300820
Si      39.06470864      32.62528036      26.25219865
Si      34.94729050      31.06954367      25.40499631
Si      37.12037685      33.76756395      27.02200210
Si      33.68680918      31.53812587      21.67649900
Si      31.91800007      30.01622013      22.13443565
Si      34.22436234      32.70450758      23.79234813
Si      30.07326888      31.01456627      22.87161546
Si      32.25822803      33.76817886      24.52888653
Si      30.79603753      30.44641753      18.59174703
Si      28.89201017      31.49661176      19.38115143
Si      29.37373192      32.70277063      21.36437000
Si      34.52567281      36.46111417      26.17818860
Si      31.54721734      35.32973236      22.92703210
Si      38.78181985      27.92749007      29.87311503
Si      35.83538431      26.82019218      26.62454111
Si      36.50212381      25.29451430      28.20790879
Si      33.89123710      27.94220581      27.43781403
Si      37.03950757      26.33033228      30.20974690
Si      32.92641102      24.82519182      29.40545174
Si      35.09735324      27.53593254      30.99472175
Si      30.89322601      26.83096383      24.13225182
Si      31.64345486      25.28716053      25.77479260
Si      29.07832361      27.93626384      24.96695191
Si      32.22516944      26.39984965      27.75116154
Si      30.27117838      27.54704997      28.51402017
Si      38.08559844      29.54062613      28.21824434
Si      35.36303541      32.20721519      27.40347403
Si      36.04266023      30.59345749      28.97432787
Si      33.49914110      33.26618502      28.17882514
Si      34.37287258      29.07826666      29.40684335
Si      36.56268728      31.70715005      31.04120755
Si      32.43769164      30.19723505      30.10621651
Si      33.15538050      29.56481855      25.71043147
Si      30.52082668      32.20127784      24.96238760
Si      31.23580901      30.62154269      26.48978592
Si      29.54135671      29.05442713      26.86896816
Si      31.73677841      31.78521553      28.52452087
Si      29.87558887      32.78789792      29.31774126
Si      28.40492735      29.50482782      23.37373154
Si      34.94676658      37.55998365      28.23123889
Si      35.66770173      35.95463755      29.85342820
Si      33.08003558      38.70530174      28.97727468
Si      33.98967112      34.45915730      30.19510073
Si      32.07507682      35.55123307      31.01458373
Si      32.76183890      34.88206084      26.60705469
Si      30.88392322      35.99262497      27.29489067
Si      33.38660156      25.91853170      31.40772343
Si      34.12984967      24.33910607      33.00628144
Si      31.38766221      27.08896129      32.14181455
Si      32.95074710      31.26862816      32.15408181
Si      31.02114272      32.41631108      32.95195290
Si      30.36748498      33.96716488      31.37481037
Si      29.84691897       9.66891552      16.46999669
Si      30.81645888       9.34005959      21.73680807
Si      30.75129178       3.89829890      13.10106188
Si      28.73407425       7.21309829      13.70884110
Si      27.55349894       4.62168533      11.01184178
Si      33.07042815       7.57338535      14.25086422
Si      33.09295075       4.75704078      16.81582961
Si      31.84650186       6.44544568      15.82744203
Si      31.74695280       3.65133115      18.48443980
Si      31.07968749       8.02278004      17.49193970
Si      29.92536220       5.44540619      14.72433938
Si      29.73546759       6.83169072      19.06378694
Si      28.61026792       4.31928051      16.36413921
Si      32.90346018       6.08849475      21.13103471
Si      32.14504914       7.70281415      22.78563463
Si      31.05574919       5.15473563      20.05877086
Si      30.83980788       6.51749923      24.30200595
Si      29.70593602       3.99989711      21.67934980
Si      28.89453721       3.00342706      12.07218993
Si      27.48829117       1.87184409      13.66623717
Si      30.63732396       1.08966770      15.76620101
Si      29.93590341       2.68901621      17.38890724
Si      28.76463045       0.17161013      14.74600486
Si      28.63528537       1.49170820      18.96807654
Si      27.73604234      10.03156712      19.66345158
Si      28.79081996       9.75723354      25.03666501
Si      26.83035253       6.22032602      12.72519058
Si      25.52924366       5.02531123      14.20293057
Si      22.32556303       5.77205679      12.18482905
Si      27.96319411       8.66766260      15.33489003
Si      27.87346837       5.82203937      18.04969336
Si      26.66943058       7.56904664      16.98583871
Si      26.59942613       4.80259955      19.57798571
Si      25.84588936       9.06577376      18.62897726
Si      24.74723105       6.59537170      15.87520599
Si      24.54166114       7.92648532      20.23861330
Si      23.37737826       5.44946321      17.42612362
Si      29.00732580       8.36631280      20.65169036
Si      28.91427700       5.52495344      23.26608214
Si      27.72383862       7.29683979      22.30228174
Si      27.63573865       4.51830684      24.91637896
Si      27.04722638       8.80350403      23.83070919
Si      25.83431926       6.34371800      21.14046460
Si      25.62597010       7.61810543      25.51942970
Si      24.46646882       5.21506494      22.80392786
Si      30.08353809       8.00610208      26.00409413
Si      29.99440025       5.23332729      28.62843830
Si      28.75227789       6.93815540      27.49568592
Si      27.96449762       8.49509407      29.17606977
Si      26.88599341       5.93749065      26.59611611
Si      25.60068841       4.87700844      28.15429738
Si      23.25588034       0.11581005       8.85973873
Si      21.30572105       3.33040261       9.45803518
Si      25.79005214       3.75089137      10.02401562
Si      25.68945067       0.88789760      12.56351138
Si      24.45859604       2.59493709      11.53649260
Si      24.34975022      39.71826450      14.16740058
Si      23.68581986       4.12993969      13.15899959
Si      22.57419268       1.59517579      10.49117804
Si      22.33231517       2.99404011      14.78906701
Si      21.17136967       0.50049939      12.09736543
Si      26.78244900       3.38547062      15.30589907
Si      26.72793468       0.58022257      17.87543914
Si      25.47016132       2.28550425      16.88150023
Si      24.68661285       3.79354130      18.54222582
Si      23.63494041       1.29897491      15.82154127
Si      23.37510875       2.65648066      20.04716467
Si      22.29576787       0.12841571      17.41952264
Si      27.87121729       3.05264497      20.58074330
Si      26.55087440       1.96934954      22.23428039
Si      25.75207420       3.42781856      23.79896062
Si      24.49181145       2.33173194      25.39170374
Si      22.44659792      38.84529537      13.12075295
Si      20.27698464       6.19061470      15.36410649
Si      22.70816434       7.01165963      19.07776043
Si      23.81815650       6.69725297      24.39695748
Si      20.45529162       2.00632445      13.66622351
Si      19.18809873       3.69089719      12.65418822
Si      19.19112044       0.88412979      15.26364526
Si      16.03719760       1.63588666      13.26141357
Si      21.58242083       4.44086838      16.33414547
Si      21.51753950       1.66848382      18.99874844
Si      20.27332954       3.34608615      17.99728995
Si      20.21762522       0.59650765      20.59802547
Si      19.50584322       4.90709951      19.63529527
Si      18.37294894       2.42034830      16.94924464
Si      18.17616294       3.75985454      21.23140249
Si      17.01926638       1.31686574      18.50356170
Si      22.64291628       4.16393038      21.69892893
Si      22.59414629       1.36618270      24.29999671
Si      21.33414827       3.06902887      23.28925512
Si      20.50708874       4.66742407      24.96764891
Si      19.53284810       2.11884828      22.23756028
Si      19.29555852       3.44136020      26.48089136
Si      18.16941165       0.95349859      23.74713369
Si      23.79900499       3.89877083      27.03777095
Si      22.45177296       2.73219402      28.59190277
Si      19.35023718      39.50929436      10.95543674
Si      17.97008438      38.44331055      12.56568544
Si      17.30725980      39.88737607      14.19387932
Si      15.95344684      38.83547721      15.80796403
Si      20.40419181      39.22476395      16.23952744
Si      19.15703488      38.12899769      17.87449207
Si      18.34498859      39.62461844      19.46557007
Si      17.08572193      38.46437918      21.11758765
Si      13.95027268       1.99702881      16.39413068
Si      16.33401405       2.90403519      20.15120861
Si      14.98747979       1.64320171      21.70749018
Si      17.41706252       2.49195686      25.40336575
Si      15.24934929       0.33302176      17.42861890
Si      16.30533185      39.98632746      22.75542391
Si      14.11764918      31.90736909       7.25112158
Si      37.82717422      25.11210571       5.11454890
Si      38.75184884      26.35608916       6.89139450
Si       3.25263356      28.74301720       3.86520636
Si       1.06830652      28.18746080       4.35684894
Si       4.25708743      29.97591772       5.64324299
Si       1.00406860      26.83283195       6.40670751
Si       0.75364364      31.32403047       6.53515153
Si       1.92003984      28.02494850       8.09015694
Si       3.04814807      31.94442677       5.96043820
Si       3.97347943      33.15346559       7.82028547
Si       3.12818174      24.80107287       9.70804311
Si       8.63953549      28.34976996       8.55384637
Si       4.09052265      28.54538827       7.56224992
Si       5.13459457      29.84986571       9.43643541
Si       6.25441926      26.53587493      11.00067456
Si       6.47323498      30.43268124       5.20456205
Si       9.69716092      32.22752752       6.35810314
Si       7.43858555      31.68657750       6.90384971
Si      10.61160091      33.38414279       8.15810091
Si       6.22266133      33.62367237       7.24729110
Si       7.36056718      30.42122525       8.84440158
Si       8.32102052      31.58653760      10.69897821
Si       8.48498246      27.06416416      10.49681109
Si       9.51360787      28.28067108      12.22324600
Si      10.52234092      32.07271376      10.11460612
Si      37.69206515      21.18527107      10.93412624
Si      35.60113154      23.25590609       7.58867435
Si      38.79626590      25.05373357       8.86389873
Si      36.48369604      24.45946427       9.32213037
Si      39.63609955      26.17569101      10.57699568
Si      36.43808680      23.19728325      11.28075856
Si      36.17205944      27.73044484      11.46640433
Si      37.43893852      24.36302325      13.02292129
Si       0.78465653      30.03538576       8.44428071
Si      38.50369833      29.52844631       9.03046048
Si       1.70464761      31.31227437      10.29588778
Si      38.49642489      28.21125081      10.93550648
Si      39.34617131      29.46520777      12.75292372
Si       2.77337679      35.16752738       8.16566194
Si       0.48595929      33.30680627      10.62169987
Si       0.83634921      22.96828138      12.26046146
Si       4.05619734      24.73334987      13.49743072
Si      39.65140709      24.95936935      12.66584325
Si       0.58189636      26.07691727      14.33012548
Si       1.90962067      26.79713404      10.07922233
Si       5.06558315      28.48991069      11.39675381
Si       2.92754684      28.03153837      11.93970900
Si       6.07842984      29.64627286      13.14196304
Si       1.66524457      29.98703719      12.23314410
Si       2.79905467      26.70459546      13.79490586
Si       3.76012325      27.89178550      15.61943330
Si       3.92483253      31.87833155       9.71567844
Si       6.23275979      25.20380935      12.94421455
Si       5.97914980      28.44271042      15.09584958
Si       8.31373231      30.19724887      12.58942632
Si      36.11926758      26.35287801      13.53205046
Si      37.09563400      27.61579427      15.26082000
Si      38.22424183      31.38751958      13.12293137
Si      39.36468102      28.17796898      14.72824485
Si      33.01219613      22.00498879       1.10415540
Si      29.49579865      24.66600615       0.34716842
Si      32.21647762      22.51888871      38.89279401
Si      30.57605861      26.59240707      39.45860350
Si      33.39084400      24.46295764      38.06551296
Si      30.89331487      28.97379892      36.42191047
Si      32.62833828      24.85575374      35.85779720
Si      33.77747165      26.79895355      35.00899419
Si      35.33124427      21.68229344       0.99778596
Si      36.41556466      23.63818712       0.22878712
Si      32.90924627      26.25146620      39.45943128
Si      33.60919442      25.81269095       1.65321878
Si      34.04920777      28.23577916      38.57661637
Si      35.91971778      25.46877396       1.66312725
Si      34.25902754      29.59072574       2.28639195
Si      37.04200838      27.30269230       0.76584627
Si      30.08864922      28.50358801       0.85944794
Si      30.42454392      30.85483901      37.84884639
Si      31.20257049      30.37216794       0.08458042
Si      31.54683940      32.75623555      37.04809955
Si      33.48988477      30.03975678       0.06430328
Si      31.79018106      34.17608315       0.59392188
Si      34.50579421      31.96842355      39.19831824
Si      27.67103306      33.03723261      39.27379587
Si      28.01667869      35.39720549      36.21035338
Si      28.68815656      34.96874488      38.41025047
Si      29.05907694      37.29340437      35.41398281
Si      28.23729635      36.74411651      39.82619370
Si      31.00866227      34.61143531      38.39681041
Si      32.12681345      36.52438991      37.53212260
Si      39.91737771      25.11036430      39.33422303
Si      35.66589644      24.04513626      37.95677171
Si      36.03828248      26.38065070      35.03896032
Si      36.77026119      26.00514706      37.18258681
Si      37.11675135      28.36373570      34.18676237
Si      36.30024741      27.86285946      38.53439098
Si      37.38681122      29.73045822      37.79162755
Si       0.17806273      27.53398685      36.37655222
Si      33.27989512      28.65627039      36.41331483
Si      34.36083818      30.51756310      35.59094108
Si      34.66988017      32.94801960      32.58944125
Si      33.78352243      32.35559272      36.98529180
Si      36.66228810      30.22973366      35.59888252
Si      34.96883838      34.27624637      36.15159108
Si      37.76667720      32.11706506      34.77017761
Si      30.77003711      33.20015620      34.81497810
Si      31.86764760      35.12810027      33.97576352
Si      31.37617635      36.93400754      35.47670578
Si      34.21489057      34.74405477      34.00580582
Si      35.27480498      36.61002973      33.11822502
Si      39.45199591      28.05859063      34.11854247
Si      36.98990266      32.46126376      32.60422201
Si      36.58441734      29.19429499       2.17945763
Si      37.61524638      31.15128632       1.37874450
Si      34.10091253      33.75768387       0.54166452
Si      35.18893434      35.69741719      39.74494102
Si      37.19968804      32.98236092       2.77179908
Si      38.28503247      34.87340761       1.82367230
Si      31.73570652      38.33934752      38.90320687
Si      32.40928658      37.88498104       1.18439658
Si      34.72544133      37.54654158       1.15901153
Si      35.84998278      39.42833001       0.26171935
Si      39.30965184      26.95479273       0.78052669
Si      39.76739434      29.34752953      37.76008300
Si       0.46758252      28.88657070      39.95932295
Si       0.78942135      31.25378209      36.86332804
Si      39.95633653      30.68202930       1.28152899
Si       2.79179602      28.50850639      39.84970707
Si       0.98985179      32.63750702       0.45234216
Si       3.93319701      30.46967722      39.06822564
Si      36.86554918      31.58125452      39.16332918
Si      37.28411250      33.91116410      36.11586386
Si      37.99691805      33.46127587      38.38419210
Si      38.27750143      35.77598466      35.26653335
Si      37.55331192      35.29951940      39.72828169
Si       0.25984487      33.05688298      38.23541086
Si      38.58952441      37.19998842      38.82152817
Si       1.37658666      34.98852664      37.45092560
Si      34.45108129      36.15787466      37.58181929
Si      34.87056056      38.49607057      34.40999017
Si      35.49683447      38.05399164      36.72800844
Si      37.87281518      37.68520632      36.71113021
Si       0.07696101      31.65849954      34.66226464
Si       1.33154747      34.02779687       4.06960652
Si      38.83879230      38.58180626       2.40549380
Si       3.37000017      32.26694648       0.52040768
Si       4.12346882      31.79073285       2.63877597
Si       3.62246629      33.65983703       4.02126468
Si       4.68082793      35.53426263       3.17466035
Si       0.57335693      34.60326966       1.86382410
Si       0.97944527      36.85504256      38.90062339
Si       1.63752537      36.36637837       1.05200157
Si       1.16035349      38.24631062       2.47047831
Si       4.03247612      36.02413804       1.02144486
Si      38.16947228      39.06968807       0.26109883
Si      12.91752900       0.89617667      30.81296938
Si      20.43998617      31.86952769      30.86402663
Si      15.95478727       2.74034157       7.21246130
Si      11.40408618      35.61154438      22.13640421
Si      12.10366511      29.68400504      32.47133653
Si      24.78083100      28.28471182      16.59056215
Si      23.20211412      17.30897635      19.44215833
Si       2.25938339      18.59533266      38.24063009
Si      16.89322375      23.59456431       9.34761948
Si      28.21762968      37.60099986       5.80099806
Si      14.92265270      22.06348542      16.79290184
Si      16.39216267       0.54227174      25.08378013
Si      15.19869038      37.28437552      15.05929693
Si      32.67582965      31.75999737      34.97774920
Si      15.33824227       5.81278740      19.80759061
Si       9.51060976      33.74039685      10.43826144
Si       3.98424149      21.83652336      18.72688075
Si       6.53124484      15.36573056      20.23326438
Si      27.27140216      28.16017456       0.42915962
Si      33.02692178      38.09731949      22.18325073
Si      24.64127972      27.31471654      28.96458085
Si       6.30320975      20.49029697      36.62102747
Si      24.48898034      28.37536061      30.93906683
Si      32.02905024      29.68638667      34.36947668
Si      31.51934165      18.40602814      28.72562049
Si      19.74586508      35.75257333      15.37517586
Si      32.02148968      13.82856099       6.58513028
Si       2.46769989      30.10456823       7.22991228
Si      34.34114351      24.42438510      27.37784573
Si      15.87020409       7.45088476      37.40741586
Si       3.34210213      16.37908723      11.66373153
Si      22.61076857      19.10775916       9.01247101
Si       7.16465454      17.75377631       0.98551240
Si      38.29600083      27.90718634       2.99764363
Si       3.77932586      14.31574941      10.17789790
Si      18.65070392      22.67234471      39.57399952
Si      36.86762203      31.20500088      16.14687599
Si      25.99331539      38.21786699      26.28805659
Si      16.50379834       4.26202507      16.87728611
3068
Lattice="40.0 0.0 0.0 0.0 40.0 0.0 0.0 0.0 40.0" Properties=species:S:1:pos:R:3 relative_density=0.96 cell_dim_angstroms="_JSON [40.0, 40.0, 40.0]" n_grains=37 grain_size=15.0 crystalline_fraction=1.0 grain_radius=15.048347763179653 pbc="T T T"
Si       0.38028529       0.85145002       3.18788760
Si       3.17543559      39.46006907       0.84505910
Si       2.22772770       0.72205997      39.10216952
Si       3.18741723       2.86465583      38.97995731
Si       6.10786528       1.30704319      37.02063444
Si       2.34838118       4.05537130      37.13511918
Si       3.32590802       6.19104452      37.02625036
Si       6.00626694       4.77627137      34.75190236
Si       6.22011304      34.50514539       4.35808644
Si       3.67871535      39.54191874       4.65749927
Si       5.86049688      35.74959560       6.32057358
Si       6.78307105      37.91090527       6.24032466
Si      39.93546762       2.02258869       5.17783810
Si       0.81124045       0.79170484       6.97971101
Si       1.01633865       4.11058490       5.16658372
Si       3.13535427       0.57024309       6.70090403
Si       1.37917105       4.03818953       8.91719177
Si       4.16423360       2.68261156       6.62064677
Si       0.46505222       5.27126606       7.13579614
Si       1.57012535       7.34599184       7.08560063
Si       9.11994477      36.54409628       0.19767976
Si       8.53194022      34.46551537       3.93164973
Si      11.22331622      33.01414346       1.67879994
Si       9.57337094      36.57334308       3.93627868
Si      12.24964712      35.12854103       1.60040400
Si       5.49867547      39.23061903       0.56510241
Si       6.32217144      37.98909555       2.38401328
Si       6.49527409       1.35925725       0.51979737
Si       5.98153000      39.14162664       4.40458075
Si       8.65087871      37.77879076       2.14142086
Si       6.92149180       1.29533684       4.34803154
Si       9.69861602      39.87895111       2.01617839
Si       2.69306209       0.63470677       2.82385424
Si       2.81448092       3.95601994       1.02840732
Si       3.75474855       2.73192618       2.80135157
Si       3.85311035       6.06368189       0.95759874
Si       3.32758590       3.90262037       4.79407808
Si       6.07837351       2.51401116       2.52395205
Si       4.33553054       6.02556415       4.77223657
Si       7.11986487       4.61888606       2.43950631
Si       1.13657798       6.99244448       3.26093271
Si       3.45572826       7.23312539       2.95767047
Si       4.47630874       9.35009546       2.89389917
Si      11.41957143      36.33597301      39.76101660
Si      12.48060162      38.43433249      39.75044856
Si       8.38164790      37.81049593      38.35933985
Si       8.37402848       1.19320474      36.40419512
Si       9.28473026      39.97555810      38.19780081
Si       9.43834959       3.28699566      36.29335365
Si       8.81009429       1.09348544       0.21068690
Si       9.83960610       3.20516486       0.13703219
Si       5.52651842       2.68286211      38.83617926
Si       5.64501865       5.88094151      36.79560024
Si       6.60006516       4.76363196      38.62988712
Si       6.71645881       7.97095692      36.90179987
Si       6.17589365       5.84661631       0.67210262
Si       8.89274825       4.35184013      38.31692970
Si       7.21659623       7.95124108       0.56688905
Si       9.92861400       6.46051709      38.38821085
Si       3.08520038       7.27810527      39.09707763
Si       3.94318140       9.46695286      39.06241972
Si       3.63959387      10.61110815       1.09420676
Si       6.27148008       9.23085476      38.83630420
Si       7.30223374      11.33765154      38.67485935
Si       8.35549699       4.79785699      34.85308178
Si       9.24360803       7.68812436      36.50414972
Si       5.62097496       8.92929710      35.05473354
Si       9.93276179      36.38336289       7.70839025
Si       6.30502497      39.05132489       8.24021600
Si       7.37964223       1.14130321       8.16701158
Si      10.54590666      39.74392411       9.74081622
Si       3.70084867       3.78582735       8.64421154
Si       4.63224444       2.27680445      10.18819868
Si       4.76042996       5.88194534       8.54460197
Si       6.98322871       2.31772252      10.16375434
Si       7.90367601       4.48105164      10.13009684
Si       1.01836057       8.60364561       8.99415313
Si       1.83680122       7.22782435      10.71672082
Si       4.39784127       7.10922066      10.51671294
Si      15.86450455      33.53196437       6.92608434
Si      11.82514941      32.91512110       5.69624302
Si      11.88085728      36.22982782       3.64495572
Si      12.78389076      35.05026045       5.46758882
Si      12.84887917      38.36999007       3.54311774
Si      12.26303017      36.18143618       7.46237096
Si      15.10308443      34.85023948       5.13475723
Si      13.26398213      38.30681011       7.35986695
Si      15.82852848      37.08380571       5.25417019
Si       9.10615121      37.70133201       5.94533492
Si       9.23135003       1.00601240       4.02489693
Si      10.12553089      39.81726315       5.84472132
Si      10.25511510       3.12134708       4.00426202
Si       9.70176567       0.91044695       7.88217501
Si      12.44016993      39.54419772       5.53835206
Si      10.70623840       3.03424855       7.80289471
Si      13.44635359       1.66866232       5.52098965
Si       6.48375362       2.38428325       6.38433242
Si       6.64552646       5.73533535       4.45210314
Si       7.47173197       4.51442782       6.28234883
Si       7.65858849       7.85440181       4.36641877
Si       7.08845026       5.68632052       8.28351660
Si       9.79152215       4.25119198       6.01213846
Si       8.14293294       7.78760378       8.30431320
Si      10.80941658       6.36887451       5.94039506
Si       3.89374185       7.16765437       6.77811704
Si       4.06497402      10.55255809       4.87250463
Si       4.79528228       9.33777276       6.74890687
Si       7.05263924       8.74761695       6.45506420
Si      15.16410657      38.09583893       3.23817905
Si      16.20436205       0.20276626       3.14939039
Si      12.01664311      39.61427496       1.73040315
Si      12.16379384       2.95086574      39.89400265
Si      13.06312061       1.71874551       1.68288308
Si      13.33254501       4.99002910      39.95413470
Si      12.56723538       2.84508188       3.68562504
Si      15.39591801       1.58215419       1.42500129
Si      13.58909619       4.96021431       3.59167271
Si      16.33930812       3.73313743       1.31047326
Si       9.43495006       4.32745931       2.16174746
Si       9.54488634       7.75357833       0.31317741
Si      10.40624324       6.46586386       2.08067794
Si      10.59617107       9.85559293       0.26023950
Si       9.97852537       7.58069445       4.10518726
Si      12.73555051       6.26867267       1.83462471
Si      11.03314497       9.64919102       4.47403306
Si      13.78274622       8.36533884       1.64777699
Si       6.79188140       9.10147252       2.57237817
Si      12.27095618       6.28404700      38.30352102
Si       9.64784899      11.20308986      38.58281402
Si      11.10686180       3.02225858      11.60359451
Si       7.47378954       5.63334260      12.13400431
Si      15.52754545      34.69657861       8.94108217
Si      15.61302756      38.21283833       7.30563226
Si      16.56558157      36.80676742       8.93220879
Si      16.61496358       0.31946406       7.00494642
Si      17.08839686       0.07335018      10.92029139
Si      12.84927184      39.44142442       9.37719112
Si      13.03027649       2.80317027       7.53723684
Si      13.90182711       1.54289900       9.31985299
Si      14.19560441       4.84355703       7.45854872
Si      13.40823335       2.60751030      11.35714143
Si      16.22917662       1.29294413       9.10924707
Si      14.46990972       4.69361485      11.13047000
Si      17.02532822       3.50218682       9.00508139
Si      10.21224108       4.20623794       9.77991299
Si      10.45410257       7.58377723       7.92185972
Si      11.17072267       6.35318786       9.79301573
Si      13.45086422       5.92781691       9.40752067
Si      18.90458648      39.80895230       6.83690061
Si      19.93427718       1.91678486       6.66392781
Si      15.74734181       1.41228026       5.11298192
Si      15.92186338       4.74335953       3.39236507
Si      16.79168848       3.51745779       5.19982994
Si      16.52423353       4.83138568       7.13173656
Si      19.11135479       3.25867481       4.91668821
Si      13.10588448       5.93140395       5.67930972
Si      13.23055686       9.43397092       3.66718488
Si      13.89185846       8.14797324       5.51884997
Si      19.30855499       3.15690301       8.56133373
Si      13.35871051      21.20938067      22.68840770
Si      11.34743047      23.77579965      24.78689187
Si      15.57415060      28.80886644      25.82384493
Si      14.94769347      28.72613814      22.04171682
Si      13.81071335      27.30611296      26.22622777
Si      14.61394273      30.95301555      25.92687077
Si      12.21169621      27.51818693      24.51571175
Si      13.01084911      31.29164798      24.24046683
Si      15.64802753      24.69213847      24.11614186
Si      15.25109143      24.57830931      20.37793646
Si      14.08242581      24.96014639      22.38228507
Si      13.41371676      24.90459399      18.94747692
Si      12.39887397      23.35542139      22.72637680
Si      13.24290190      27.15550285      22.43461208
Si      10.73751853      23.56369973      21.07586555
Si      11.57430344      27.35151678      20.79066067
Si      11.69419599      23.30054090      18.94411957
Si      15.12406178      32.26304431      17.93853504
Si      14.04149789      30.89228048      22.16541472
Si      14.80342162      34.58426865      21.88042518
Si      12.45651633      31.07698327      20.43915751
Si      13.22627826      34.84299007      20.15574110
Si      15.23432344      28.10701623      16.17806767
Si      14.39700681      28.50119643      18.33935672
Si      13.62516153      28.34028203      14.47948715
Si      12.55682401      27.07665719      18.67297186
Si      13.45921144      30.65680011      18.35524857
Si      10.93174737      27.15059047      16.97595011
Si      11.87223365      30.94657197      16.64563369
Si      11.85978409      26.82926764      14.83993298
Si      14.04671992      38.64509368      19.82577533
Si      14.26944940      34.44870788      18.08574745
Si      14.87724667      38.10484836      17.69301719
Si      12.71562731      34.73313071      16.34417681
Si      14.47371206      32.08651131      14.20860095
Si      13.83491305      31.93478544      10.42696484
Si      12.74480765      30.52047731      14.50464943
Si      13.65186003      34.28967603      14.23323692
Si      11.10680928      30.65981972      12.82339012
Si      12.15745034      30.31805535      10.74744450
Si       9.52644653      26.29132211      27.01674940
Si       7.97909385      22.45050869      23.43573507
Si       6.12830196      25.08494575      25.67054822
Si      11.20170480      33.84587977      26.40225961
Si      11.32529206      29.69356047      24.60274237
Si      10.34062984      30.11234802      26.69602282
Si       9.73620509      29.88055165      22.88110202
Si       8.67670948      28.48342256      27.02041006
Si       9.45868151      32.29199913      26.68004776
Si       7.12299272      28.83593303      25.29198174
Si       7.80702712      32.55473775      25.02682787
Si      10.49210573      25.96233802      24.89932212
Si       9.88362479      25.75332759      21.12453768
Si       8.86666590      26.12982676      23.20990557
Si       8.11098447      25.98929666      19.59899579
Si       7.09804089      24.62584584      23.57842923
Si       8.00669262      28.31688995      23.17672928
Si       5.48493609      24.80300301      21.87702917
Si       6.30186585      28.58659897      21.58139636
Si       9.04415002      21.96421776      21.39639083
Si       6.41153839      24.37266544      19.75914200
Si      11.41655422      37.76740690      22.26309893
Si      12.19034627      33.49403687      24.29802049
Si      11.54257951      33.24132931      20.51181648
Si      10.53923274      33.47891262      22.62450050
Si       9.95837093      33.66716190      18.82829595
Si       8.73437296      32.00592463      22.93787159
Si       9.46444262      35.79457264      22.74701212
Si       7.14783646      32.39329794      21.24691667
Si      10.71169218      29.53771036      20.77063067
Si      10.16193769      29.37173068      16.99160794
Si       9.09397837      29.63625771      19.06858025
Si       8.37553596      29.20090781      15.47276233
Si       7.28989314      28.18895265      19.48595974
Si       8.53237979      31.89244311      19.41392615
Si       5.75559183      28.19616712      17.70483017
Si       9.23281597      25.63543794      17.56365448
Si      12.38423578      37.03646105      20.24828761
Si      11.04947800      33.14220035      16.81330437
Si       6.09704852      30.94817216      25.18899604
Si       4.46395753      31.32878114      23.54133272
Si       5.38985530      27.31588197      25.75265148
Si       4.61682835      26.98718881      21.94081687
Si       3.74967548      27.46323431      24.07410110
Si       5.45592607      30.77771703      21.48221151
Si       3.91913284      26.79071546      18.13040628
Si       1.01041849       6.41562815      28.92456789
Si      11.19874119       1.69658719      24.25707348
Si       7.70868189       2.24960381      27.18952530
Si       5.98833248       1.46771562      25.79008034
Si       5.43672191       5.04013121      24.17264263
Si       7.82275506       2.50402511      22.58454129
Si       2.54835764       2.17451630      28.77151402
Si       3.70572813       3.66978303      27.37383312
Si       0.80502243       1.48042069      27.35465381
Si       2.08509920       5.30778824      26.90611866
Si       4.46817394       3.16441812      25.20799634
Si       0.11254463       4.83255079      25.71792079
Si       2.59574054       2.30433313      24.07590205
Si       0.09173036       4.76824310      30.32949236
Si      37.30523653       2.12402610      30.10384935
Si      38.36357865       3.90387979      28.98964052
Si      35.54154461       1.23760923      28.82559135
Si      39.12883971       3.07275717      26.92758957
Si      37.38386696       2.12073166      25.67197192
Si      11.68416744       0.64603750      22.20984893
Si       9.99330722      39.84550474      20.78490666
Si      10.04493046      40.08653232      25.52465694
Si       7.44189552      37.20869016      25.23960068
Si       8.39157724      39.08413867      24.18623362
Si       6.77424266       0.72129966      23.70338451
Si       9.09915807      38.15011855      22.14741965
Si       5.01497546      39.75342775      22.47985053
Si       5.01916985      39.72439470      27.03548332
Si       3.24973323      38.86865104      25.74475672
Si       1.67214326       0.57075531      25.36772630
Si       4.03847880      38.00113883      23.70655575
Si      40.00593153      39.82965622      23.88376009
Si       2.24959157      37.14361264      22.44380531
Si      39.77799369      39.69623609      28.49003097
Si      38.04589014      38.72355039      27.23137919
Si      36.38051452       0.33301213      26.82360271
Si      38.82121628      38.18626825      25.07719828
Si       1.43910272       9.12069447      20.85751105
Si       9.68763321       3.41608043      19.25765159
Si       6.21354031       4.15879193      22.13575479
Si       7.24755646       5.92291807      20.97476947
Si       4.46168943       3.25676304      20.85299358
Si       8.09573816       5.11655702      18.93539993
Si       3.92072023       6.67309646      19.23512449
Si       6.35192480       4.20028137      17.65143774
Si       3.82450677       6.69447840      23.73294774
Si       1.05061911       4.03867372      23.71369519
Si       2.04517226       5.78501785      22.49381102
Si      39.34129246       3.08157755      22.41427807
Si       0.40288739       7.42397634      22.11309409
Si       2.88403322       4.95501242      20.46044177
Si      38.64388219       6.59220610      20.79308169
Si       1.11235127       4.04694155      19.21025040
Si      38.55713875       6.55017639      25.31913054
Si      35.81029197       3.83125083      25.31613066
Si      36.82379066       5.55564103      24.07997386
Si      34.09536364       2.93290876      23.98158738
Si      35.13937966       7.06075847      23.42690466
Si      37.78840192       4.81236187      22.06881357
Si      36.01270857       3.92769514      20.80715476
Si      10.50679371       2.48985963      17.25744503
Si       8.62152797       1.73575069      20.51054941
Si       5.86355710      38.98496948      20.42590905
Si       6.90211752       0.73905449      19.25354541
Si       5.33318103       2.43815440      18.82857693
Si       3.57227478       1.53550054      17.55849964
Si       3.48654598       1.48959600      22.05857270
Si       0.66448700      38.78715761      21.88176039
Si       1.73315257       0.57342484      20.78827887
Si       0.13721815       2.24709251      20.36589962
Si       2.57118316      39.76871507      18.74406924
Si      38.34978168       1.47756398      19.04720213
Si      38.25730564       1.37880019      23.61917335
Si      36.46384881       0.32536649      22.52354263
Si      35.05886578       2.13410860      21.99088822
Si       2.93291461      10.14633968      17.43574443
Si       9.70157208       5.96722765      15.63120899
Si       8.00019654       4.99307815      14.33392159
Si       4.76328372       5.87159399      17.19148374
Si       5.80175772       7.60734240      15.99235345
Si       2.93400827       4.98163808      16.01258532
Si       4.17256435       9.26649684      15.64145116
Si       6.75660244       6.95068826      13.94584071
Si       2.27216892       8.57478522      14.44143698
Si       4.94179526       6.08979944      12.72339965
Si       2.32172137       8.34643634      18.82009400
Si      39.56389570       5.76592214      18.79362189
Si       0.53884323       7.50063558      17.54132003
Si      37.88973993       4.96831261      17.34856164
Si       1.38450446       6.67646896      15.50797523
Si      37.21359222       8.33635188      15.87246177
Si      39.63541499       5.75490183      14.23506924
Si      37.05752233       8.29015926      20.43412977
Si      34.48342119       5.50733346      19.97391705
Si      35.32118740       7.50399528      19.05694984
Si      36.20699539       6.58831501      17.08065936
Si      34.59058710       5.78490470      15.57375909
Si       7.10186015       3.25252120      15.63440190
Si       3.82751401       4.39825581      13.91754844
Si       1.95111744       3.19689191      17.18539488
Si      39.17035398       0.55009220      17.04830953
Si       0.18738543       2.32968947      15.89569483
Si      38.58970343       3.96305957      15.34175167
Si      36.92943815       3.32424252      18.72787732
Si       3.29083914       7.74790234      12.49020300
Si      38.11900661       7.51350432      13.86428935
Si      36.26359619       6.64680070      12.70808405
Si       0.41165061       4.91307102      12.18116291
Si      35.26353280       4.71102535      13.59293481
Si       6.00142211      21.70287981      11.34992688
Si       8.61063966      20.44623061       8.44585624
Si       8.97343015      24.00616100      10.39850479
Si       5.15867696      16.71493657      12.70088722
Si       6.95916535      19.99193531      10.05387669
Si       8.15983264      18.89226739      11.74970010
Si       2.93927894      12.80273496      12.66253026
Si       4.35448951      11.62274119      14.12378256
Si       6.24777314      14.76862927      11.95566139
Si       7.66161300      13.43405354      13.27831653
Si       6.53202841      23.19232496      16.45103941
Si       7.51555194      23.33043429      12.11518192
Si       8.06850885      26.62491651      13.86274399
Si       8.77310484      22.10034676      13.67508520
Si       9.51807922      25.39083598      15.24280366
Si       4.58954753      21.29894081      13.18615727
Si       5.73586561      19.85524823      14.64596176
Si       5.49787856      18.03509942      17.85917118
Si       6.85618431      18.10757778      13.54190086
Si       7.43659979      21.27902589      15.42636037
Si       8.06503347      16.91108442      15.16512652
Si       8.59699250      20.12015789      17.11114758
Si       4.90511359      14.82774643      15.90318052
Si       6.06032824      13.01532519      14.94883722
Si       6.56580677      16.20785070      16.83438438
Si       7.81379397      15.06689551      18.46853273
Si       7.14057372      19.41758645      18.81816596
Si       8.43066091      18.26161192      20.40851808
Si      12.06523263      26.18365624       9.66979265
Si      13.80722492      29.49593322       7.43058754
Si      14.73144930      24.91256674       7.25545874
Si      15.27557935      28.33619451       8.85538390
Si       9.95015631      22.19123003       9.26554468
Si      11.46971539      22.85127282       7.59911311
Si      11.14198672      21.17590645      11.03311966
Si      12.99953041      24.25414610       8.70364166
Si      14.39206943      23.18158046      10.26566681
Si       9.29853092      17.04466946      10.84623170
Si      10.51224522      15.78891027      12.42086144
Si      12.39047083      19.34974516      10.22429645
Si      13.64224731      17.88584689      11.57487117
Si      13.75643985      27.59624796      10.49089925
Si      15.02244233      26.51393179      12.15082960
Si      10.59158558      25.42929929      11.33983947
Si      10.53887527      23.39727787      14.52788614
Si      11.95343031      24.26432404      12.86211847
Si      11.56728794      22.16080359      16.24246755
Si      12.96817437      22.35167525      11.94382885
Si      13.60764367      25.63877015      13.81240207
Si      14.21217058      21.14497264      13.53376748
Si      14.84630359      24.50985363      15.46152274
Si       9.83015557      20.21951484      12.73932636
Si       9.70761696      18.32192838      16.08129688
Si      11.09842262      19.02978589      14.32282785
Si      10.93128589      17.01462999      17.60520112
Si      12.17155346      17.21496956      13.28225524
Si      12.76884902      20.40849973      15.23680444
Si      13.36971604      15.97742318      14.88286821
Si      14.00956420      19.33776766      16.92186573
Si       9.11227195      15.05931986      14.16363722
Si       8.68642005      13.34063314      17.13112838
Si      13.18440658      23.72381021      16.92730093
Si      14.53865912      22.60325401      18.88851230
Si      10.17013168      21.59598885      18.04690522
Si      10.09424677      19.67448931      21.28401143
Si      11.53014857      20.47049703      19.60032294
Si      12.42540453      18.59798518      18.49457965
Si       9.49589276      16.43694581      19.37604937
Si      16.01294686      24.60218005      11.20594329
Si      15.79704685      22.58462901      14.50376849
Si      17.19601737      23.27879555      12.74771440
Si      17.03863377      21.36906259      16.08741165
Si      18.39690109      21.48679535      11.81149154
Si      15.26423580      19.30974908      12.50761462
Si      16.17336848      18.14069887      14.33426560
Si      15.86782908      20.40842055      17.88633408
Si      24.34360898      11.58157959      20.39531074
Si      24.69334365      12.12465086      25.04777674
Si      25.52197167      10.43486582      23.63777448
Si      22.08177793       9.56597551      22.59734720
Si      26.25687792      10.67234053      21.41654513
Si      18.56627082       8.67005561      21.76754741
Si      22.67480211       9.92524076      20.35014907
Si      19.84650848       7.13259632      18.33584585
Si      26.02358173      10.16575713      16.82203219
Si      22.31064573       9.49437187      29.30257824
Si      26.20449813      10.71562559      28.15615547
Si      25.60017579      10.24323386      30.37927122
Si      26.89831970       8.77078575      27.03031661
Si      24.58125798       6.72790608      29.34175809
Si      19.25483960       9.04723217      26.02669898
Si      19.75821684       7.15245196      24.72824664
Si      21.20289143       6.13355418      28.23908910
Si      17.34614519       5.18038148      27.03201911
Si      22.72286558      10.07201833      27.06229482
Si      23.98484975       8.65464523      23.63616429
Si      23.38826048       8.04853506      26.07794083
Si      21.64642768       6.47491359      25.95521890
Si      16.64781102       7.33601072      21.50252934
Si      16.11515318       6.69382265      23.70121126
Si      17.40085804       5.48414829      20.26422684
Si      17.92574368       5.68077162      24.80843126
Si      15.23433923       3.41278331      22.73165577
Si      20.56822018       7.76608153      22.60749386
Si      20.94858060       5.82467753      21.33621304
Si      13.69586712       4.30887557      19.30406438
Si      18.04110629       5.66198702      18.00873856
Si      19.40461249       4.63298853      28.02902984
Si      15.45798958       3.84521329      26.60403859
Si      13.53418639       1.82186167      23.06143965
Si      24.30410817      28.00607958      24.03118875
Si      21.42760474      25.89156573      25.57858464
Si      26.93194486      29.60412190      26.19593559
Si      25.57320446      27.69612023      25.98666141
Si      26.96072514      25.79798093      26.03323869
Si      24.56208084      24.36085581      20.00982522
Si      23.18085090      25.94144126      24.01284430
Si      24.40176975      23.96826262      23.63509155
Si      21.66621811      22.47423636      21.40112162
Si      26.19424391      28.09289677      22.63498217
Si      27.34405410      26.13839605      22.01264778
Si      28.33976534      25.94064796      24.13378410
Si      25.96071785      24.24062419      21.89613172
Si      29.91646486      24.19607249      24.14772971
Si      18.63288653      23.98829763      27.09415780
Si      22.72268935      25.74394626      27.53577186
Si      24.01045712      23.77757652      27.46501368
Si      21.20661469      21.83771393      29.00820704
Si      29.36506858      23.70245147      27.98457092
Si      26.53570951      21.61980294      28.90305598
Si      31.00275176      23.40418527      29.64936591
Si      15.95714247      22.40607893      24.57298557
Si      17.38015132      22.00336686      26.95591637
Si      20.03308160      24.03536211      25.20549986
Si      22.95731414      22.13704625      23.33731420
Si      21.42384603      22.14146262      25.11981397
Si      22.62053326      21.91049232      27.13066044
Si      20.03744976      20.26161121      24.85071221
Si      23.95796505      19.97681720      27.08650804
Si      25.54362901      23.95287573      25.69059416
Si      26.85366443      22.00806903      25.51071260
Si      28.29530876      21.70703900      27.34479885
Si      25.47386191      20.11592132      25.29399916
Si      30.82119631      23.39142212      26.16383680
Si      20.39337311      20.50598957      21.20958150
Si      19.72108133      20.04540610      28.67667751
Si      25.08886485      19.78097437      29.13904790
Si      26.39298031      17.82415753      29.15400496
Si      27.70635253      17.66023234      31.09787867
Si      30.53092640      20.04859431      29.45702934
Si      37.87650422      25.26702208      34.07687097
Si       2.78626790      27.23005670      35.00150234
Si       0.81068713      25.82986790      31.84153102
Si       4.04302165      26.37406916      29.73903618
Si      36.70958774      19.80468254      37.74070558
Si      39.25530534      24.81562477      35.92752130
Si      38.25341043      23.30338709      37.42388285
Si       1.26663022      23.92055831      35.10151139
Si      39.69793208      22.86517170      39.22704322
Si      37.68645039      21.34334781      36.25501481
Si       1.64434590      22.01533748      38.21762903
Si      39.67684917      20.46445033      35.36446175
Si       6.22050765      25.99936454      35.87265872
Si       2.79663317      23.53831357      36.84564590
Si       4.80430267      22.48899981      36.21441623
Si      37.40489821      23.25134857      32.96129770
Si       0.42426167      23.83024834      30.66603543
Si      39.38905508      22.30510552      32.12611187
Si       2.40424572      22.84986551      29.86147983
Si       0.84104030      21.92377551      33.93568076
Si       2.81294431      20.90885145      33.15612810
Si       2.30882295      25.40198131      33.60244701
Si       5.50678573      26.01444252      31.54369949
Si       4.30584951      24.44367607      32.81506256
Si       5.67597638      24.04620044      34.68329000
Si       3.82742170      22.43777931      31.68676636
Si       5.85874478      21.64280853      30.81041413
Si       4.13304347      20.17866685      28.02754383
Si       3.40290450      24.48329473      28.49610905
Si      38.07903477      19.39434703      39.60777019
Si       1.11627317      19.98285319      37.15975866
Si       0.04472421      18.40897847      38.77455265
Si       3.33584008      18.98679946      36.36551956
Si      39.76722375      16.34543473      37.68163339
Si       3.75775034      17.07297118      39.73592138
Si       1.76525500      15.42039721      36.85580817
Si       8.17496465      21.15887666      36.83531267
Si       4.70953150      18.61652076      38.23812830
Si       6.70429070      17.60042364      37.51870411
Si      39.44048119      18.34029450      34.38611659
Si       2.30961227      18.90751654      32.03005584
Si       1.38993376      17.34557303      33.52740589
Si       4.33990567      17.98905355      31.28005300
Si       2.78975206      16.92769243      35.36992973
Si       4.78709056      16.02302217      34.52067768
Si       4.31220365      20.57797675      34.93600662
Si       7.21257819      21.25172620      32.69301900
Si       6.29840174      19.62130876      34.11889846
Si       7.67348749      19.04488424      35.93668607
Si       5.80166631      17.57446189      33.07430957
Si       7.79982565      16.59757466      32.31184472
Si       3.87693619      15.97061981      30.16663079
Si       5.43188323      19.52733450      29.87645258
Si       3.17665390      15.04394640      38.69858711
Si       2.13536268      13.40884670       0.03010492
Si       5.14311759      14.14025038      37.77867549
Si       4.27547502      14.00537700      33.42670814
Si       3.27435009      12.49039971      34.92094713
Si       6.35902152      13.08242776      32.84600842
Si       4.70304534      12.07571674      36.74226370
Si       6.24130466      15.62767210      36.32569851
Si       8.23378114      14.67163856      35.52204644
Si       9.68197486      14.18961856      37.31112179
Si      29.60318849       7.00525108      29.83288394
Si      31.99674916       0.94362063      31.60695655
Si      28.16977827       0.12574175      33.87310186
Si      29.84003569       3.99388098      32.40798947
Si      30.01633646       1.16365762      34.89410903
Si      31.62357777       3.64229089      29.09713150
Si      35.64640071       4.16358645      29.15751851
Si      31.88458604       5.97851145      29.04652237
Si      31.84685031       3.28213583      31.41028359
Si      33.63143763       7.26301690      29.95485186
Si      33.64690301       4.36334764      32.46847533
Si      32.03485168       0.46714174      33.90940970
Si      33.84715913       1.46102932      35.03043713
Si      33.97433101       0.22112903      30.55939932
Si      35.83083790       1.32395852      31.75177590
Si      35.64317416       3.64876587      31.45202840
Si      35.81384187       0.67243030      34.01106071
Si      37.46509174       4.65473985      32.54655621
Si      37.63742323       1.73179320      35.05080677
Si       1.28900415       4.75492352      32.74493564
Si      27.71734087       7.01870543      33.05563966
Si      25.55712928       7.32614523      36.44292005
Si      28.00395110       1.32834738      38.13061267
Si      25.83169253       4.42661530      38.90769957
Si      25.86463247       1.52788638       1.28417773
Si      25.98135190       3.14036587      34.60544365
Si      29.80521980       3.49778678      34.70600818
Si      27.78437977       4.19712444      35.68298057
Si      31.63878448       4.57883348      35.70391389
Si      27.45849828       6.49923065      35.33411008
Si      27.85113273       3.66903326      37.97283133
Si      29.35035052       7.37867987      36.41752541
Si      29.66365092       4.76483029      38.99214261
Si      29.73792549       6.31954171      32.07759574
Si      33.42225958       6.69130954      32.22617356
Si      31.43976871       7.46620977      33.22526355
Si      35.15068308       7.89650213      33.26976494
Si      31.46956285       6.91544949      35.51079383
Si      33.30833263       7.82268640      36.66077405
Si      28.31401676      38.63728604       0.65927842
Si      27.98718849       0.95602250       0.45183293
Si      29.87335357       1.87442584       1.51200011
Si      30.03374808       0.61678131      37.18090419
Si      33.84653835       0.85127620      37.30124684
Si      31.85124677       1.66764682      38.23925936
Si      35.68313704       1.92053042      38.30685188
Si      31.64029436       3.99440167      37.98059709
Si      31.83475416       1.05446230       0.50878441
Si      33.46174099       5.03595898      39.03939761
Si      33.57308428       2.19326189       1.60789779
Si      33.63403711       3.78519917      34.74729908
Si      37.47055028       4.06589907      34.82282249
Si      35.46732262       4.81379461      35.79947452
Si      39.22885267       5.15086574      35.94422265
Si      35.22689202       7.13171522      35.49155859
Si      35.45848637       4.24954355      38.08120534
Si      37.06798572       8.10242728      36.58404489
Si      37.27141405       5.27630554      39.16919540
Si      37.25324882       6.98906292      32.73562482
Si      39.31195177       7.88564716      33.43437015
Si      39.17902834       7.49300792      35.74842393
Si       1.04068359       8.55515440      36.71478280
Si      35.62795965       1.59587678       0.63471212
Si      37.54416651       2.44294338       1.70139226
Si      37.72266725       1.24747037      37.35019095
Si      39.54072357       2.28449046      38.42180655
Si      39.32441026       4.61804668      38.23198697
Si      39.51555058       1.65831703       0.68824190
Si       1.17591959       5.72431035      39.16823611
Si       1.28179066       4.41055443      35.07057753
Si      23.95333118       1.68581429       4.76557026
Si      25.77576694       3.87568914       1.19271953
Si      27.60751748       4.87674068       2.27402842
Si      23.78491449       3.99749092       4.36854997
Si      25.48091092       7.93078456       3.03476606
Si      25.54421686       5.07064127       5.50034141
Si      25.71677259       6.76815263      38.72169579
Si      29.42159220       7.09016165      38.74933227
Si      27.47609273       7.91112513      39.78262169
Si      31.21738420       8.12422474      39.85912422
Si      27.47963763       7.21105611       2.02705420
Si      29.24818946       8.30850700       3.12048449
Si      24.21660490       1.21269886       7.05408191
Si      25.89471237       2.23273926       8.34755164
Si      25.94231796       1.19828662       3.61015897
Si      29.80581464       1.28891563       3.78737207
Si      27.80665290       2.04900148       4.76301033
Si      31.64777140       2.40469415       4.73063460
Si      27.59105110       4.38192909       4.57188448
Si      27.75167314       1.57248779       7.06490597
Si      29.43997698       5.37902117       5.62669494
Si      29.62319525       4.19916133       1.27294778
Si      33.47049856       4.52543779       1.33345509
Si      31.45727950       5.22975408       2.32056904
Si      35.28578371       5.52799889       2.43955077
Si      31.25225862       7.56448975       2.14206759
Si      31.46779664       4.74590086       4.62055843
Si      33.05092235       8.62352302       3.22372305
Si      33.31302475       5.68134407       5.73645389
Si      33.25946310       7.37638670      38.96750812
Si      37.26249496       7.60841321      38.87409232
Si      35.25222051       8.07314067      40.00046536
Si      38.90162213       8.83334178      40.03164319
Si      35.09276783       7.86839352       2.33662936
Si      36.97279579       8.94310240       3.25178742
Si      33.43020888       2.76826223       8.22996170
Si      33.66450969       1.55693980       3.86930596
Si      37.48400896       1.86729222       3.98032551
Si      35.47340161       2.57817669       4.97089353
Si      35.27860371       4.90607049       4.70633223
Si      37.05973933       6.03989753       5.73978313
Si      37.20708676       3.28886008       8.47477655
Si      37.28451900       4.76738546       1.46406386
Si      39.13528273       5.84762734       2.43100322
Si      38.98274446       8.18988228       2.29179173
Si      39.05923001       5.33509810       4.72436468
Si       1.19165478       9.34318120       3.21835202
Si       0.86618255       8.04968984      39.00466021
Si      25.44847569       7.41351718       5.32841570
Si      27.29850021       8.50224464       6.28824525
Si      25.68277717       4.50448605       7.77750281
Si      29.49109117       4.80939831       7.90709101
Si      27.48240331       5.51087475       8.90813187
Si      31.28718461       5.89713462       8.96526218
Si      27.08926273       7.79669065       8.52155108
Si      28.94059786       8.82205853       9.54631048
Si      29.32596505       7.71563125       5.39432629
Si      33.07696580       8.00755666       5.49252658
Si      31.09957258       8.82761245       6.46465668
Si      34.88944246       9.08650807       6.53135165
Si      31.06716788       8.22716256       8.73791300
Si      32.89462159       9.24168221       9.81541853
Si      31.27198702       5.27304159      11.23235434
Si      33.15956989       6.26587198      12.22370757
Si      33.28679871       5.10497997       8.01541206
Si      37.13893986       5.59974335       8.04780279
Si      35.09215102       6.22717364       9.02039527
Si      39.02859962       6.49260511       9.12522787
Si      34.91647750       8.56397146       8.82393951
Si      35.05015975       5.32180763      11.19056108
Si      36.71549674       9.61160979       9.91764690
Si      36.89593474       8.37601648       5.53237075
Si       0.68817305       8.78156613       5.44555624
Si      38.73390534       9.36326495       6.61691089
Si      38.67743229       8.80703656       8.90105371
Si      38.00286976      36.29000331      26.20110677
Si      32.99101445       2.40838030      19.95714055
Si      33.00364477      39.29652639      17.74912885
Si      31.96014863      34.00927154      18.56517189
Si      36.21213712       1.16977359      18.11777488
Si      33.00509313       0.99888258      21.83949570
Si      35.33160176      38.35023183      23.11164034
Si      34.71341915      39.52728071      21.17174548
Si      36.62653018      36.48796987      22.49146586
Si      33.63913394      38.08217478      19.65977547
Si      36.74332657       0.19789538      20.19218791
Si      34.97422907      36.25245730      19.02891220
Si      38.15976077      38.40696894      19.63014236
Si      33.49626343      34.29967518      21.97621146
Si      35.48916175      35.07328153      20.99680827
Si      33.72894592      30.90851734      19.62585226
Si      36.86516650      33.24179124      20.46697379
Si       1.65323427      35.59503528      24.47275919
Si      38.67083485      37.24395444      21.60896926
Si      39.98130380      35.38930047      20.99862748
Si      37.04035874      35.15262197      24.38220714
Si      38.53383331      33.40406570      23.89046790
Si       0.25875285      30.32588947      25.29568260
Si      37.40910921      31.99231694      22.38321278
Si       0.53702260      34.19614162      22.94725287
Si      38.76681372      30.17204466      21.77240723
Si       1.89478156      32.36151578      22.38137357
Si       2.25986947      31.08611237      24.32269526
Si      33.06206873       3.12626447      15.23400741
Si      34.54842756       1.38436216      14.69926858
Si      31.97294838      37.94989290      16.12014644
Si      31.50439164      39.29359483      14.24805688
Si      33.28469950      36.09355525      15.51913215
Si      33.47675830      -0.03276063      13.15887324
Si      30.76420698      32.66717474      17.04914443
Si      30.50141607      33.73654434      14.97125176
Si      32.21459700      30.90010300      16.49809968
Si      36.55135175       2.25006915      13.82273665
Si      34.90843058      -0.01054471      16.55745223
Si      36.98841467      37.04620087      18.11212358
Si      36.39998709      38.21615902      16.15969436
Si      38.33747418      35.20156421      17.56088754
Si      35.28402132      36.88929788      14.57157982
Si      38.39416872      39.03148304      15.21871849
Si      36.73138302      35.09033479      14.12700932
Si      33.83838155      34.90640235      17.47144976
Si      35.73179581      31.90417241      18.90024113
Si      35.25086983      33.10459098      16.93661481
Si      37.19579716      30.15277479      18.33626578
Si      34.12798327      31.71889167      15.40454276
Si      37.29643074      33.78588084      15.99928574
Si      35.44949689      29.79719277      15.10440285
Si      38.79172610      32.10193358      15.32424494
Si      33.98347257      27.72981983      17.38002923
Si      36.14914494      28.54974900      16.97098548
Si       0.30088991      35.92904640      16.49242906
Si      38.87592156      33.96680584      19.48761966
Si       0.75542076      31.00576584      20.83439877
Si       0.29598444      32.20054430      18.86206973
Si       2.28042865      29.31898995      20.23544317
Si      39.17563187      30.86334616      17.28555748
Si       0.57655215      29.04847557      16.76306950
Si      37.61262322      28.82281807      20.23050662
Si       1.15908419      27.90118177      18.73141734
Si       2.49334584      27.97453297      22.15301778
Si       3.86287497      24.38486275      19.24885600
Si       4.42238758      24.08358425      16.98470101
Si       1.91478770      23.10659658      19.56701417
Si       1.12757713      23.51916845      15.75998138
Si       3.10301878      20.51912364      17.04804315
Si      38.99613780      26.36239092      20.45319959
Si      39.89015618      25.96578018      18.31484739
Si      38.22175142      26.83005315      16.90101444
Si       0.30046791      23.67847238      17.95554668
Si      36.22003924      25.60271643      17.02929328
Si      38.28202970      22.55815231      18.40304661
Si      35.29221897      25.92877950      19.16530430
Si      33.39760478      24.58042435      19.51622143
Si       5.94210712      21.34755548      20.34103369
Si       3.98155437      20.08023751      20.62478200
Si       2.24196553      20.80420010      19.21769533
Si       4.45936868      17.78856658      20.40057313
Si       0.28777626      19.53719647      19.54286263
Si       2.46736430      16.56377597      20.64954817
Si       1.49306189      21.21296763      15.48078241
Si       2.27784415      20.88079070      13.28909999
Si      39.55139127      19.94115311      15.85633710
Si       2.68554092      18.59739208      12.90172609
Si      38.81532626      20.26703385      12.35828878
Si       0.70541940      17.38292714      13.26764020
Si      39.20498727      24.20723057      14.59284918
Si      36.64194883      23.29389672      16.88733950
Si      37.22506914      22.93941543      14.63761212
Si      34.64087877      22.07035928      17.05330300
Si      35.41473138      23.67265688      13.32850374
Si      37.81662070      20.67220094      14.44795421
Si      35.85161005      19.39682461      14.64505116
Si      34.51102590      26.31316905      15.57865630
Si       3.69016266      13.95241745      18.12262495
Si       2.73551270      14.33053213      14.43833205
Si       3.53622296      18.25542064      16.58137753
Si       0.79641589      17.27431339      19.15536501
Si       1.59182592      16.98888584      16.96110257
Si      38.82709383      16.04931126      19.54328397
Si      39.90524281      17.65038818      15.46236404
Si       2.01778141      14.69786229      16.64717087
Si      37.90996942      16.45867076      15.81781728
Si       0.05591694      13.43005020      16.91665356
Si      38.66426620      20.27179168      18.00859081
Si      36.69488362      19.04877743      18.40210161
Si      35.09470609      19.77317801      16.83891785
Si      37.18152436      16.77858100      18.03027059
Si      33.08648844      18.60040930      17.18663481
Si      35.20525480      15.54420201      18.34529884
Si      34.06354147      22.33428532      19.31739633
Si       2.88158501      14.27437016      20.30727311
Si       0.86119689      13.13756434      20.70186440
Si      39.26261344      13.78105845      19.10214549
Si      37.28654412      12.57517147      19.51499783
Si      39.03216631      18.00903777      11.73868560
Si      37.04748808      16.79129364      12.06616961
Si      38.24805061      14.23177421       9.50993099
Si      34.23985972      20.14895900      13.10788300
Si      34.96564696      19.82553272      10.89471491
Si      35.37033628      17.52883809      10.59220178
Si       1.17997656      10.80172942      14.40488565
Si       0.34459963      11.13765676      10.74117303
Si       1.11588927      15.09464521      12.91418910
Si      38.32908879      14.16693107      15.50112237
Si      39.13246514      13.89442831      13.30810349
Si      36.37791547      12.89301993      15.81546382
Si      37.50729143      14.51075530      11.72428928
Si      39.56187049      11.61763411      12.90615572
Si      35.52990039      13.29120803      12.08825777
Si      37.64294502      10.30343026      13.25352924
Si      36.27420296      17.11613508      14.26252777
Si      33.60652339      16.33759967      16.81439179
Si      34.29028498      15.90332114      14.60707546
Si      34.75007489      13.62022049      14.28224414
Si       0.53636548      11.14481677      16.64054615
Si      37.69907612      10.29292778      19.12600900
Si      38.52875515       9.96028998      16.95088375
Si      36.84781074      10.61923227      15.44397460
Si      34.89142212       9.37078771      15.82389160
Si      35.61199118      13.25265009      18.00941890
Si      34.08180220       9.67560757      18.01065592
Si      36.06898154      11.04082647      11.66961696
Si      14.20228022      31.12922634       3.65757716
Si      10.25464535      32.86557698       3.94676460
Si      10.57312968      30.55074115       4.20806227
Si      15.00653945      30.73573221       5.83168393
Si      15.32258574      28.41200021       5.99649796
Si       8.30745510      29.94049012       1.24022797
Si       6.05777837      29.25311907      38.16304941
Si      11.98252774      30.69807313       0.58104299
Si      12.35253529      29.96892420       2.78562514
Si      10.13957379      29.42884552      39.85684354
Si      13.04271807      27.72647757       2.93798876
Si      10.74255330      27.15930181      -0.00680352
Si      14.99058262      27.30188442       1.69113997
Si      11.06435486      30.04254709       6.45068183
Si      11.54467179      27.74572180       6.29855213
Si       6.44579846      28.75490401       0.42834237
Si       4.60912784      29.16547865       1.83845343
Si       6.88261354      26.44745108       0.55066373
Si       5.40923727      28.66446702       3.99238586
Si       3.26735198      25.81524871       1.06157020
Si       8.68873964      29.34633119       3.48238577
Si      11.14276049      26.53828024       2.22580560
Si       9.27000925      27.06887885       3.54505770
Si      11.60631306      24.23756731       2.37254370
Si       9.64101238      26.46391793       5.78681964
Si       7.34454945      25.94248278       2.80061234
Si      10.08561455      24.16255091       5.97133729
Si       7.84206609      23.64313773       2.76267320
Si      13.51886654      27.15311243       5.16780870
Si      13.83366782      24.82469187       5.08372917
Si      11.90510185      23.56689132       4.60650332
Si       5.08656909      25.18166291      39.71283771
Si       5.50678978      22.88035471      39.95146611
Si       8.86015957      25.87369101      39.41489583
Si       9.36667288      23.57932350      39.31731983
Si       9.76726056      23.01419869       1.56484445
Si       7.42692012      22.41451315      38.67689149
Si      10.33348667      20.77553558       2.01118412
Si       7.87274982      19.95917845      38.83562149
Si      13.46509609      23.73191373       1.02369484
Si      12.16284508      20.41164378       0.57896463
Si      39.47612517      24.81807272       1.57795111
Si       3.67255068      25.02377754       3.23863074
Si       4.04722162      22.70951003       3.42317575
Si       8.21592752      23.09908185       5.02568324
Si       8.76341960      20.86236409       5.48868513
Si      38.08949110      21.45283892       1.09372857
Si       1.49908188      24.38682275       0.45914983
Si       3.71657948      21.54101715      39.22292887
Si       1.85360732      22.06423834       0.55935564
Si       2.12810027      21.48998336       2.82317282
Si       2.74240278      19.22225400       2.92474332
Si       5.99972180      22.30205557       2.17699075
Si       8.45159224      19.69917661       1.10020283
Si       6.44252005      19.99483460       2.28633759
Si       6.59327922      19.55357213       4.59132362
Si       4.57317766      18.79669751       1.51139154
Si       5.13675563      16.52045598       1.68934408
Si       6.83804987      15.66079268       0.31187625
Si       0.84681911      18.09750403       2.10495281
Si       1.40070248      15.81508198       2.22256200
Si       3.32765413      15.16509534       1.04202880
Si      14.25416000      38.25786550      22.13605441
Si      15.77358797      32.22211867      24.32213914
Si      17.28081575      33.20010998      25.83908648
Si      13.62463880      35.34696301      24.48950695
Si      13.08012661      32.57785831      27.02991982
Si      15.10069396      36.36069488      26.01302322
Si      14.61297265      33.64261554      28.46041494
Si      18.11252048      36.14067563      23.54232935
Si      18.03882679      38.45664621      23.14334749
Si      17.27637689      35.54417088      25.65679009
Si      18.92350118      36.57543156      26.98044869
Si      14.11241444      31.00537730      31.09602535
Si      18.81954181      29.76892716      27.84362601
Si      16.61408257      30.42051533      28.33582700
Si      20.54125101      30.60764167      29.20890603
Si      16.75841063      32.75468938      28.08818251
Si      16.15735979      29.95885562      30.59593600
Si      18.29589548      33.77769030      29.54474039
Si      17.85124831      30.94319022      31.89650796
Si      19.49119035      32.46162639      25.52674154
Si      21.14458125      33.44435837      26.87983005
Si      20.44943322      32.95559942      29.07329553
Si      22.06955041      33.90201024      30.49339964
Si      11.57017295      38.53607276      24.63011411
Si      13.02478179      39.61783135      26.12814684
Si      13.06478712       1.95287382      25.85221937
Si      11.81764866      33.93997134      31.25770203
Si      14.58519720      35.98665350      28.27633068
Si      12.40320705      36.74289923      28.71953526
Si      16.19285363      36.95318283      29.69427298
Si      12.65077478      39.05685634      28.38102380
Si      11.89141066      36.27225039      30.96602066
Si      15.12944470      38.68376286      25.65112328
Si      18.92911291      38.90162043      26.63583345
Si      16.73086047      39.58276324      27.11958986
Si      20.64238806      39.92284726      27.88156242
Si      16.77510277       1.92774062      26.95041136
Si      16.13549638      39.28235393      29.37499390
Si      13.64139479      30.53554559      33.35092614
Si      14.99041683      31.36272430      35.09017236
Si      14.02054315      33.32337822      30.71341014
Si      17.77722747      33.29110574      31.78665938
Si      15.62892380      34.14374492      32.21970241
Si      19.34385368      34.26000400      33.24855216
Si      15.61996081      36.47665621      31.92467832
Si      14.98703336      33.61654913      34.41940915
Si      18.33154942      36.10512475      29.20728494
Si      22.07545647      36.23655421      30.20412071
Si      19.91598692      37.04321945      30.67021548
Si      23.65164360      37.35286879      31.54635867
Si      20.08789588      39.31404705      30.08390331
Si      19.35876384      36.58679818      32.90867993
Si      23.30787809      39.67886085      31.49113675
Si      17.07683641      30.88487739      34.11604368
Si      18.75196548      31.51558508      35.64106770
Si      18.67617007      33.85956462      35.46752858
Si      21.44846770      33.36721871      32.69813368
Si      22.95994249      34.44312348      34.14031724
Si      22.99023019      36.75665278      33.72264362
Si      22.49681867      33.84221851      36.36553868
Si      26.57073400      37.14412305      35.08737688
Si      26.56142306      22.43246558      19.89722716
Si      30.26786166      24.70201616      20.34693755
Si      30.19251634      22.50394411      21.17775318
Si      28.73327794      21.59068318      19.57609868
Si      28.89803437      19.27761456      19.96534088
Si      22.44686783      19.36322412      21.14509414
Si      25.87376642      21.89807265      22.08092728
Si      25.95125194      19.58375050      22.48881375
Si      24.62425542      18.52203343      20.86377322
Si      27.55155124      15.94958324      18.78602230
Si      24.57954880      16.21237717      21.30246227
Si      21.62549968      18.82855110      23.52372695
Si      29.38580098      22.05255603      23.33967567
Si      29.59179926      19.74366845      23.73344224
Si      30.37877772      20.62764244      27.18303023
Si      32.43656618      21.84255590      20.94228347
Si      31.10361081      18.51599963      19.67377959
Si      32.57812630      19.51082114      21.21198961
Si      31.10045635      16.18486606      19.98301269
Si      31.82817511      19.09823886      23.40226451
Si      31.86009087      16.76306034      23.67578285
Si      33.30499507      15.40878686      19.72368451
Si      33.38435710      13.08639377      20.08465382
Si      25.30825336      16.90489620      25.04234628
Si      28.78038472      19.45220925      25.92097873
Si      28.83698680      17.12213419      26.23087687
Si      28.14134620      18.80222202      22.14027545
Si      26.77523429      15.44880995      20.94836445
Si      28.21185454      16.47942466      22.49852476
Si      26.82308248      13.11089715      21.19646418
Si      30.40306565      15.69077618      22.17365306
Si      27.45678447      16.02153755      24.67775158
Si      30.44505447      13.38102056      22.61253975
Si      27.63255930      13.71282481      25.08804962
Si      29.72830604      15.16276351      18.36976293
Si      29.66115533      12.85904778      18.83784770
Si      31.98106639      12.01760600      18.52945219
Si      29.03829202      12.33658010      21.04417649
Si      31.93576887       9.70850531      18.97183104
Si      24.74878901      16.36967859      27.26287415
Si      23.89779313      15.80492283      23.51582477
Si      26.34037561      12.63146430      23.44755508
Si      28.36975818      16.73019723      28.50174486
Si      27.92022751      14.45200445      28.87281492
Si      30.98665482      16.27238334      25.80279762
Si      29.81021311      12.86741654      24.81775549
Si      31.25831413      13.98873150      26.29275229
Si      32.64129692      12.61553319      22.26554477
Si      32.77005202      10.30897137      22.70508703
Si      26.85119621      13.14864490      27.23310367
Si      13.70023278      17.35514137      20.78962857
Si      10.49098903       8.79455225      16.09032536
Si      13.36148147       7.28393617      20.59644898
Si      10.73515458      11.68815638      13.82364690
Si      11.33629911      13.92440649      19.33774913
Si      10.85975854      12.52547589      17.50850254
Si      13.68312153      13.79463457      19.41416779
Si      11.36786322      10.23966011      17.72524103
Si      11.56546013      13.24074947      15.38237211
Si      13.68852401      10.16623255      18.09888885
Si      13.90456016      13.13537238      15.59894577
Si      14.34427560      11.58199986      19.85841872
Si      16.68742595      11.73458333      19.98665973
Si      14.70603229      18.11412519      18.80447652
Si      13.99751389      16.77983362      17.00228426
Si      17.05192719      18.23293443      18.91534886
Si      14.57796635      14.53057044      17.36786747
Si      16.92470482      14.43432396      17.47944233
Si      17.62656764      15.96223434      19.12312684
Si      19.95199978      15.90191368      19.46739104
Si      17.88938366      18.87747769      16.81454913
Si      20.22718594      18.84262603      17.06702508
Si      11.51186586       6.82231298      16.86364186
Si      13.85058448       6.59661954      16.77879814
Si      11.52196462       5.97890326      12.78087813
Si      13.86295468       5.98024494      13.00239619
Si      14.24860332       4.29193939      17.01845468
Si      14.13349414      12.51491294      11.78888042
Si      11.52288668       9.48908677      14.09465720
Si      14.60212183      10.94106165      16.07545517
Si      13.86351836       9.61425093      14.28042353
Si      16.94963504      10.86092907      16.17703789
Si      14.59727690       7.42198981      14.70800825
Si      14.86339294      10.33370926      12.27772277
Si      16.94019334       7.28643079      14.84723812
Si      17.21247815      10.28194936      12.36361942
Si      14.39297173       7.97940434      18.60136773
Si      17.13686629       9.42748788      20.06064664
Si      16.72590919       7.69735076      18.52187385
Si      17.67724358       8.66619818      16.60235924
Si      20.02336053       8.79669542      16.68401556
Si      14.82838618      13.88371643      13.57022044
Si      17.82394290      15.32086638      15.49595858
Si      17.17068591      13.85880177      13.77435771
Si      20.13594949      15.17693729      15.89824259
Si      17.86882636      11.64752957      14.16134938
Si      17.93117332      15.03119739      11.88360063
Si      20.21547097      11.62156571      14.29925865
Si      20.38237437      14.34004738      12.05632776
Si      17.68553549      12.25409745      17.92200885
Si      20.72853801      13.70090049      19.75367692
Si      20.02315567      12.13748130      18.14530635
Si      23.03656433      13.52318123      20.16745545
Si      20.71432431       9.94048030      18.61882889
Si      20.88049440      12.95763897      16.11555337
Si      23.19175286      12.98764690      16.54492975
Si      18.01260488      18.07400757      12.87051088
Si      21.02061764      15.77597493      13.80427145
Si      20.99678890      16.66381562      17.50328527
Si      24.16682264      14.28094839      18.24949696
Si      14.64253016       3.78054955      13.29109845
Si      16.99008303       3.77758221      13.42914807
Si      14.86015421       7.00613637      10.94991452
Si      17.88723313       8.08247297      12.84805020
Si      17.18004276       6.66014921      11.11465122
Si      20.21841475       7.88397619      13.07921835
Si      17.65529482       4.36139763      11.25032609
Si      20.23465367       7.33267259       9.21001971
Si      17.74595775       5.10832443      15.21452164
Si      20.83752654       5.65827452      13.51665522
Si      21.27073844      12.17412916      12.27225529
Si      23.61078656      12.28941099      12.47229712
Si      21.22776795       8.64010843      11.09509147
Si      23.57905819       8.67619000      11.10704530
Si      21.01561560       9.43926583      14.65175482
Si      23.74005252      10.70409605      16.66173809
Si      23.34423507       9.21388254      14.88629453
Si      24.24381039      10.06275973      12.88629291
Si      21.36774379       5.35622523       9.79272503
Si      32.14590017      20.62511904      39.86610630
Si      32.39983988      19.23927132      36.35033012
Si      34.35611106      21.26369249      39.37608693
Si      35.68971377      19.63447497       0.42502274
Si      35.70764121      17.77970637      37.08910021
Si      29.26757093      18.72878650      38.81869596
Si      26.49107108      18.11267668       1.26332990
Si      26.49448352      16.28078297      37.83718137
Si      31.60957640      20.83304562       2.14618322
Si      29.27120827      20.59181590       2.20958269
Si      32.95666679      19.09240555       2.97432314
Si      28.79391598      18.56541072       1.11613476
Si      29.94375183      16.75554144       2.08126469
Si      32.29653282      19.01038016       5.22987370
Si      33.40822501      17.24068752       6.30808538
Si      29.35808547      14.90215467      32.15956480
Si      25.35972356      16.01703971      33.81598337
Si      26.57542071      14.20771504      34.69818826
Si      26.54875831      12.61170976      31.05960109
Si      31.69504419      17.19342726      35.42977209
Si      29.37985714      16.78519798      35.47953692
Si      32.88049253      15.34933082      36.27988076
Si      28.81034312      16.68046747      37.75844860
Si      28.85254437      14.73836136      34.44965143
Si      29.95519047      14.87888600      38.74381832
Si      30.04178534      12.93270684      35.37312993
Si      31.59830439      18.78193779      38.51297797
Si      35.20664359      17.58597292      39.37807833
Si      32.90500306      17.20644871      39.66968754
Si      36.39274890      15.83703310       0.40829372
Si      32.26423347      17.10308396       1.92933166
Si      32.26965765      15.24080702      38.54748861
Si      33.49606982      15.36866430       2.93042311
Si      33.48821101      13.54558919      39.62811382
Si      35.25109448      19.54836400       2.73401917
Si      36.25552352      17.72819135       3.83322720
Si      35.80642181      15.72738996       2.68249562
Si      36.94379061      13.95380941       3.72630406
Si      28.88703096      12.86025842      31.09229126
Si      30.00104604      11.02923684      32.06007264
Si      32.33204981      13.38972076      35.10211470
Si      33.52717248      11.65448194      36.14522548
Si      33.29652274       9.69274323      32.89547970
Si      35.18931925      15.73275411      36.05473039
Si      36.36419829      13.96863209      37.07281286
Si      39.87924808      12.53093797      37.91138779
Si      35.80660355      13.82008103      39.35204084
Si      35.82853652      12.03323605      35.84964517
Si      36.93749016      12.03362300       0.38015890
Si      36.99323708      10.40016239      37.07616631
Si      38.70647800      16.21402870       0.22623299
Si      39.77402645      14.40284332       1.27967742
Si      39.25827905      14.34029773       3.57316313
Si      39.25165716      12.39472868       0.17345958
Si       0.47130643      12.61992941       4.62154053
Si       0.38999299      10.62341015       1.22049568
Si      39.32437477      10.53491319      36.79870924
Si      26.22704084      16.05163873       0.16237914
Si      27.16314136      14.22524313       1.31040822
Si      29.33073540      16.70116917       4.35108948
Si      27.02921948      16.25946285       4.55618409
Si      30.55561952      14.94493416       5.32472519
Si      26.43791228      14.21938239       3.54716687
Si      27.71787264      12.45235777       4.42410884
Si      27.13633323      10.68745489      34.60849787
Si      25.86338627      14.20103707      36.93931617
Si      29.37588262      12.89278452      37.62739646
Si      27.08609086      12.45393978      37.93012122
Si      30.53106835      11.22617709      38.81700902
Si      26.42421610      12.29995427       0.18100625
Si      26.54428606      10.42655433      36.86931582
Si      27.70625653      10.60299763       1.18410317
Si      29.44692805      14.71041064       1.03296273
Si      32.90720064      13.34077387       1.89682058
Si      30.59714476      12.93395433       2.05711059
Si      34.07159580      11.52564893       2.83372669
Si      30.02930118      12.87612478       4.33813399
Si      30.04109634      10.86509395       1.08802592
Si      31.15564119      11.05785168       5.31550259
Si      32.88582674      15.23513388       5.19707534
Si      36.52278429      13.85835565       6.03786981
Si      34.21802840      13.40897203       6.16669469
Si      37.62550128      12.02085410       7.00635726
Si      33.46455621      11.45094614       5.10434707
Si      34.63806363      11.57613695       9.43628661
Si      36.96634220      11.85481567       9.25766465
Si      29.35621869       9.07632005      30.91937767
Si      27.07347849       8.65706110      31.29783991
Si      26.25874445       8.80896355      33.49895710
Si      29.46337134      10.89878314      34.34546459
Si      32.85423631       9.60910871      35.20239718
Si      30.56798770       9.08086930      35.34652240
Si      30.12292170       9.22556783      37.65108581
Si      32.79633784      11.67783752      38.37937584
Si      36.40563008      10.00466749      39.31810874
Si      33.85377618       9.89140620      39.48327945
Si      36.38104108      11.93370605       2.66246630
Si      39.45196874      10.91957579       3.35655690
Si      39.97101343      12.11223923       6.86260138
Si      24.80480924      10.09727146       3.65039847
Si      27.01403147      12.06314647       6.63386117
Si      28.35521057      10.23005792       7.75601376
Si      27.12960226      10.39248817       3.45415456
Si      30.62245950      10.83349260       7.59499080
Si      13.21877964      14.33298561      38.67074485
Si      13.46903942      11.31774541      36.52880222
Si      13.88037886       7.99735015      38.32811561
Si      14.21531111      11.07006150       0.29459230
Si      14.71418521      10.18954090      38.17306130
Si      17.67853726      10.24357179       1.61091355
Si      17.02513032      10.48012659      37.85714102
Si      16.28545536      10.78799804      34.28262106
Si      14.11572667      13.57599054      36.63323178
Si      16.99880207      16.13473835      36.22040930
Si      16.43501475      13.85692612      36.36916252
Si      19.31752984      16.34024923      35.88777415
Si      17.66948231      12.73464818      38.02585867
Si      17.21229490      12.94727088      34.34531123
Si      19.94531756      12.98239974      37.48994558
Si      19.45296696      13.11645623      33.65351479
Si      20.52258248      15.25939435      37.59340138
Si      22.81810244      15.54267488      37.16900207
Si      16.63249719      16.55352954      32.55845541
Si      19.87061460      15.42634346      33.79290390
Si      22.18993915      15.57667542      33.43574181
Si      19.92537267      18.60262687      35.68247794
Si      18.06994335       7.04147752       3.24127510
Si      19.16311327       5.60374689       4.74741971
Si      17.22934424       7.17110262      35.65651107
Si      15.23898241       6.79695129      39.82500920
Si      18.24210296       9.34110100      39.51445019
Si      17.56914386       7.10604454      39.79229054
Si      20.56632049       9.49292003      39.19837918
Si      18.76634648       5.82155230       1.35544922
Si      18.18364515       6.36489676      37.64799627
Si      21.05402873       6.12127582       0.90413035
Si      20.45861642       6.30191865      37.06072913
Si      21.05501149       9.30603833       3.07613081
Si      21.73033460       8.37281385       0.90618594
Si      24.03023215       8.64560248       0.50034303
Si      19.97702880       6.58162021      33.57871546
Si      17.54832480       9.49660211      35.78720889
Si      20.46987773      11.96735951      35.43510313
Si      19.86345047       9.69589991      35.43097133
Si      22.78773016      12.21941130      35.13090077
Si      21.07825193       8.56899914      37.09846128
Si      20.41439797       8.87507793      33.29771500
Si      23.39191370       8.76857090      36.73181595
Si      22.73685511       8.93442819      32.93485726
Si      21.13828914      11.77109262      39.11394263
Si      24.00812548      14.29060636      38.76470275
Si      23.44832670      12.00675321      38.74355464
Si      24.53806987      10.94120056       0.53433631
Si      24.06553016      11.02123815      36.69964542
Si      22.73031795      14.68268370      31.32946297
Si      22.08032333      12.42438222      31.42393305
Si      23.27005640      11.22133751      33.05711776
Si      25.60477356      11.36035923      32.81268886
Si      23.38879186      14.49271304      35.14371904
Si      22.86885386       4.76735998       6.39314304
Si      21.52933649       5.15885898      38.81336975
Si      23.80580800       5.46105805      38.31429952
Si      22.29971101       5.16124917       2.65161894
Si      21.11720677       5.19287852      35.09609721
Si      23.96518007       7.87168641      34.63511129
Si      23.38694879       5.59248599      34.63176466
Si      24.52009594       4.42375671      36.32870308
Si      23.34870952       8.05311180      30.84272699
Si      15.19839241      22.85664900      26.75270543
Si      18.08074387      21.82216765      29.19338456
Si      15.94123391      25.08086203      26.92567142
Si      14.55911365      25.92955670      28.62831478
Si      17.22457254      24.97204731      31.12164465
Si      13.67471508      28.75231867      30.58448949
Si      16.39295980      28.09957388      33.09665488
Si      12.48348508      20.29674578      25.80057036
Si      10.29856809      20.00385765      24.98271294
Si       9.15709112      20.95494482      26.80511838
Si      17.83717237      18.25419284      30.92210606
Si      15.80177999      21.61187964      28.65395642
Si      15.08938562      19.39361535      28.33947811
Si      14.40980680      22.44579683      30.35462575
Si      12.83155388      19.06552182      27.77263547
Si      15.59163888      18.10320783      30.24020388
Si      11.52278091      20.00864636      29.48207878
Si      14.28485276      18.95900824      31.99707472
Si      13.00483171      22.58400290      25.95257365
Si      12.29417909      25.69460969      28.04186642
Si      11.72610838      23.43402886      27.73315251
Si      10.92327345      26.57499795      29.73721666
Si       9.46412996      23.26552874      27.11402773
Si      12.15307568      22.25994130      29.72439779
Si       8.11071571      24.08713191      28.85252183
Si      10.79103553      23.11430085      31.43903216
Si       8.64614245      26.35091897      29.19558331
Si       7.34170184      27.33026263      30.88857263
Si      16.89750302      18.03635039      34.58332857
Si      18.37564839      20.53305671      31.13779415
Si      17.41846445      23.58128679      33.00746792
Si      17.04040099      21.26135351      32.93123101
Si      16.23150660      24.27912008      34.91323662
Si      14.76562883      21.23478187      32.33757832
Si      17.49042742      20.27051329      35.01579044
Si      13.42618284      22.12431834      34.05231536
Si      16.06118483      21.21511147      36.62661288
Si      14.94399339      24.72094874      30.60796604
Si      14.10442620      27.76428402      32.67431491
Si      13.52703989      25.51520748      32.30721811
Si      12.73955673      28.62598365      34.38319181
Si      11.24703143      25.39955651      31.74727705
Si      13.95719647      24.39740668      34.32986429
Si       9.89528963      26.26640494      33.46376912
Si      12.64066913      25.31409027      36.04828888
Si      11.37498840      28.85331179      30.10471317
Si      10.42718130      28.49466151      33.98898475
Si      16.67056320      23.44327945      37.06662127
Si      15.18842060      24.33516311      38.65959193
Si      16.80766058      26.49449966      35.45045631
Si      15.88932408      30.00493351      37.30458519
Si      15.47290417      27.71695545      36.95298372
Si      13.18330210      27.56880293      36.43624827
Si      15.74697632      26.59387258      39.00115258
Si      11.78774130      28.42532715      38.12417605
Si      12.55848082      30.80649874      38.30376661
Si      17.20406060      29.96734863       1.55110401
Si      14.94455391      29.73595848       0.94158282
Si       8.81997330      17.47152569      28.46908068
Si       6.84076499      20.73018591      26.46823782
Si      12.92506090      15.85758413      29.41858073
Si      12.01175919      18.77967253      31.42517698
Si      11.43621348      16.52164217      31.11317458
Si      10.64986699      19.62716644      33.14379820
Si       9.19552499      16.26116780      30.44970020
Si      11.84753601      15.31539741      33.08928891
Si      10.45771248      16.17729408      34.77912373
Si       9.28255160      19.74958856      28.81951265
Si       8.52649107      22.90622376      30.84285617
Si       7.96959382      20.64014180      30.55339771
Si       7.19446266      23.79532868      32.56463402
Si       8.44658005      19.27057395      32.40441162
Si      14.63161499      17.78760545      34.00586558
Si      13.79321735      20.95965451      36.06113205
Si      13.30939660      18.68250540      35.73197847
Si      12.63906840      21.82384579      37.91837715
Si      11.05261280      18.42585693      35.12425899
Si      13.73746133      17.43158571      37.67633989
Si       9.80897508      19.46793123      36.82607259
Si      12.28066239      18.55447619      39.14139277
Si      11.17414243      21.90241665      33.41633507
Si      10.38134631      25.08824934      35.43903789
Si       9.82441557      22.82930325      35.10293851
Si       8.97874334      26.03359245      37.07191676
Si       7.54356657      22.62304250      34.57342061
Si      10.44548822      21.71757077      37.07922558
Si       7.62928881      26.08688587      32.86370810
Si      12.91815721      24.15343485      38.07418770
Si       9.54572740      28.28744529      37.42762419
Si       9.97161572      18.24076828      38.82532403
Si      11.62616729      19.92726940       6.49691040
Si      13.24011888      17.34874759       9.32206383
Si      12.56714481      18.88597340       4.61003219
Si      13.07084236      16.90740320       0.62245566
Si      11.56432779      16.80371440       4.17670483
Si       9.76323353      15.91957961      39.13823423
Si      11.42008271      18.42304142       8.29252612
Si      10.11629706      16.55495188       7.70969488
Si       8.66064867      18.54741941       5.08499732
Si       9.56052690      17.51534222       3.17284209
Si       8.01098780      17.28808715       6.96195663
Si       8.15738922      15.69029546       2.69327143
Si       6.77871502      15.44868405       6.17029199
Si       5.68578169      15.04456984       9.68915156
Si       4.63669384      16.04026270       5.40185114
Si       3.43639626      14.13715693       4.71821704
Si      13.45320811      14.77019636       6.79730878
Si      15.11358909      12.35408447       9.33434412
Si      12.89763137      15.66370211       2.61103084
Si      11.53586166      13.89349008       1.87795750
Si      13.33107506      11.64140757       4.46779056
Si      12.47435108      12.64080578       0.12376670
Si       9.87152774      15.14954646       9.57871311
Si      11.99408477      14.49108242      10.34667202
Si       8.59775512      13.27334014       8.95913436
Si      13.09544739      13.33027396       8.62262128
Si      11.73408008      13.01238499      12.15663746
Si      11.90834099      11.39122833       8.00867849
Si      10.41770786      11.15901281      11.55446266
Si      11.31580529      15.40222648       6.04820058
Si       7.94996325      14.23782603       4.53039722
Si      10.07590945      13.56159436       5.27199527
Si       6.74042614      12.31724649       3.91844954
Si      11.25076839      12.35394917       3.63198320
Si       9.87279704      12.29424119       7.24262654
Si       9.83533680      10.69920933       2.74430531
Si       8.80289175      10.31434681       6.56044018
Si       9.44866294      14.60002015       1.05867440
Si       6.10234550      13.25006693      39.73249609
Si       8.30683178      12.68167518       0.32175978
Si       7.65224052      11.22504629       2.04695851
Si       3.79109454      11.61071020      10.82331733
Si       8.29688659      11.79537734      10.76279206
Si       7.13435618       9.87459716      10.06377067
Si       5.55514664       9.68436336      13.54783909
Si       6.58915076      13.84551722       7.87956785
Si       3.12587647      12.75487161       6.59513408
Si       5.20627598      12.00649715       7.39602517
Si       1.97352053      10.82130392       5.91441638
Si       6.26409616      10.81759075       5.66463154
Si       5.04188702      10.48466847       9.18107700
Si       4.65289141      12.98568947       3.06773500
Si       3.44824682      10.09212368      12.58583297
Si      14.62451787      11.00234029       2.60853263
Si      11.51718017       9.97229983       9.84711851
Si      13.62377525       9.24712024      10.60086825
Si      14.84148796       8.16637515       8.90417949
Si      13.07142348      10.21282814       6.32381957
Si       6.79169268       8.49658783      11.93828907
Si       8.87584448       7.75747969      12.73856398
Si      22.26953719      14.26228361      22.80977130
Si      22.04552551      11.96112767      25.84124521
Si      21.09254427      12.52121726      21.75512487
Si      18.75585597      12.77895124      21.69922280
Si      24.92163566      12.92804869      29.22778670
Si      22.62340617      13.40736239      29.35774112
Si      22.10966129      17.83336897      25.59858799
Si      22.65603456      15.70108668      26.42530740
Si      19.78124112      18.11288608      25.76992049
Si      21.57970906      14.12526213      25.05289172
Si      22.03876774      15.58505000      28.69110854
Si      19.26471712      14.41016954      25.34334866
Si      19.70043889      15.66323559      28.92416946
Si      21.65485360      16.40767580      22.06893296
Si      18.73051573      18.86111317      21.45242431
Si      19.33005012      16.72328176      22.22659395
Si      16.40413066      19.14649682      21.64238018
Si      18.11575149      14.98729380      21.20632027
Si      18.65982352      16.50706744      24.46969290
Si      15.80430290      15.41939225      21.18527982
Si      16.34972232      16.80027899      24.79221922
Si      19.31796669      17.81396613      28.05529113
Si      16.99543093      18.01734676      28.35618787
Si      17.03399836      20.42684585      25.24651769
Si      15.82680817      18.91574666      23.90993601
Si      13.49870704      19.23848715      23.96306028
Si      15.87203920      21.31483873      20.90406376
Si      18.60981107      10.79061842      24.58641072
Si      15.33927797       9.40070444      23.77086681
Si      21.48567185      11.76697318      28.11762934
Si      18.53159316      14.14580100      27.56102623
Si      19.17435084      12.05762626      28.42888006
Si      16.21249843      14.42566536      27.82700356
Si      17.86650515      10.51854125      27.22535323
Si      15.52415453      10.70555521      27.31022881
Si      18.04660952      12.97784550      23.93218663
Si      15.21488743      15.23520516      23.45417632
Si      15.71477951      13.06882819      24.21941194
Si      12.88979597      15.54576129      23.61715925
Si      14.65736385      11.46185935      22.86707854
Si      15.09061854      12.86123105      26.47687999
Si      18.98667136      15.52070580      31.15995798
Si      15.68719597      16.57682838      27.03674107
Si      13.35603267      16.86151758      27.14557031
Si      12.21505418      15.26372516      25.85206351
Si      12.19847287      17.64740181      22.82037574
Si      14.51228088       9.07736274      25.94842484
Si       7.30950343      28.88515076      28.89003766
Si       8.80207253      29.11448045      32.40811007
Si      11.78387568      31.31323182      30.98721306
Si       0.94594004      28.01610850      29.66625658
Si       0.15997651      31.18617852      27.64171836
Si       3.84730009      28.43363909      36.72057852
Si       4.54965487      28.03846230      32.26103225
Si       2.31318308      28.27320046      32.94754970
Si       5.30224039      30.22725221      31.85273850
Si       0.68593643      29.31614073      31.60827979
Si       2.35727134      29.52644155      35.26595099
Si       1.70483777      31.40082932      31.23201656
Si       3.16362214      31.66396251      34.71201839
Si       2.96562475      28.02869023      28.46238450
Si       5.94037138      29.99301739      27.33228283
Si       3.78468797      30.22129074      28.24208608
Si       6.72138662      32.19630368      27.08060679
Si       2.30170085      31.15004338      26.67245486
Si       3.87163094      31.29988560      30.32825106
Si       3.11570606      33.31429425      26.24621091
Si       4.57292623      33.48830348      29.83885678
Si       5.32222027      33.15261393      25.45011091
Si       6.03535309      35.34259653      24.97644623
Si       8.28091654      30.57024671      38.97631252
Si       4.83758408      32.12872366      38.17173662
Si       6.02719628      28.34181248      35.84399671
Si       8.99317925      30.30391082      34.42784812
Si       6.82540275      30.48844809      35.31619527
Si       9.73907036      32.47912651      33.94152095
Si       5.33212657      31.51325945      33.81905613
Si       6.98875321      31.66330992      37.34519832
Si       6.10465079      33.68923771      33.38482640
Si       7.60736134      33.88469358      36.88992397
Si       7.42248835      30.19222042      30.84007808
Si      10.36045160      32.27868427      29.38353394
Si       8.29191057      32.34845589      30.49789883
Si      11.14330608      34.47360677      29.06910106
Si       6.79137436      33.45239232      29.06534246
Si       8.27389027      33.60114562      32.48617426
Si       7.55333384      35.60342636      28.50315957
Si       9.11427558      35.74535689      32.01619474
Si       9.68318057      35.46773451      27.51705936
Si      10.50541478      37.60254862      26.97295475
Si       9.14504141      33.97529517       0.46307295
Si      10.29274254      30.49101856      37.76368704
Si      11.25621030      32.62857465      37.58609109
Si       9.76979578      33.56729205      36.02496039
Si      10.32778442      35.75747270      35.37760919
Si      11.91561370      32.42622505      33.05450437
Si      38.22084036      32.78293095      30.64993158
Si      37.49515950      35.79428721      28.66709305
Si       1.70469489      32.70168395      33.18892249
Si       2.54360913      34.85301867      32.75909816
Si      38.48324064      33.95765814      32.67001227
Si      38.94181794      36.20704014      32.16423892
Si       0.40313084      36.23062080      35.76677244
Si       0.31127616      32.41999821      29.63708611
Si       3.18225611      34.53006235      28.25696514
Si       1.07721208      34.61615967      29.29868066
Si       3.85226282      36.75130912      27.87942211
Si      39.65849645      35.67536229      27.75274503
Si       1.08926775      35.92003062      31.25369136
Si       0.43171150      37.83044458      27.21719578
Si       1.78823094      38.11070350      30.76729929
Si       5.59757154      35.10186858      39.70160233
Si       3.12623520      32.86066484      36.73506916
Si       6.12729466      34.91969006      35.38639837
Si       3.98184364      35.01444327      36.34084274
Si       6.97456431      37.05604630      34.89488215
Si       2.53276644      36.02850652      34.79325958
Si       4.05087263      36.24081358      38.34524155
Si       3.25335967      38.22635240      34.37716564
Si       4.81171547      38.42341553      37.91391011
Si       4.69572350      34.73785247      31.82455557
Si       7.60137312      36.77487005      30.54056686
Si       5.41879251      36.93240323      31.39816253
Si       8.27095080      38.95966002      29.98792832
Si       3.96142107      37.97981459      29.88067978
Si       5.41044602      38.06335901      33.45833715
Si       4.73546093       0.16183883      29.47226359
Si       6.15817947       0.21643465      32.88306509
Si       6.02068861      36.55126686      26.99348488
Si       6.85716028       0.05817598      28.46371804
Si       7.80452072      35.09965357      38.89181611
Si       6.84121161      38.51905792      36.73032338
Si       9.10898945      37.13478456      33.91284412
Si       8.29488547       0.31770228      31.90728655
Si      10.39797497      38.78980484      29.00009578
Si      39.12542875      37.40335827      34.17918428
Si      39.76980302      39.62084854      33.74195098
Si      37.41069663      37.10021049      30.62082731
Si      38.22330573      39.26545623      30.19990572
Si      38.20663368       0.48196893      32.21168080
Si      39.05028904       2.64098282      31.81639917
Si       3.40412986      39.48372575      36.35744465
Si       1.25774720      39.54037036      37.31580085
Si       4.03889695       1.71608698      35.98126663
Si      39.80486634       0.66472275      35.84818994
Si       1.89544569      39.30365814      32.78987935
Si       4.82517558       1.48138007      31.41639470
Si       2.65748289       1.47873405      32.32693317
Si       1.19451476       2.58101444      30.85278161
Si       2.75681550       2.74872079      34.30282856
Si       6.46214385       1.65034825      34.72152772
Si      21.82752157       2.85061656      30.60085954
Si      25.53057018      38.50912150      37.06392000
Si      25.02213989       0.93900513      33.31624401
Si      23.43831120       2.50742652      34.06538183
Si      24.72486537       2.31157135      37.63551109
Si      22.73098133       5.01004689      30.37515781
Si      22.72427990      36.15079590      35.97915303
Si      21.30412928      33.42511098      38.34837741
Si      20.66782906       0.04690494      32.83780639
Si      19.23642465      37.43787052      35.22678182
Si      20.05033810       2.62862756      29.07672979
Si      18.41809974       4.00112099      30.06718775
Si      18.57136139      39.65792758      31.84693783
Si      15.36825450       1.69053770      28.81811786
Si      17.01338177       1.33301494      32.38419120
Si      16.52769749       3.73284759      28.69500230
Si      22.72545018      33.20417482       1.97339741
Si      25.02699464      38.12057853      39.32776784
Si      24.10758577      35.95755394      39.39729009
Si      23.35218073      39.62046912       0.01552883
Si      22.11790551      35.62544998      38.18936381
Si      20.54387184      37.25067859      38.82806591
Si      21.86999980      36.93504970       2.46581697
Si      23.58471741      38.32785641      35.75608075
Si      22.81777687       2.04679347      36.28596421
Si      21.94599171      39.86892850      36.43988057
Si      21.23359328       3.58543952      37.09201418
Si      20.05026081      39.63785233      35.06910003
Si      21.42181914      39.42665092      38.68826122
Si      18.44089755       1.16340945      35.84841222
Si      19.71170763       0.88326034      39.37957775
Si      21.44255358       2.26671796      32.84575898
Si      19.94295349       3.96530955      33.47227362
Si      17.95706300       3.48302909      32.31280280
Si      19.39069154       3.30505560      35.66006665
Si      17.52050150       4.60921572      36.23227989
Si      24.59143837      39.27611305       3.71249617
Si      22.77393421      39.09282227       2.23224235
Si      21.13453611       0.65681582       2.85801127
Si      22.10590897       0.28279080       6.59643178
Si      24.04059929       1.86150871      39.83940534
Si      22.41607977       3.36555082       0.63099452
Si      20.51446649       3.08978846      39.27546410
Si      22.00315202       2.84084390       2.88574126
Si      17.82635936      34.80979899      37.69551628
Si      16.49010205      32.12331475      -0.02276151
Si      17.31023798      37.16804760      33.90544093
Si      15.65096376      38.65210363      34.66026007
Si      15.88837307      34.50947566      36.39881457
Si      12.92937689      36.29062882      33.32486825
Si      14.39373051      36.14641880      37.18198956
Si      15.06900469       1.13384919      31.08174319
Si      14.24636210      38.93280136      30.99986234
Si      13.50657312       2.81496539      31.59249209
Si      13.77121908      38.48503207      33.25866755
Si      10.44196457       0.52660693      30.58523791
Si      12.24020713       0.08052507      34.05753297
Si      11.45433872       2.60482555      30.15104322
Si      20.55187086      34.40315270       4.95177841
Si      17.75217097      31.88259658       3.75247012
Si      20.81310336      33.03917624       0.61517343
Si      19.98794398      36.78719956       1.06458723
Si      19.16150908      34.59307878       1.23619379
Si      18.33576619      38.26600403       1.84524749
Si      17.22634050      34.35540693      39.92274138
Si      18.77266118      33.98251086       3.47311973
Si      15.58374145      35.87731076       0.63735344
Si      17.07148186      35.50798255       4.02858819
Si      18.64853248      36.99963726      37.46044044
Si      17.76815875       0.75893242      38.06377820
Si      17.03955794      38.53052524      38.23016551
Si      16.18605863       2.33667421      38.79425246
Si      15.08994813      38.37694020      36.92616751
Si      16.45178012      38.05410890       0.45555449
Si      13.42884363      39.85357459      37.69214441
Si      14.63355987      39.37523431       1.14566065
Si      16.46197443       0.85756599      34.61831447
Si      15.65077428       4.45459137      34.81610075
Si      14.75020066       2.33071795      35.26926259
Si      12.90561085       2.32216169      33.81168367
Si      14.21416239       2.06481937      37.54281215
Si      11.45712339       3.95081399      34.69396072
Si      21.33596048      36.60952350       4.73259271
Si      20.34633686       0.26907996       5.03795085
Si      19.62631081      38.06571865       5.43180359
Si      17.73852933      37.76279781       4.06268246
Si      19.14520634       0.46146125       1.62138332
Si      17.51570499       1.98733053       2.35822918
Si      17.03091112       4.51501392      38.53028558
Si      14.53738712      32.02078078      38.67193809
Si      12.86657285      33.43696672      39.52799082
Si      12.66501992      35.84271245      35.61801388
Si      10.63656060      37.66408672      36.71883428
Si      10.36586869      39.57047956      32.73261696
Si      17.18354131      31.60526988       6.01733306
Si      15.94738881      31.82971429       2.24605841
Si      15.01184283      35.55671784       2.89457808
Si      14.09973041      33.39354989       3.03146205
Si      13.63038966      35.65350866      39.34976394
Si      11.54609257      39.78871126      36.28502159
Si       9.53554616       3.24958882      33.53373781
Si      13.20366685       4.35956372      24.23078655
Si       9.96686236       1.88485356      27.73486926
Si       7.82959167       8.71006628      15.54334638
Si       7.44365247       9.36436023      17.76891283
Si      10.77319927       5.78395740      20.73181299
Si      10.17545527       7.39522390      19.12660088
Si      10.28498779       6.50932553      22.91472902
Si      11.51722472       9.19507353      19.82677790
Si       7.86834324       7.74392123      19.41930022
Si      10.93217102      10.16211389      21.88879311
Si       7.35860398       8.64310632      21.53140084
Si      13.76869076       7.82876842      23.00116873
Si      11.53214240       8.44725770      23.38147925
Si      11.05803026       9.21404433      25.55298099
Si       6.78380817       4.21519505      26.28888255
Si       7.96762653       6.90062312      22.98807988
Si       7.56091563       7.66655180      25.17315379
Si      10.90849682       4.82857026      24.43646558
Si      11.01496676       3.92469669      28.25513273
Si      10.56063545       5.57208302      26.63998012
Si      11.76380017       7.54907713      27.05549857
Si       8.25083754       6.00838152      26.69032375
Si      11.27584773       8.22636068      29.25379620
Si       7.63447845       6.95250099      28.75334409
Si       4.13402107       5.32266364      28.99009970
Si       7.03120017       3.20052409      30.10027038
Si       7.88584157       5.36069149      30.46560377
Si       5.20310834      10.02600437      18.03753163
Si       4.48496419      11.62685558      16.47174585
Si       4.53866195      10.76475771      20.16883384
Si       8.56150475      11.34456841      18.36817824
Si       8.61953336      10.57067514      22.00336317
Si       8.03925409      12.25736322      20.47142529
Si       8.20562576      11.30958425      24.19650906
Si       9.30407257      14.19027932      20.91133065
Si       5.74111927      12.74621856      20.56548835
Si       8.80611680      14.99030614      23.06569097
Si       5.32927219      13.39752707      22.78695527
Si      12.19270304      12.10911316      22.27558039
Si      12.36849140      11.12196062      25.96657879
Si      11.68673575      12.79907882      24.46594511
Si      11.77713396      11.78468420      28.14388274
Si       9.39283820      13.30001176      24.59103651
Si       8.92715478      14.02408975      26.77887205
Si      13.11081745      13.67613704      28.56035158
Si       2.25035739      11.27113833      20.36057352
Si       1.73524865      11.96992197      22.54615729
Si       5.05535687       9.07642834      21.72185529
Si       5.25353107       8.07459235      25.36465283
Si       4.63965741       9.81960089      23.91351377
Si       4.94419443       8.90691954      27.54124632
Si       5.90258748      11.75071200      24.36383536
Si       2.34180687      10.29050010      24.07595509
Si       5.49152863      12.51335517      26.54921446
Si       1.77452653      10.93810722      26.26407097
Si       8.74881691       9.61607580      25.73376610
Si       8.99038253       8.74743242      29.43682265
Si       8.31737521      10.40100846      27.90718724
Si       8.45284582       9.41001190      31.62769181
Si       9.51112271      12.37700865      28.35179442
Si       6.03343805      10.89431627      28.16532672
Si       9.05008380      13.10959685      30.53805152
Si       5.41409659      11.63659353      30.30837671
Si       1.47340609       7.57770471      26.93281678
Si       1.27856801       6.57434692      31.25551498
Si       2.66320410       9.40582019      27.81074538
Si       5.35934149       7.31563370      29.22073071
Si       5.54906456       6.26157101      32.98788771
Si       5.02407425       7.96439708      31.45492632
Si       6.17896117       9.98346164      31.79503476
Si       2.71965963       8.39511667      31.62382030
Si       5.21198818      10.84708717      33.75662970
Si       6.49379121      15.40372267      23.17126857
Si       6.18427792      16.11995150      25.38943519
Si      10.06349371      16.93008323      23.49579330
Si      10.13915313      15.99407543      27.20190126
Si       9.52840362      17.66535111      25.66438016
Si       7.24113868      18.15684026      25.90314081
Si       3.03665948      13.87636913      22.99470744
Si       3.19703495      12.63883173      27.04664693
Si       6.64035541      14.50570286      27.03711579
Si       6.74211231      13.55871132      30.57519633
Si       6.12303978      15.34202742      29.17294763
Si      21.66713617      30.00251916       3.98817165
Si      24.37527634      36.83105972      10.00258903
Si      26.15770887      34.32824073      12.15417078
Si      21.66966539      35.74378250       7.28574295
Si      22.62422051      33.50110498       4.30372269
Si      23.87621799      35.26859390       8.31787808
Si      23.56690395      37.26936016       4.38678920
Si      25.40681523      34.66746608       6.63757386
Si      24.43595653      34.91521030       1.47907743
Si      25.39673085      32.60138117      10.75102428
Si      27.00203402      32.18275336       9.08540387
Si      28.83191247      29.74634259      11.42588245
Si      22.73888336      31.38429216       8.36492187
Si      23.50785908      29.24352138       5.23966630
Si      24.31204899      30.91811787       6.68074467
Si      25.21476288      28.79318198       3.68715553
Si      24.61271383      32.85009032       5.37556694
Si      26.33375000      30.36915464       7.74764066
Si      26.22858816      32.44858264       3.71632341
Si      27.94459767      29.93909742       6.09087956
Si      25.44298301      30.70926656       2.34381860
Si      27.03444513      30.55979537       0.61931233
Si      28.07389007      27.98529197      10.06439751
Si      29.64343341      27.40643758       8.41189934
Si      26.29306615      24.53574866       4.53675193
Si      26.89681229      26.25650711       6.02143175
Si      27.24097309      28.17485876       4.70648525
Si      29.02460104      25.73642686       6.87647396
Si      28.84426016      27.85744019       3.01664417
Si      30.69312577      25.16141448       5.32341631
Si      27.80531065      26.16848036       1.75323337
Si      29.80330316      23.38248038       4.06993558
Si      31.41123309      23.16600729       2.36863144
Si      29.16308022      35.59835124      14.44899815
Si      26.50831827      36.17899770      10.74664141
Si      28.17366480      35.84423379       9.12121042
Si      27.46835776      39.97200984      10.85745507
Si      29.17086339      37.56581124      13.16107590
Si      29.11688562      39.50434879       9.24685381
Si      30.85431397      37.07924860      11.59350040
Si      24.82200122      38.72038092       8.67739597
Si      25.59097216      36.67372218       5.42550545
Si      26.36534533      38.27470599       6.96398398
Si      27.25936204      36.07387339       3.88054209
Si      26.73295017       0.10519736       5.53549228
Si      28.50335943      37.75819715       7.79567285
Si      30.26281260      37.37796766       6.28278146
Si      27.52763921      38.15685130       2.82267280
Si      29.84041447      31.34917569      15.33462541
Si      31.60426799      30.81612686      13.87381009
Si      32.61469539      34.57056706      13.85861572
Si      28.23490619      33.86805224      13.15544080
Si      29.07179665      31.64107389      10.05726802
Si      29.81796210      33.33815593      11.50093945
Si      30.72411720      31.14253150       8.46350480
Si      30.16674551      35.28782812      10.23610772
Si      31.82637939      32.76451851      12.57780777
Si      31.71569438      34.85128347       8.52409929
Si      33.45402730      32.37558690      10.92819163
Si      27.38547053      34.09113268       7.76814605
Si      28.21672172      31.91637338       4.85065559
Si      29.01379683      33.73144720       6.11217162
Si      29.91633303      31.45607607       3.29433418
Si      29.35004656      35.71348562       4.89507562
Si      31.01205214      33.07420852       7.15839583
Si      30.87612450      35.08543332       3.22131806
Si      32.64173580      32.65476829       5.51920692
Si      26.52469229      34.38612591       2.41909944
Si      28.25497442      34.16137806       0.84377097
Si      30.19088637      33.29644054       1.85880749
Si      35.12589800      29.80576680      12.77522064
Si      30.79446708      29.06713831      12.52784969
Si      31.65629164      26.82304561       9.47629786
Si      32.29083237      28.69041974      10.75480630
Si      33.20148995      26.44815938       7.74519821
Si      32.76058123      30.63082665       9.51634815
Si      34.12661859      27.84237324      11.95282566
Si      34.30844921      30.19510244       7.80467125
Si      29.96419272      29.35616840       7.14080238
Si      30.76916176      27.23134837       4.21195902
Si      31.57869207      29.04992895       5.46147660
Si      32.41282611      27.11254665       2.53467046
Si      32.05773441      30.89045902       4.08084717
Si      33.58953655      28.39168536       6.48308257
Si      35.17646101      27.98441703       4.79938083
Si      28.92766212      29.89310229       1.84350840
Si      35.29326902      26.16250121       8.77938428
Si      32.67384228      24.56528160       6.44067289
Si      33.34192359      22.47497800       3.52056747
Si      34.32450384      24.17650574       4.81218034
Si      34.63616310      26.10248641       3.50092451
Si      31.18311278      38.96773405      10.23249414
Si      31.92827352       0.75064438      11.57205127
Si      32.84839431      38.65996565       8.60232314
Si      32.26708315       2.68037043      10.27172701
Si      35.53931875      39.78062022      10.99297093
Si      29.77388106       1.53749986       8.26444562
Si      30.27849400      39.25614926       4.86916278
Si      31.04359637       0.86606596       6.40269597
Si      31.85283911      38.78095916       3.18903849
Si      33.18751580       0.60893585       7.33314930
Si      34.69462198       0.13384517       5.59251262
Si      32.90933116      36.53189667      12.59579524
Si      33.74529118      34.25287438       9.54546042
Si      34.44422288      36.05675451      10.87980356
Si      35.43363879      33.83412993       7.96580734
Si      34.86084543      37.99689511       9.61987213
Si      36.52594849      35.50543512      11.82229608
Si      36.48167017      37.50541223       7.98990665
Si      38.21166146      34.96137080      10.27644358
Si      32.28903579      36.77899750       7.30985560
Si      32.95366044      34.56741834       4.19030856
Si      33.73712459      36.34641247       5.51070606
Si      34.74766978      34.20189894       2.71632287
Si      33.88370145      38.35090545       4.29236508
Si      35.71444189      35.74781771       6.63092895
Si      35.76711245      37.96954851       2.93787110
Si      37.27238736      35.17778475       4.96533553
Si      30.78710174      37.07464483       1.97144452
Si      35.55615548      31.93867018      11.88387940
Si      36.19936043      29.43699132       8.97057363
Si      37.05031771      31.25025279      10.20609871
Si      37.97238442      29.11065497       7.02331892
Si      37.47417855      33.17965695       8.93131509
Si      39.08253527      32.82808665       7.25188106
Si      34.69683744      32.12776852       6.52837454
Si      35.57406489      30.08237593       3.81797075
Si      36.41604935      31.97181449       4.93391294
Si      38.40341234      31.08709296       5.82526334
Si      40.01406149      30.57236307       4.19141847
Si      37.28251183      27.35013035       5.62672403
Si      35.99120580       1.69000145       9.69704160
Si      36.59231222       3.55641780      10.99584780
Si      37.51607935       0.99798116       8.04567070
Si      38.51990339      36.91123342       8.99933621
Si      39.23754806      38.67669758      10.37642398
Si       0.12998192      36.47481830       7.34229281
Si      39.61936637       0.53702136       8.99033053
Si      36.69110763      39.36580209       6.56807059
Si      37.80495984      37.10908004       3.73460221
Si      38.37513535      39.03250964       4.96138542
Si       0.35868056      38.44546636       6.07973445
Si       2.00205736      37.90205835       4.48790017
Si      39.37353259      34.75227943       5.93148521
Si      18.91937380      22.10222937      20.31158076
Si      17.92143509      21.94653838      18.18856981
Si      18.52941755      23.95340991      17.12427977
Si      17.63534489      23.98127053      14.94930421
Si      18.02778467      25.96331858      13.74664874
Si      17.53240537      27.87042080      10.53415201
Si      18.03496802      23.82331688      21.64730853
Si      18.54313416      25.79201146      20.46639285
Si      18.31265709      25.61709910      24.94574874
Si      18.76670334      27.65424715      23.86257233
Si      21.68769227      26.10469660      22.20426962
Si      17.80823839      27.64345945      21.71546949
Si      18.28989877      29.61787300      20.53338848
Si      20.86041722      24.20249232      16.93896557
Si      21.86766084      24.08810269      19.06087647
Si      21.47868551      26.13347140      15.74782365
Si      20.84272651      25.97652814      20.01427919
Si      21.40618426      28.05538250      19.07328947
Si      17.63230706      25.78244416      18.29871493
Si      17.26371880      27.77270095      15.03897655
Si      18.18101796      27.78941270      17.20369147
Si      17.62515843      29.78624904      13.88053852
Si      17.27462652      29.59026180      18.41313268
Si      20.50813119      27.93560957      16.90436226
Si      17.79246474      31.60803287      17.32363203
Si      21.03247577      29.99079290      15.89120210
Si      16.82993541      31.57749713      15.17904298
Si      17.37473021      33.56001394      14.03863905
Si      23.80847647      26.40825601      15.57717232
Si      24.14293014      28.36377409      14.31257325
Si      20.37792744      25.99772217      13.67486577
Si      19.85065954      28.26298405      10.54894672
Si      20.79357347      28.09324787      12.69538472
Si      20.44272184      30.08877108       9.19091402
Si      19.96481864      29.99664459      13.79725762
Si      23.06334676      28.48308715      12.22836428
Si      20.59791309      31.87986175      12.54131910
Si      23.75665061      30.40877317      11.07199374
Si      16.71948135      29.73646625      11.71153182
Si      16.18757179      31.82105861       8.50593128
Si      17.22919152      31.75160227      10.61259207
Si      16.37311784      33.51428894      11.91196782
Si      19.56901749      31.88740159      10.42772165
Si      16.92801308      35.55915817      10.89226209
Si      19.90636337      33.94567452       9.34248798
Si      19.43645960      30.07244860       7.06567303
Si      19.94935712      32.09298074       5.97727552
Si      19.04890239      33.91967634       7.15309948
Si      21.09614262      27.87699000      23.63192950
Si      21.68260427      29.87498872      22.54022014
Si      21.79290029      31.48133971      25.75828946
Si      24.94691476      30.22156710      24.48125321
Si      17.87116615      29.46113590      25.07202160
Si      17.28882071      31.39935073      21.69604139
Si      18.39906012      31.34557010      23.76817617
Si      18.00445178      33.37970758      20.65045166
Si      20.72237842      31.69567335      23.67583979
Si      21.38379106      33.70728604      22.65411004
Si      17.03587293      35.28136310      21.63693596
Si      23.72381341      28.24735173      18.73251265
Si      24.60829321      28.28414384      20.90993519
Si      24.30362579      30.31862110      17.77937623
Si      24.01630033      30.06484235      22.32689172
Si      27.48197790      28.26709646      20.67490385
Si      24.46387126      32.07009327      21.18338895
Si      27.28311399      30.44432525      19.80864871
Si      20.63113420      29.80358529      20.43937832
Si      20.12321908      31.79702176      17.08850259
Si      21.03824483      31.79016725      19.25240801
Si      20.66968573      33.82656642      16.03810600
Si      20.34039750      33.62120817      20.54932636
Si      23.37134134      32.01645601      19.10540639
Si      20.82666133      35.69977565      19.56537438
Si      23.73480029      33.89857480      17.74824507
Si      17.04316900      33.49527707      18.50840817
Si      16.48657805      35.35522164      15.26952644
Si      17.53514942      35.49190184      17.36924372
Si      17.17246539      37.31777804      14.17059786
Si      16.77522708      37.22384375      18.76615474
Si      19.88463805      35.56249860      17.41600778
Si      20.59965717      37.35185931      16.06918916
Si      26.48603695      28.54226578      14.21543169
Si      27.49251556      28.57766478      16.34060316
Si      26.95614495      30.54993439      13.08458283
Si      26.64177312      30.40856669      17.54646455
Si      27.27549284      32.25248782      16.23183182
Si      23.36349384      30.14996207      15.62988389
Si      22.91537353      32.21052864      12.32663466
Si      23.85346475      32.14237382      14.48140069
Si      23.45812322      34.23552369      11.26212867
Si      22.95552274      34.04199248      15.53559394
Si      26.16050089      32.47636077      14.17359994
Si      23.56751856      36.10679311      14.59291360
Si      19.72155534      33.58646856      13.89981211
Si      19.23930038      35.84134618      10.56338817
Si      20.22402014      35.83009099      12.69895764
Si      19.78156780      37.77439279       9.33901069
Si      19.49883574      37.64112170      14.01315715
Si      22.55536409      36.03900991      12.47139517
Si      16.03821540      37.36356085      12.10999103
Si      22.25528790      33.86065767       9.27654145
Si      22.11287110      38.03653801       9.17585544
Si       3.26866468      34.07227878      18.68669419
Si       5.29531338      37.37505034      18.47590821
Si       4.51728772      35.95570147      22.65003571
Si       6.10027720      34.84995705      21.30798285
Si       4.94180833      33.20381546      20.09235952
Si       6.98492513      36.43741343      19.81577947
Si       6.38619278      32.22814353      18.51422780
Si       8.53174461      35.46876183      18.33371800
Si      10.45745996      38.76845204      18.15521163
Si      38.47514126       1.00547958      13.29350501
Si       0.97447223      37.89388435      17.59523757
Si       2.47892485      36.64192687      15.96899891
Si       0.26934617       0.33347923      14.65713408
Si      39.69054433      35.87675036      13.44981136
Si       1.62893011      39.13519135      13.16000538
Si       2.20135750      32.35047766      17.49268780
Si       3.70755575      31.37069253      15.97613110
Si       1.45759132      34.95005773      14.69430455
Si       3.01678200      33.91919621      13.26750741
Si       3.63255180       2.26837955      12.94098195
Si       6.16429672      39.05540609      17.07925164
Si       4.42827863      39.94495040      15.76613522
Si       7.69117633      38.02998418      15.61431314
Si       3.34555911      38.27395896      14.51576690
Si       5.37281359       1.58003060      14.36476229
Si       4.90249499      37.23184600      13.09542566
Si       6.88355082       0.56613350      12.87497865
Si       4.20025691      35.68925087      17.25622606
Si       7.49324212      33.75241019      17.10728360
Si       5.78634183      34.72331794      15.81424408
Si       9.04809122      32.78518245      15.63248928
Si       4.71140759      33.00750870      14.61892037
Si       6.67702825      36.32946922      14.34629694
Si       6.12520368      32.01674252      13.02245888
Si       8.20602566      35.23675095      12.93329684
Si       5.49666737      30.48137283      17.21590096
Si       7.90128936      31.19985427      14.32904280
Si       8.83339322       3.75252365      12.51845740
Si      11.39599211       0.37962209      16.72228073
Si       9.69522047       1.31085477      15.39170657
Si      12.94873702      39.31917309      15.31003004
Si       8.61659854      39.62575927      14.15627268
Si      10.54858749       2.90140142      13.88446686
Si      10.18207237      38.57183963      12.75340109
Si       9.43173805      37.08114944      16.87856976
Si      10.96547156      36.02112507      15.44603831
Si      10.00896095      34.32086256      14.13325234
Si      11.92167136      37.63572594      14.02902674
Si      13.49834858      36.62141848      12.60944472
Si      13.85619350       0.93292543      13.86005982
Si      39.17638893       2.78886347      11.93038248
Si       0.80971149       1.90256794      10.48938627
Si       0.52223220      37.46566257      11.92916746
Si       2.11055092      36.44437417      10.52804667
Si       4.31202269       4.10250194      11.63540762
Si       2.48021808       0.69820313      11.62395817
Si       5.86298385      38.82923298      11.66213688
Si       4.17845286      39.74893008      10.30355054
Si       7.42836638      37.84327079      10.21060131
Si       2.97498929      38.11443262       9.11617768
Si       4.62261768      37.16478208       7.73293769
Si       3.86992239      35.55548863      11.81011906
Si       7.23561983      33.54398294      11.62098328
Si       5.49012836      34.56663365      10.42212167
Si       6.37469113      36.16629168       8.94270278
Si       7.95840796      35.11291449       7.55974596
Si       9.12592851      36.87306805      11.51706718
Si      12.37843521      34.95200580      11.38911277
Si      10.67379568      35.87294395      10.05627788
Si       9.06861181       3.48185658      31.24065137
Si       7.92902388       9.26384362      35.35682516
Si      12.24517672       5.13602166      32.82182057
Si       8.64388606       7.54825600      33.91605365
Si      10.61899278       8.63419562      33.24669465
Si      12.47615021       7.08043050      36.10143120
Si      13.68454853       6.46604122      27.87192778
Si      11.85894813       7.23054611      31.82529286
Si      13.86366010       8.29121903      31.20485637
Si      13.51903485       5.44475746      34.77374778
Si      15.41799371       6.71925725      34.22737714
Si      15.47214187       4.82954114      30.81287488
Si      15.04720475       6.88005269      29.74304309
Si      16.68666396       5.41366716      32.73992769
Si      17.01353960       7.94725129      29.01906781
Si      18.70128602       6.01461541      31.68624563
Si       7.32621257      11.41263943      34.61695019
Si       9.30454629      12.30926664      33.71592143
Si      11.96798573       9.14623617      35.10220697
Si      10.86933709      10.44780526      36.72172178
Si      14.07068533      10.07947386      34.62266352
Si      10.39829162      12.55174202      35.78338213
Si      12.36401365      13.62403904      35.06530752
Si      10.28346825      10.74246514      32.26132922
Si      13.46946025      10.37307597      30.18523203
Si      12.30028749      11.78789794      31.65508180
Si      15.48123257      11.41317755      29.55228096
Si      11.87971142      13.82508638      30.55852600
Si      13.50645378      12.14094358      33.64241394
Si      15.47405290      13.08577162      32.76768692
Si      15.22764321       8.75325619      33.06352647
Si      18.33463454       8.21580555      30.94547578
Si      17.32250989       9.66029852      32.49965355
Si      20.32218120       9.40874449      30.55344103
Si      16.84509867      11.70712074      31.44512860
Si      18.86998055      12.72836939      30.82320933
Si      14.98381794      15.11819463      31.69124901
Si       8.77499697      22.45010589       7.22817048
Si       5.34740734      16.78175348       7.69606590
Si       2.03837984      17.21663438       5.98013562
Si       4.08212990      16.76422349       9.67832289
Si       5.75242787      19.09215553       7.52745345
Si       1.91722931      17.67139396       9.81917643
Si       3.72600195      20.27980269       7.41164359
Si      38.82647628      14.12071435       6.43077697
Si       0.34179604      14.54045084       8.17945614
Si       0.78609146      16.83666739       7.93400310
Si      38.75262974      18.01690609       7.98221768
Si       5.45206329      22.95141214       5.29352489
Si       2.37786812      19.51885900       5.64139577
Si       0.31063382      20.63980946       5.65797098
Si       0.57142190      16.35843789       4.35485238
Si      38.58237769      17.59540813       4.14634277
Si      37.45362983      17.24632711       6.17967723
Si      39.00960360      19.88868407       3.84871496
Si      35.42745065      18.43998446       6.18781720
Si      36.96701361      21.05405849       3.84820983
Si       7.37954192      22.33602984       9.11997370
Si       5.29687499      23.42344881       8.98286469
Si       2.44262805      19.91461200       9.34805506
Si       3.88369434      20.73738787      11.01428104
Si       0.43028164      21.12511939       9.47159595
Si       4.12686702      23.07651476      10.99375355
Si      10.70696666      27.88180584       8.49148449
Si       5.57953515      25.25714988       4.84875229
Si       6.97487168      26.01275594       6.58443780
Si       3.60495925      26.51799794       5.05329203
Si       5.89239328      25.67358272       8.64452275
Si       7.37233619      28.31367541       6.30463703
Si       4.06545266      22.59314409       7.15890688
Si       0.73381506      22.92701351       5.31162591
Si       2.00497557      23.72618963       7.12157807
Si      39.14672264      20.31491310       7.67539489
Si      35.82095319      20.73757194       5.87717244
Si      37.10828123      21.48734333       7.69678842
Si      37.32342709      23.36917533       3.64023221
Si      34.38844810      21.32021600      37.02525424
Si      39.18243942      19.59635392      30.38706385
Si      36.96097809      18.65448323      33.47526325
Si       2.64257185      18.38729856      27.71168597
Si       1.55006433      16.74353457      26.43327992
Si       0.43140123      17.51286273      30.72812210
Si       2.89102494      14.12421490      29.09559501
Si      39.42072244      15.80224366      29.47097849
Si       3.02975819      14.98007644      26.90990210
Si       1.73412632      13.06202462      25.25474186
Si      34.56061491      22.15966423      34.83522586
Si      33.55833605      20.29000083      33.82031821
Si      35.79467458      21.17530160      30.85805256
Si      37.00870591      19.18831522      31.18573021
Si      33.56260622      20.96814988      31.56863081
Si      35.98993135      17.51660478      29.88379871
Si      32.53842665      19.22735708      30.36453219
Si      39.35022689      16.47460985      27.21923222
Si      35.96735746      18.10888866      27.60861114
Si      38.46865535      14.73440831      25.90665752
Si      35.02184344      16.32409955      26.40471337
Si      32.77020525      19.89353707      27.89712298
Si       1.79239944      10.67851512      34.69451756
Si      38.05113196      16.58094755      33.67947295
Si      38.15008715      16.13922755      35.98691529
Si      37.12836642      14.83247733      32.40826896
Si      39.36923790      14.15046855      36.28445865
Si      38.40511804      12.31128906      35.18094280
Si       1.64150665      15.01684850      33.32533102
Si       0.68593061      13.86110401      29.86676056
Si       0.61909372      13.26360865      32.13904061
Si      39.64481949      12.23770354      28.52358563
Si       1.90945896      11.32091054      32.43552645
Si      38.42451023      12.93842756      32.91539795
Si       0.76058304       9.64128134      31.25796236
Si      37.38916014      11.33472803      31.54440309
Si       0.81499048      10.25359141      28.98933762
Si      39.57552084       8.75398849      27.66934632
Si      31.30133003      20.04717868      34.43449816
Si      30.34140166      18.08219915      33.56982497
Si      34.73591213      18.27932486      34.13712773
Si      33.77189959      17.24147896      30.61218120
Si      33.76370592      16.55944557      32.86206280
Si      32.73381675      15.44921231      29.50090174
Si      34.94894375      14.56587140      33.24813951
Si      31.52455419      16.05904533      33.37687820
Si      33.93120966      12.85757941      31.99350990
Si      37.19190473      15.51565877      30.16029940
Si      36.28592278      14.36390197      26.69697436
Si      36.16707155      13.76897808      28.96765766
Si      35.18479696      12.59353147      25.61119106
Si      37.44830041      11.81871559      29.24568340
Si      33.96279220      13.45790957      29.72095983
Si      36.39477472      10.08964132      28.05299542
Si      33.00979650      11.75904620      28.40545802
Si      39.62015003      12.70908432      26.22126241
Si      38.65636973      11.50800113      22.67624225
Si      38.77633455      10.92081176      24.94983583
Si      39.92690991       8.90966582      25.34951924
Si      36.59283628      10.72035083      25.79734399
Si      35.43443252       9.11967310      24.52346906
Si      30.24014350      18.58518258      31.27479891
Si      30.49486998      15.07195787      30.10894254
Si      29.92233029      13.22227044      28.77486890
Si      32.84367579      15.96474203      27.21044041
Si      32.90711951      12.32109334      26.12502923
Si      31.95861844      10.55348827      24.89862982
Si      35.12883230      12.93872484      23.28618069
Si      35.45657114       9.47155875      22.19852770
Si       3.12449668       8.76473527      34.99984033
Si      38.48662223       9.26381156      31.71809324
Si      37.79390840       7.38771589      30.48224055
Si      35.22434235      10.92951600      32.36499323
Si      34.14974600       9.71676596      28.64072877
Si      34.48057540       9.23271383      30.91731535
Si      33.17782611       7.93119934      27.46029507
Si      37.42755265       7.98633167      28.23851330
Si      36.67114936       6.15586474      26.97182243
Si      34.47761160       6.00244860      27.80523854
Si      30.90472036      11.13913195      29.24947911
Si      29.64110125       9.84477617      27.74690125
Si      30.91534805       7.90012916      28.09913434
Si      33.24413859       8.60924580      25.20985743
Si      17.66706843      28.28183322       5.89686698
Si      20.18864747      26.93980634       8.63527691
Si      16.41682794      26.43110184       6.63476615
Si      16.64185995      24.37864087       5.50973899
Si      13.18636578      21.64284656       2.30122132
Si      18.65958795      25.34754637       9.44516105
Si      19.08618530      23.32257134       8.32851332
Si      15.45919542      22.09115454       8.47635985
Si      14.67855137      18.82083646       8.18519990
Si      15.23396242      22.62567741       6.19769787
Si      17.69457734      21.52893479       8.94115606
Si      15.73020917      20.67561929       4.98177446
Si      18.25825664      19.59391946       7.73132285
Si      14.57233485      18.81639205       5.83633172
Si      14.70723680      16.78177652       4.66548374
Si      20.66890972      18.63401578      10.61126807
Si      15.53320261      15.91610992      11.64972885
Si      16.95271658      17.60015232      10.82615915
Si      16.29274560      13.96734661      10.57450614
Si      16.81936723      17.90094182       8.49855204
Si      19.28547246      16.86428018      11.30605586
Si      17.25989443      15.92302364       7.30744221
Si      19.63059008      14.99111488       9.92671074
Si      15.85648795      14.21123764       8.09861173
Si      16.30969705      12.22109376       6.93095631
Si      18.47123932      13.08717744      10.67588517
Si      18.79111781      11.00745978       9.62604024
Si      15.71234385       8.85074657       6.82978197
Si      17.91371104       7.70475007       9.13995472
Si      19.76485278      27.32618858       6.35540102
Si      21.33464550      29.05982818       6.11682038
Si      20.38099208      25.30607772       5.32314546
Si      17.31239303      28.43474737       3.57722072
Si      16.33274168      24.65946736       3.19579590
Si      17.76653549      26.39104175       2.50623145
Si      16.83229887      22.70567718       1.98660624
Si      19.97545880      25.80691578       3.06198766
Si      20.54320812      23.60969310       1.82575775
Si      21.81494337      20.79232395       7.57670641
Si      22.64148142      24.77902101       5.69790852
Si      23.03929027      22.80528428       4.48342314
Si      18.82911349      23.68308715       6.01936917
Si      17.93642067      20.00616482       5.43984867
Si      19.41664505      21.73276130       4.84580306
Si      18.46383657      18.00228557       4.33066982
Si      19.00027017      21.98851900       2.54633877
Si      21.63840451      21.07967613       5.24989824
Si      19.61890278      20.09458182       1.29843865
Si      22.17152112      19.11695986       4.07078334
Si      15.40727567      20.96538629       2.67126025
Si      14.61516434      17.24906857       2.36285717
Si      15.98162893      18.98039915       1.55038962
Si      15.01957147      15.29846263       1.11325927
Si      15.74040124      19.43876064      39.25714685
Si      18.20060413      18.36585366       2.02352821
Si      16.35448046      17.57166381      37.96655985
Si      18.67622213      16.37697355       0.86424215
Si      15.02415307      15.83200661      38.82307850
Si      20.46294904      19.00958052       8.29944376
Si      19.52436647      15.37019451       7.60945838
Si      21.02104358      17.09542409       7.05424191
Si      20.01700265      13.29245508       6.62684248
Si      20.70057066      17.41271302       4.74731193
Si      23.22205419      16.46579322       7.58946951
Si      21.17260067      15.40357315       3.62186131
Si      23.62631747      14.48026947       6.39607398
Si      16.98423468      16.30496398       5.00456741
Si      16.03540543      12.64252196       4.63392130
Si      17.49319682      14.31642154       3.85881061
Si      16.66010694      10.57507321       3.70423013
Si      17.23724924      14.64684735       1.54516064
Si      19.71277531      13.70321548       4.33224071
Si      20.28496764      11.73719939       3.17665164
Si      22.17481519      14.42089055      10.53587357
Si      21.07936809      10.77205009      10.11413828
Si      22.63668880      12.39653454       9.43196190
Si      21.90019972       8.95669822       8.86449504
Si      22.24182033      12.73046084       7.13816095
Si      22.80249202      10.79094093       5.93288992
Si      25.05816709       9.85291345       8.55682485
Si      18.54030181      11.62101851       7.37009044
Si      17.82811223       7.82591912       6.79317244
Si      19.11585010       9.68878913       6.16036536
Si      18.91954891       9.93794585       3.83054570
Si      21.34331107       9.06535589       6.58268424
Si      21.86752348       7.02815432       5.53177618
Si      24.18945588       6.25347538       8.26897136
Si      20.60036874       5.35475653       6.59210291
Si      25.26137121      22.13213655       4.85578400
Si      25.88054437      20.14525351       3.76106010
Si      22.83377047      23.20957138       2.17617734
Si      21.85440546      19.55065160       1.78199861
Si      23.31339600      21.22495762       1.00960708
Si      22.21297337      17.57836316       0.55307089
Si      25.52630023      20.58156832       1.47757327
Si      19.34032559      20.52273413      39.00340849
Si      18.44505542      16.66158849      38.54183114
Si      19.88064153      18.45201546      38.02885599
Si      22.14462333      17.84471650      38.21759432
Si      24.38979890      18.51352539       4.56440267
Si      23.40966144      14.84428179       4.08274830
Si      24.95575665      16.50877174       3.47240372
Si      24.02045153      12.79710576       3.09927442
Si      24.39506099      17.04638732       1.25168582
Si      20.90461830      15.78030115       1.31682876
Si      21.54927063      13.81299644       0.20339430
Si      23.72173464      13.13150031       0.79074169
Si      25.88566983      14.10507749       6.92974976
Si      25.05538098      10.18548502       6.22879214
Si      22.49921793      11.08075441       3.61911388
Si      17.67815323      28.16564883      30.58968648
Si      18.89631167      29.39587902      34.05146160
Si      19.75527495      30.84216664      37.65833346
Si      16.95789766      28.83311312      35.25837696
Si      17.87210704      29.74539744      38.54220977
Si      18.58175998      27.58477538      39.14080990
Si      19.68666593      28.97302807       2.60083782
Si      27.02674054      35.41174028      33.56383553
Si      21.33466850      29.56619940      31.16443824
Si      23.03093342      31.65415340      27.74957643
Si      24.14096054      33.01657607      31.17109810
Si      23.84573335      29.50892038      28.25658860
Si      24.86385807      30.84379281      31.70677888
Si      18.45547204      27.07261384      28.65820187
Si      20.36576041      28.00709974      27.65439282
Si      19.05086879      24.90690189      29.35457636
Si      22.04238131      28.38102558      29.26056815
Si      22.67768594      26.19295650      29.84362518
Si      23.30056176      32.20952360      38.08934667
Si      25.24744942      34.34791693      34.67318382
Si      26.21323921      35.65152240      38.07404613
Si      25.82233557      32.15147648      35.28400918
Si      20.51955734      29.76288711      35.71344575
Si      22.28371372      30.86571512      34.61565320
Si      21.13745514      27.55719099      36.24557001
Si      23.08322320      29.70179149      32.73205455
Si      24.00668802      30.98103677      36.21259467
Si      23.71132062      27.50273511      33.27467891
Si      24.74405037      28.83533412      36.82949605
Si      19.52082202      28.35065016      32.03918309
Si      18.38152840      25.46358026      34.03832415
Si      20.20451195      26.21844150      32.75816744
Si      19.03362559      22.76850524      34.51012427
Si      20.87555673      25.05226879      30.83003263
Si      21.92551654      26.41441312      34.34811230
Si      21.56727081      22.88447615      31.42090935
Si      22.54513420      24.23823261      34.98534387
Si      19.81034682      21.77773860      32.52409229
Si      20.38759106      19.57784916      33.12163721
Si      25.03481229      32.38033167      39.66842880
Si      21.54939581      31.06397837      39.16229320
Si      20.36231754      27.83683228       0.65599877
Si      22.23548222      28.87686925      39.68702792
Si      21.28656949      25.72321616       1.11181252
Si      22.91893456      27.69328661      37.77385373
Si      23.94433580      29.03455874       1.29466168
Si      23.58925815      25.54108040      38.44160957
Si      24.65064202      26.87354616       1.89565743
Si      19.31185777      26.44095524      37.22029225
Si      19.94827673      24.27041103      37.86295164
Si      20.79966766      23.06335806      36.03367991
Si      21.79738670      24.29448939      39.31536659
Si      21.38485139      20.84741147      36.55832847
Si      27.76045916      34.23069332      31.66736617
Si      28.41720967      32.08500203      32.37087214
Si      25.65620337      29.89142544      29.70824093
Si      27.50525818      30.96407478      28.72834707
Si      26.25883043      27.45372374      30.57173569
Si      29.87371246      28.84577699      31.05219011
Si      27.02751454      26.38958764      28.61913552
Si      27.65409865      32.32046778      36.74841725
Si      28.24324748      30.14366313      37.41431057
Si      26.54385757      31.04514196      33.33910355
Si      25.40103852      27.66379467      34.90050587
Si      27.17269024      28.85588948      33.91902240
Si      26.14487293      25.53189063      35.55282008
Si      28.06003531      27.73545211      32.05361497
Si      28.91273595      28.96238047      35.49481312
Si      28.74280477      25.59245791      32.73487699
Si      29.81053646      26.88344301      36.12827232
Si      24.42410223      26.25049304      31.41714359
Si      23.21295783      23.01124041      33.09488216
Si      25.09310232      24.17845212      32.30259866
Si      24.00364153      20.88916857      33.72579644
Si      25.67959076      23.41485298      30.15773457
Si      26.98041251      24.36625225      33.69070892
Si      26.54061247      20.74081881      31.08466706
Si      27.56024972      22.17439755      34.31148823
Si      21.08988368      18.41665180      31.20108117
Si      24.49356006      19.77044349      31.71656756
Si      25.47131150      17.67702119      32.15406927
Si      26.46560025      28.98269068      38.42386888
Si      25.34669547      25.67221503      39.99788738
Si      27.10811596      26.77007838      38.89305659
Si      26.04399724      23.51500444       0.62183339
Si      27.98840300      25.68269746      37.00347811
Si      28.47253184      23.47610293      37.65534032
Si      24.32032130      24.40667688      36.51681914
Si      23.15938053      21.10651661      38.07929958
Si      24.99835076      22.25102980      37.16457333
Si      25.74904091      21.04172460      35.29341159
Si      26.74695214      22.29940222      38.73565807
Si      26.47406590      18.86571482      35.81080423
Si      22.17333345      19.73339279      34.64357908
Si      22.90250034      17.58516074      35.26240552
Si      24.64346189      17.79704744      36.82904288
Si      27.83317815      23.84458953       2.11187587
Si      30.54438168      25.68713128      34.24173046
Si      31.10465086      23.46625093      34.77363382
Si      29.19461940      24.43706022      30.73881722
Si      28.41337428      20.95157172      32.49256265
Si      30.16432749      22.11838813      31.43625487
Si      31.96605071      22.26997772      32.94150739
Si      30.40566913      23.48700712      38.99483288
Si      29.35657662      22.29582589      35.82378742
Si      27.05801666      17.64213759      33.88941484
Si      33.54982199      20.64848247      25.34774632
Si      34.60547304      17.42187202      23.67998502
Si      34.73177040      21.60127444      28.80410064
Si      35.40338358      20.58363128      26.79339053
Si      38.64840001      22.44778288      29.32178827
Si      37.17823884      21.73229675      25.76470109
Si      38.33318021      24.77474874      29.19712080
Si      39.82023406      26.05887333      27.90497604
Si      34.10194013      19.68303766      23.27575995
Si      35.85396393      20.86106623      22.24085754
Si      32.81662242      22.86132142      25.03726594
Si      34.69876908      23.77537935      23.96342332
Si      36.54933165      23.96787282      25.40240107
Si      35.24916263      23.08685644      21.78319010
Si      38.39483195      25.07130383      24.45016583
Si      37.08915474      24.31719015      20.98894412
Si      36.70505316      26.63587793      20.90737056
Si      35.88902421      14.37975807      21.59066039
Si      36.56991852      17.35925339      24.97104021
Si      38.35900240      18.50577257      23.96644835
Si      37.54046731      14.11896268      23.24453849
Si      39.41860067      15.17419645      22.30146086
Si      39.05288481      21.57788863      27.17499999
Si      39.67432646      19.34677448      27.58104244
Si       0.89398838      22.68451615      26.21886616
Si       0.14245334      18.37422499      25.49211169
Si       1.92139576      19.47290104      24.41653072
Si       2.78728622      22.40441857      27.58483907
Si       4.56196838      23.62336671      26.63960169
Si      34.98696953      16.55062184      21.52927608
Si      38.84668461      17.42565912      21.93596286
Si      37.69762411      20.74525023      23.69528931
Si      38.96850540      24.10176946      22.38597485
Si      39.54137733      21.84891664      22.74101284
Si       0.80333952      25.19072989      21.39720942
Si       1.43773742      21.75587513      24.12820861
Si       3.21635375      22.82368092      23.02105216
Si       0.24672996      24.92125505      25.89159386
Si       1.97209561      26.13569272      24.85348067
Si       3.71107157      25.80266738      26.40111847
Si       2.64748162      25.09929437      22.85350665
Si       1.23129961      15.15022609      23.79936457
Si       3.11321947      16.22409917      22.88507522
Si       3.76475125      19.32239995      25.86865345
Si       4.25368025      17.07052850      26.33752151
Si       5.41188071      20.44638577      24.62226076
Si       2.53222467      18.44837618      22.39002513
Si       6.20212025      19.39558422      22.67254799
Si       5.04116197      22.76553086      24.50319501
Si      28.86409739      35.09608204      17.53673375
Si      31.00086100      37.77876405      19.02032092
Si      29.48826224      38.24294468      15.71784759
Si      30.45736930      34.64771818      21.07705774
Si      27.05787031      33.79226271      22.56356088
Si      29.41987713      36.12897607      19.57452385
Si      29.22648904      36.53794627      24.04484974
Si      27.53603174      37.09146673      20.59945338
Si      28.57494362      33.27432559      25.90472793
Si      25.16740804      32.58094290      27.42380078
Si      29.19310920      34.41264752      27.86732756
Si      27.59039065      34.92724708      24.55277441
Si      27.36007988      35.19305712      29.11675329
Si      25.69659821      35.83104297      25.61381388
Si      25.67419697      33.59509916      29.48418146
Si      26.84625623      35.54266226      14.04701435
Si      27.82219297      36.62464053      16.08512775
Si      26.17411351      37.37908737      12.74099061
Si      26.00418335      37.79068354      17.01396208
Si      27.38339405      33.42239502      18.26883520
Si      25.48959098      34.44679114      19.21397750
Si      25.99619104      35.45040336      21.27884991
Si      24.42208837      36.13678435      17.54915732
Si      23.99863339      36.30778666      22.17438173
Si      22.45674309      37.01366602      18.49582891
Si      25.53201992      32.15156141      23.27454977
Si      23.50588837      33.11230424      23.98301903
Si      24.11411391      34.13741049      26.01019342
Si      22.43067359      35.40577807      27.05304436
Si      20.57408170      35.70106973      23.60203893
Si      33.23727244      38.37142174      24.59436992
Si      31.35518495      39.31360096      25.64303470
Si      33.53522589       2.10622589      27.11950526
Si      31.78596075       2.64648487      23.64446666
Si      31.41736350      37.16751598      29.46693196
Si      29.51725162      38.08132790      30.50861341
Si      32.00648081       0.39318080      27.62794804
Si      30.06641768       1.33349044      28.56707561
Si      30.07564812      39.12618381      32.54013237
Si      30.01853235      39.43706798      17.67311783
Si      31.57886828      39.04196243      20.91752990
Si      28.07144840      38.05909367      22.67372981
Si      29.79268296      39.62343182      22.33151038
Si      26.22423262      39.13929340      23.64745279
Si      30.33287555       0.89445858      24.23425235
Si      28.73778172       1.26589718      21.02171424
Si      28.47112840       2.04371118      25.09572125
Si      29.74776794      37.64675198      26.05186127
Si      26.34891150      36.75285497      27.67645415
Si      27.85982451      38.64042429      27.04065591
Si      24.36474944      37.71658686      28.49155933
Si      28.51060739      39.64221151      29.06617194
Si      27.01289215       0.25825557      25.55911865
Si      26.61369897       0.58236617      30.08969992
Si      25.11588956       0.82138498      26.82935973
Si      27.86332722      36.48767996      31.01447617
Si      25.93331342      37.26504342      32.11097506
Si      25.19134775      38.74292883      30.43913768
Si      26.51890925      38.63419716      19.14739348
Si      23.16789699      37.82725583      20.58412055
Si      24.58682279      39.62439086      20.04992365
Si      21.20083240      38.75039264      21.48153019
Si      25.03693754       0.53248572      22.17164449
Si      24.73737025      37.38302279      24.13046392
Si      22.81114405      38.29275528      25.12603364
Si      23.31319904      39.34955114      27.16580926
Si      21.60051743      39.63555051      23.62256825
Si      19.59371354      37.11418078      21.99803532
Si      32.57037402       3.64389472      25.62449287
Si      29.09767179       2.95800679      27.16970501
Si      25.81821650       2.21098829      28.59155770
Si      24.01903461       3.12995869      29.79505385
Si      27.28999800       1.63849650      32.07891358
Si      26.52195506       9.23738561      10.29142427
Si      28.41815197      12.46786482       8.47627206
Si      25.72111017      14.66944510       9.20661098
Si      27.70095677      17.52013101       7.53617239
Si      23.10201307      17.12239274      10.12083688
Si      29.72247684      20.29857111       5.82547083
Si      25.67015528      18.51683197       6.89429957
Si      27.68967870      21.30007587       5.19724422
Si      24.99243498      20.04045165       8.55216299
Si      26.91739946      22.81301094       6.82336051
Si      22.29683786      22.53221001       9.57375856
Si      24.90445028      23.92570992       6.33394396
Si      24.22741776      25.46799354       7.97453607
Si      22.22268523      26.47580304       7.27131276
Si      32.14093525      12.77164929       9.08363928
Si      33.76958840      10.55538637      11.74998672
Si      28.15452126      10.92888409      10.23455460
Si      30.22054372      10.12944202      11.02308266
Si      27.42426150      12.45664388      11.86600134
Si      29.93259314       8.82177187      12.95571169
Si      31.85519188      11.80890490      11.20961306
Si      29.08258743      10.41787072      14.45875864
Si      31.04865292      13.18886551      12.93354146
Si      26.99720845      11.34595599      13.89404582
Si      26.40387150      12.78263599      15.65853003
Si      31.36410515      18.08244083       8.48691350
Si      33.75932296      14.42570646       9.50172798
Si      33.06641995      15.90715961      11.19132850
Si      30.21401823      13.98579393       8.49859689
Si      27.33993344      16.34204103       9.53871303
Si      29.36930173      15.36163633      10.20800370
Si      26.67253905      17.84866081      11.21530126
Si      29.03250924      14.14090329      12.18871239
Si      31.06846492      16.95458529      10.52863947
Si      28.34040417      15.61336496      13.88548460
Si      30.30898308      18.41130329      12.21000709
Si      25.41572475      13.49497938      11.22070243
Si      22.68597667      16.03775984      12.16511741
Si      24.72768315      15.07394196      12.82120475
Si      22.15751614      17.80560180      14.14018656
Si      24.53767324      13.99721865      14.90258609
Si      26.36128140      16.70972045      13.24777344
Si      23.54065158      15.54374043      16.36693689
Si      25.67523296      18.15053839      14.97343894
Si      31.35598884      21.96462032       6.11845595
Si      33.34251778      20.90372350       6.79546701
Si      30.64586382      23.45114947       7.79647530
Si      32.99098495      19.74857763       8.81336794
Si      32.30579420      21.24322737      10.49418962
Si      29.36883795      19.14834928       7.84558394
Si      26.65967010      21.66900449       8.86109412
Si      28.67468035      20.65057394       9.51533695
Si      25.91834524      23.13010808      10.54630820
Si      28.33234075      19.48338270      11.52643396
Si      30.31796871      22.30318918       9.82190891
Si      27.65184743      20.97596005      13.20901490
Si      29.70342857      23.80315161      11.52397544
Si      24.64971069      18.84072235      10.54481754
Si      21.89803817      21.41443467      11.60361416
Si      23.94736677      20.40308895      12.15435726
Si      21.29271467      22.90330869      13.31952752
Si      23.83389827      19.44571643      14.29792244
Si      25.62762856      21.99001578      12.58051857
Si      22.90297633      20.76962018      16.00256148
Si      24.87088713      23.47785282      14.23428307
Si      20.20057989      18.81275941      13.31257689
Si      19.22950990      20.10031243      15.02411333
Si      20.87663340      21.75102939      15.32622793
Si      25.94688025      27.05883676       8.17701486
Si      27.87742478      25.94092173       8.91833222
Si      25.21962884      28.60209447       9.79516989
Si      27.62510208      24.70575703      10.90129214
Si      27.00554041      26.29674214      12.51550945
Si      23.91769041      24.19800139       9.92866347
Si      23.25600935      25.74112484      11.57437924
Si      22.90341387      24.59346746      13.59575860
Si      25.02283725      27.28421013      11.73212524
Si      19.38948153      24.11890415      12.66597644
Si      33.55989525       9.63473620      13.90358964
Si      30.77813007      11.97646118      14.92924051
Si      32.75199365      10.94439873      15.68175360
Si      29.98979904      13.44704423      16.58528568
Si      32.77559766      14.75748984      13.22167023
Si      29.97436271      17.26667972      14.23551209
Si      31.97662330      16.21830455      14.88236699
Si      29.32703255      18.77274965      15.92015793
Si      31.58980846      15.13443855      16.93301007
Si      27.99205356      14.49614776      15.92455326
Si      25.31696053      16.96177250      16.96956447
Si      24.69293714      18.61950344      18.51551445
Si      28.99028430      17.60043817      17.92983180
Si      33.94359092      22.90927165      10.75996209
Si      33.37951572      24.45064887      12.44385173
Si      31.97402865      20.04633810      12.49030226
Si      29.32112470      22.60236473      13.50740660
Si      31.35276808      21.60347067      14.13808966
Si      28.67343344      24.07181403      15.22256335
Si      31.00816770      20.40243835      16.12917288
Si      33.04416652      23.21255321      14.41447172
Si      30.27177527      21.86056049      17.81924549
Si      32.36890175      24.74077355      16.06859683
Si      27.33271352      19.79883990      15.21750416
Si      24.65925069      22.30989413      16.26225655
Si      26.67668074      21.29277043      16.90883140
Si      23.85332013      23.87296373      17.82141519
Si      26.28727239      20.27950628      18.99394294
Si      28.27872237      22.97544901      17.26289086
Si      27.44307416      24.39086877      18.94291390
Si      22.57732281      19.46021228      17.92773832
Si      21.98569887      21.04192213      19.56390668
Si      31.35853254      25.45231599      11.78020210
Si      28.62765583      27.94697182      12.92361619
Si      30.66863816      26.92192273      13.48031685
Si      30.32045993      25.72841996      15.47451129
Si      29.48537362      27.29255159      17.01702803
Si      26.65884551      24.98816830      14.43520822
Si      26.09195000      26.50083971      16.13958340
Si      25.51290882      25.49799190      18.18475828
Si      31.87915765      23.56029022      18.04162881
Si      28.99094956      26.15746118      19.01400107
Si      30.43284731      29.36751964      16.45259088
Si      38.30554123      27.76200646      22.21183813
Si      36.34316285      28.99705163      22.60184537
Si      39.49492065      27.26222180      25.45498605
Si      35.39816394      25.89431395      24.70511007
Si      37.62260341      28.46502210      26.21455204
Si      33.34292883      27.69759402      19.64236889
Si      34.09174215      26.08502419      21.18126505
Si      31.38973271      28.92431929      20.09974390
Si      32.26975488      24.65257425      21.57918425
Si      34.68354378      27.39195847      23.04154696
Si      30.42285683      25.86636268      22.38387094
Si      32.71822521      28.49753844      23.70357623
Si      29.69016767      27.47377920      20.83177966
Si      36.88460319      30.04400013      24.63633657
Si      39.03497086      32.66600029      26.20155960
Si      34.91500424      31.09520477      25.37380050
Si      37.14411869      33.79999093      27.01927013
Si      33.69809885      31.61770820      21.86769940
Si      31.97365776      30.03461199      22.08830920
Si      34.25373167      32.75744521      23.84796347
Si      30.05351930      31.06444928      22.97181942
Si      32.25093733      33.75078234      24.57676761
Si      30.93789065      30.52414150      18.43681503
Si      29.12835897      31.78926263      19.24606863
Si      29.26283920      32.65312560      21.42908207
Si      34.51131726      36.44929628      26.18577010
Si      31.65042455      35.36233227      22.97314220
Si      38.60731820      27.95300949      29.90294541
Si      35.83936734      27.01912880      26.72171418
Si      36.23873485      25.28356820      28.25688606
Si      33.82377669      28.01698967      27.40664051
Si      36.92608599      26.34390605      30.24011186
Si      32.90311042      24.77687298      29.43281259
Si      35.06318205      27.51356011      31.07150771
Si      30.96801094      27.06054211      24.33460468
Si      31.91230973      25.43165699      25.74314115
Si      28.94040736      28.03488437      25.01872433
Si      32.19333652      26.38812878      27.87308115
Si      30.25578547      27.52924350      28.56177873
Si      38.17045779      29.54618760      28.22949593
Si      35.39940963      32.26042608      27.35763962
Si      36.06352630      30.46552733      28.72328105
Si      33.46573882      33.32261758      28.17040816
Si      34.33018055      29.05525345      29.45447181
Si      36.26196052      31.49419753      30.82775834
Si      32.38366964      30.18293678      30.13850278
Si      33.17818469      29.55640936      25.75129129
Si      30.47098800      32.26105140      24.95230929
Si      31.23292425      30.65194612      26.48798992
Si      29.51332980      29.13743304      27.01506497
Si      31.75102232      31.74850249      28.50224739
Si      29.82843856      32.75412646      29.40860727
Si      28.31108392      29.52196580      23.30930711
Si      34.94846446      37.56912821      28.20686978
Si      35.48122952      35.99005625      29.86577033
Si      33.06549732      38.76419775      28.95265061
Si      33.88821905      34.30725535      30.26339286
Si      32.06726931      35.56410540      31.05969174
Si      32.78662960      34.89524198      26.55975117
Si      30.84525429      35.99014225      27.30907611
Si      33.36030614      25.93167557      31.43078531
Si      34.12456290      24.35039370      32.99507400
Si      31.42322279      27.06832505      32.12888320
Si      32.99206255      31.22534190      32.15633289
Si      31.01117106      32.30935599      32.81205444
Si      30.32699492      34.00671075      31.33536735
Si      29.83180010       9.70028205      16.56946479
Si      30.82920150       9.39471915      21.74284443
Si      30.81350553       3.89165075      13.07928859
Si      28.61837035       7.05808321      13.78633144
Si      27.66123682       4.68698768      11.10313045
Si      33.11590893       7.36053959      14.30497235
Si      33.02086157       4.71949811      16.96310031
Si      31.72321556       6.38616906      15.92998578
Si      31.61102591       3.63521209      18.50111865
Si      31.16819135       8.01928995      17.52759569
Si      29.98932752       5.38142016      14.70062865
Si      29.76755111       6.87813657      19.03177852
Si      28.61089158       4.37393780      16.31628967
Si      32.69979359       6.17537574      21.35279200
Si      32.15038766       7.84333165      22.91648563
Si      30.94558022       5.17673495      20.14704296
Si      30.84844984       6.47790613      24.32015273
Si      29.75764695       3.92853400      21.74672980
Si      28.92059333       2.94473078      12.05510772
Si      27.49396846       1.88897689      13.59688501
Si      30.72899461       0.98805763      15.68251862
Si      29.95218704       2.63980876      17.16479861
Si      28.73247852       0.22441381      14.70246937
Si      28.60126845       1.45654916      18.68232862
Si      27.73559701      10.13882079      19.66756684
Si      28.82604192       9.82653427      25.06178211
Si      26.75031862       6.23577197      12.61950373
Si      25.50604001       5.08463213      14.24831445
Si      22.55052302       5.81568211      11.91300439
Si      27.89943302       8.61523165      15.39447492
Si      27.91688190       5.90308367      17.96037833
Si      26.55688830       7.57204132      17.01734407
Si      26.40848233       4.92165563      19.47165145
Si      25.90415709       8.93182596      18.82040176
Si      24.74661438       6.61412527      15.86372466
Si      24.36404884       7.99420351      20.32942752
Si      23.38163070       5.49501337      17.41625614
Si      29.00053097       8.41178216      20.63967847
Si      28.96593647       5.50447426      23.30167278
Si      27.77165184       7.24694080      22.27025022
Si      27.66691475       4.49275110      24.98008433
Si      27.06893776       8.69766558      23.98144361
Si      25.85188466       6.40160751      21.21022570
Si      25.60834032       7.59211669      25.45530940
Si      24.51347859       5.08996857      22.62816101
Si      30.04810344       8.00820590      25.91614775
Si      29.78776337       5.02061328      28.58428305
Si      28.82588739       6.93576125      27.61510962
Si      27.94940539       8.51734667      29.11932873
Si      26.91233383       6.01171209      26.60851327
Si      25.59509417       4.92429712      28.22453192
Si      22.98560069       0.18296702       8.77343196
Si      21.51876559       3.05057913       9.35649514
Si      25.73559937       3.86044176      10.03727107
Si      25.68916942       0.79692617      12.55914821
Si      24.52778177       2.61242330      11.62064337
Si      24.37293417      39.70946085      14.17549238
Si      23.64265643       4.15023321      13.16213671
Si      22.67576487       1.50142637      10.69388217
Si      22.40583075       2.99034774      14.78975031
Si      21.15194200       0.39010431      12.09660320
Si      26.76184532       3.37653330      15.26283461
Si      26.65289383       0.52287982      17.75511398
Si      25.41322888       2.30974180      16.86455686
Si      24.59454145       3.79358425      18.49242184
Si      23.61643944       1.24154829      15.79004727
Si      23.41520296       2.55558677      20.10524149
Si      22.45887854       0.08797466      17.48004138
Si      27.81213283       3.37433321      20.54838311
Si      26.85807919       2.01920424      22.21649102
Si      25.91393089       3.55448419      23.72567078
Si      24.55394150       2.58571071      25.38033707
Si      22.47896387      38.76235694      13.15349583
Si      20.14893106       6.27888048      15.67805356
Si      22.64814209       7.00385243      19.06325129
Si      23.83330873       6.44336030      24.42357861
Si      20.56888100       1.98108997      13.72580427
Si      19.26634272       3.72684557      12.84104178
Si      18.98175291       1.08500098      15.21062359
Si      15.99808123       1.65647532      13.21286598
Si      21.52986855       4.50292913      16.36133687
Si      21.56122593       1.69301080      18.94501058
Si      20.24536973       3.38836693      17.98472291
Si      20.15219242       0.59849776      20.47579974
Si      19.59942797       4.95046449      19.61975087
Si      18.32022510       2.51317662      16.95705698
Si      18.21205926       3.57523763      21.37208485
Si      17.05226240       1.34447718      18.55558208
Si      22.60627821       4.17865614      21.60105828
Si      22.64382339       1.56748015      24.46298392
Si      21.37511989       3.20486914      23.35096332
Si      20.48127103       4.72159094      24.90889237
Si      19.65875941       1.97885086      22.31344218
Si      19.32810981       3.14094311      26.21315611
Si      18.25746274       0.72421854      23.72314882
Si      23.75921210       3.99475860      27.08659371
Si      22.27024333       2.63937704      28.30112874
Si      19.38861959      39.61495244      10.74869611
Si      18.07956673      38.50354105      12.35503975
Si      17.29624331      39.89771820      14.08001510
Si      16.09410264      38.98139950      15.88152579
Si      20.38993295      39.66388416      16.44615376
Si      19.21615094      38.14052717      17.79940683
Si      18.31316789      39.56618581      19.43676150
Si      16.95908060      38.53009476      21.05602547
Si      13.90600323       2.06127662      16.35866968
Si      16.34525528       3.00831193      20.05933453
Si      15.15767249       1.47951791      21.39478976
Si      17.48947512       2.65032656      24.83092157
Si      15.16838090       0.42922867      17.48664150
Si      16.24320428      39.93674197      22.79980944
Si      14.08153197      32.10993511       7.50030966
Si      37.83103433      25.11945807       5.12629952
Si      38.90082318      26.22329175       6.90642172
Si       3.06921569      28.86732012       3.86992061
Si       0.89791395      28.13576121       4.40160980
Si       4.25605096      29.94706485       5.59036845
Si       1.10111550      26.84872124       6.35988663
Si       0.86793357      31.44151286       6.59723742
Si       1.98143661      28.11318850       8.13918454
Si       3.04319655      31.96075721       5.83827139
Si       3.91499169      33.10590639       7.70395918
Si       3.13831268      24.78289046       9.71301586
Si       8.41058099      28.38379407       8.56217613
Si       4.19377387      28.37979424       7.35810533
Si       5.13079262      29.87178292       9.43372708
Si       6.25665005      26.50063697      10.99367002
Si       6.52209320      30.38633160       5.14600902
Si       9.67897615      32.22001755       6.36147203
Si       7.44952728      31.67784780       6.87940164
Si      10.61258488      33.36057284       8.19399785
Si       6.16923147      33.61480463       7.25746809
Si       7.34249115      30.45403581       8.88515322
Si       8.31375339      31.70883330      10.62099538
Si       8.48957439      27.04120240      10.49137223
Si       9.62694978      28.14386780      12.22946329
Si      10.58658793      31.92652012      10.05768913
Si      37.58853958      21.19130992      10.57772489
Si      35.52809307      23.21725073       7.49474803
Si      38.87371450      24.83908695       8.80679584
Si      36.63375769      24.29397418       9.26891072
Si      39.75292560      26.24471069      10.47333670
Si      36.51806128      23.14925138      11.31937832
Si      36.40092988      27.53500921      11.44539092
Si      37.57616563      24.50735038      12.92172596
Si       0.70671960      30.06575685       8.50839669
Si      38.51470072      29.69295748       9.23538350
Si       1.69369590      31.29718487      10.25419308
Si      38.61635591      28.21651036      11.05843734
Si      39.44538476      29.50177974      12.84288229
Si       2.79683976      35.12632162       8.15721325
Si       0.49670250      33.28900242      10.61861094
Si       0.86303151      22.91420366      12.25477453
Si       4.04211518      24.72486970      13.50099117
Si      39.82861935      25.01443587      12.47491295
Si       0.57313673      26.11238711      14.41653731
Si       2.00458399      26.80737026      10.09654993
Si       5.09884272      28.51550161      11.35487081
Si       2.86832324      28.02349829      11.91491734
Si       6.11154664      29.66794759      13.13727322
Si       1.65563012      30.01444682      12.22546646
Si       2.78231820      26.68089595      13.84393210
Si       3.74890552      27.88660863      15.61672172
Si       3.90945544      31.86397018       9.70307152
Si       6.28033764      25.15975956      12.92543943
Si       5.98592441      28.42332555      15.12865581
Si       8.27404432      30.06592160      12.30309751
Si      36.10347033      26.27499246      13.40834050
Si      37.10710362      27.67387509      15.01011570
Si      38.18251993      31.46189536      13.14521667
Si      39.40029720      28.12371894      14.74749989
Si      33.22151097      22.24899893       1.18328521
Si      29.37793468      24.82455305       0.63420202
Si      32.55670436      22.59721021      38.65426611
Si      30.50004925      26.44250559      39.34889073
Si      33.51806874      24.63517633      37.98292552
Si      31.04043313      29.01868717      36.49103898
Si      32.64205759      24.90620703      35.81804577
Si      33.73004044      26.78911057      34.92434262
Si      35.52014368      21.78712459       1.35298328
Si      36.41306454      23.63728578       0.20996019
Si      32.84775028      26.35809180      39.43514349
Si      33.69681760      25.47363311       1.44049351
Si      34.02286382      28.21758500      38.60762853
Si      36.02557850      25.36854899       1.75253381
Si      34.00880256      29.44559050       2.18377525
Si      37.03014783      27.20631244       0.68498174
Si      30.28948682      28.31852442       0.75061246
Si      30.44608283      30.81602268      37.88510554
Si      31.11470968      30.42337878       0.10442043
Si      31.50317666      32.74251713      37.05130743
Si      33.42868385      30.02877947      -0.01796527
Si      31.84553471      34.34000239       0.55604103
Si      34.55522851      31.88550538      39.08532879
Si      27.54567314      32.82795276      39.04180020
Si      27.96097540      35.38415580      36.12565875
Si      28.67569277      34.74069509      38.27130929
Si      29.04675977      37.33895527      35.39783015
Si      28.16298475      36.45617377      39.79506930
Si      31.02140522      34.62515092      38.37329658
Si      32.13227241      36.52421419      37.54601637
Si      39.64970623      25.21591168      39.26642914
Si      35.77947326      23.99182666      37.97374514
Si      36.04913988      26.41278012      35.01337993
Si      36.81839348      25.94850588      37.18615434
Si      37.12743338      28.31205033      34.14242260
Si      36.33754140      27.82019569      38.52446568
Si      37.45587142      29.75334743      37.79322240
Si       0.17642232      27.50715960      36.32165864
Si      33.34852272      28.58901532      36.38723520
Si      34.39214900      30.51296994      35.53087840
Si      34.53618079      32.96005842      32.52165885
Si      33.81209062      32.33145923      36.90187247
Si      36.70689079      30.11177142      35.59482356
Si      34.84337885      34.31049589      36.16674543
Si      37.94039332      32.00654624      34.95413160
Si      30.69845431      33.30964562      34.91675534
Si      31.84609903      35.12946055      33.96817371
Si      31.36705120      36.95859744      35.36587810
Si      34.17091196      34.77967901      33.96443803
Si      35.29895310      36.65223682      33.09945156
Si      39.46438367      28.05165919      34.14768660
Si      36.77138290      32.37052252      32.94840609
Si      36.68587522      29.14328383       1.97162323
Si      37.66441362      31.20007536       1.38961962
Si      34.10551568      33.69671981       0.51256340
Si      35.26486268      35.53038111      39.60875407
Si      37.17239832      32.99955028       2.82020277
Si      38.26750060      34.88549289       1.94135350
Si      31.65719200      38.43639919      38.82854885
Si      32.55003524      38.28884926       0.99844743
Si      34.73269352      37.42151390       0.89909564
Si      35.89173080      39.31554614       0.12635583
Si      39.37250589      27.01719050       0.75236074
Si      39.76825602      29.33713075      37.74003284
Si       0.49140216      28.91720302      39.93697911
Si       0.85091585      31.23235895      36.86743797
Si      39.96774338      30.73285143       1.33564608
Si       2.76268983      28.30984495      39.91306366
Si       1.02820472      32.64749494       0.47717171
Si       3.81876692      30.30241187      39.24683580
Si      36.87631300      31.54202650      39.20224551
Si      37.12014048      33.74720299      36.30169250
Si      38.03707905      33.43846162      38.44269699
Si      38.14263217      35.67686099      35.43484034
Si      37.60490903      35.35295182      39.73499236
Si       0.34859439      33.05492739      38.26405713
Si      38.64816876      37.24401496      38.80745482
Si       1.42749124      34.99166119      37.48242772
Si      34.46026507      36.20317924      37.50564567
Si      34.90650179      38.54549520      34.43758782
Si      35.53411091      38.11662573      36.66262625
Si      37.84307029      37.67315045      36.64057312
Si       0.22689109      31.57755974      34.62793302
Si       1.31510678      34.02902380       4.08458431
Si      38.86648982      38.72692225       2.39867900
Si       3.34472245      32.24492999       0.48451541
Si       4.12814693      31.78919896       2.65441921
Si       3.63213277      33.63085089       4.03012022
Si       4.52037222      35.64325546       3.19851463
Si       0.58104941      34.46915759       1.89453899
Si       0.96972299      36.87222145      38.81764395
Si       1.59720239      36.40759322       1.03552953
Si       1.18300547      38.32946445       2.32542766
Si       3.93502059      36.16305932       0.98124109
Si      38.23433502      39.11664963       0.16761438
Si      12.77742079       0.75025258      30.73278499
Si      20.43667957      31.89514903      31.17180132
Si      15.91272752       2.56056673       7.15813595
Si      11.66470639      35.44459606      21.99375302
Si      11.84874963      29.39326400      32.34474635
Si      24.69593812      28.33180536      16.59503893
Si      23.12284204      17.23679498      19.58891846
Si       2.37230153      18.46865676      38.44707059
Si      16.95502568      23.74186937       9.23065254
Si      28.06046258      37.58607013       5.49156794
Si      14.87046425      22.11483608      16.61248262
Si      16.31902050       0.62103750      25.04930269
Si      14.96944261      37.12661690      14.97401356
Si      32.56201742      31.87586391      34.96331692
Si      15.18662282       6.07662554      19.73418257
Si       9.41952504      33.92663061      10.46755807
Si       4.20632983      21.92630116      18.57534780
Si       6.44453183      15.38690618      20.35345528
Si      27.32126615      28.22792909       0.72580655
Si      33.16617761      37.96661458      22.27894811
Si      24.51764062      27.38412281      28.99879734
Si       5.93631413      20.47008887      36.63249680
Si      24.22940453      28.55936465      31.01947681
Si      31.99217079      29.65586436      34.43689172
Si      31.47680384      18.06607523      28.61671228
Si      19.39195267      35.57080291      15.11734251
Si      31.97143394      13.74953731       6.77355726
Si       2.71339277      30.19084159       7.33094578
Si      34.26387109      24.38808131      27.34693370
Si      16.04189170       7.33503808      37.68042180
Si       3.04632896      16.32622319      11.74372972
Si      22.69272287      19.16464524       9.02933074
Si       6.98570514      17.86084069       1.12931027
Si      38.35187153      27.86486164       3.03008357
Si       3.55540452      14.21063698      10.23360407
Si      18.64382093      22.69371873      39.57935687
Si      36.81873828      31.28277477      16.30828297
Si      25.76178930      38.32280226      26.02703617
Si      16.59245170       4.10712922      17.00246252
3068
Lattice="40.0 0.0 0.0 0.0 40.0 0.0 0.0 0.0 40.0" Properties=species:S:1:pos:R:3 relative_density=0.96 cell_dim_angstroms="_JSON [40.0, 40.0, 40.0]" n_grains=37 grain_size=15.0 crystalline_fraction=1.0 grain_radius=15.048347763179653 pbc="T T T"
Si       0.59005816       0.92274549       2.89856187
Si       3.00445827      39.86964513       0.74308358
Si       2.02545120       1.04388485      38.87246937
Si       3.55109592       3.10059329      38.62549532
Si       6.20959015       1.96513381      36.42821999
Si       2.64216618       4.84769479      37.31484182
Si       3.74089537       6.87466499      37.13468034
Si       5.77857976       5.02050551      34.62876659
Si       5.55747102      34.90995819       4.08806192
Si       3.79667223      39.72978258       4.51400185
Si       6.10479474      35.99341613       6.10312017
Si       7.16736268      38.05412314       6.01899475
Si       0.09525696       1.89748799       5.01311641
Si       0.90275465       0.29417416       6.59808094
Si       0.91069948       4.13917013       5.50860016
Si       3.17601849       0.38215856       6.76949636
Si       1.41375107       4.12015317       9.55498115
Si       4.10094504       2.68348054       6.75370388
Si       0.73849403       5.51545726       7.63217756
Si       1.64734112       7.84076029       7.43395010
Si       9.20839465      36.90190416      39.85021464
Si       8.07158641      34.43020930       3.25361317
Si      10.46488206      32.88644246       1.41333793
Si       9.35326478      36.58701631       3.68823632
Si      12.03493981      34.58418488       1.31365786
Si       5.36883741      39.58544689       0.32017881
Si       6.24488545      38.33189115       2.19913310
Si       6.64825279       1.65223428       0.37835180
Si       6.11444032      39.42441883       4.30308480
Si       8.59901914      37.99006293       1.92592622
Si       6.99512038       1.56782823       4.41002006
Si       9.70660967       0.16562065       2.06602404
Si       2.87469663       1.01736148       2.71595791
Si       3.06686909       4.40132516       0.53905795
Si       3.68573444       3.15320003       2.65848670
Si       4.10571486       6.45034931       0.86802907
Si       3.23202628       4.02440559       4.90119083
Si       6.11281795       2.76147248       2.49631843
Si       4.34400914       6.08491722       4.86904882
Si       7.23394456       4.82012953       2.58339918
Si       1.12606882       7.07923502       3.76236419
Si       3.37137533       7.15411642       3.02741261
Si       4.02018124       9.41357908       3.04760236
Si      11.76427616      36.64683359       0.10090639
Si      12.94730969      38.80979494       0.35575230
Si       9.11212456      38.21617613      37.99018778
Si       8.25833224       1.03214421      36.07914385
Si       9.61980223       0.45364262      37.90158467
Si       9.25164104       4.03169637      36.31820815
Si       9.09703273       1.42766070       0.12922338
Si      10.24440300       3.52445722       0.24465973
Si       5.89973993       2.93808588      38.55001971
Si       5.87321167       6.03075245      36.83076394
Si       6.89087406       5.02553159      38.71623257
Si       6.66761661       8.11821064      36.76790880
Si       6.42737815       6.11038878       0.77004339
Si       9.24718983       4.91430529      38.53665484
Si       7.38170196       8.25180327       0.83443400
Si      10.12363190       7.09304796      38.73687220
Si       3.44516504       8.02550603      39.15069500
Si       4.42921500      10.23160101      39.27259466
Si       3.59378871      11.14790424       1.32101923
Si       6.52700400       9.30104034      38.94275618
Si       7.35457095      11.37877073      38.57927865
Si       8.08452920       5.43190660      34.51929453
Si      10.21463489       7.80807906      36.60946502
Si       5.25854668       8.30135314      34.91076231
Si       9.86924179      36.46978909       7.98668683
Si       7.03908731      38.86252108       8.26217139
Si       7.32159881       1.25594888       8.52137238
Si      10.74489545       0.11511041      10.40166009
Si       3.70010733       3.87724278       8.78058595
Si       4.69597727       2.61500587      10.41769717
Si       4.58454625       6.11008019       8.75646306
Si       6.97842472       2.41510322      10.72016554
Si       8.04236436       4.68466352      10.70610919
Si       0.58395261       9.01261275       9.61070915
Si       0.69949174       6.89391496      10.34316064
Si       3.15495491       7.68518205       9.94584248
Si      16.53759832      33.88633905       6.66351397
Si      11.68007142      33.38195244       4.97092339
Si      11.65760385      36.36840681       3.39341112
Si      12.51460906      35.39066640       5.33337816
Si      12.54100327      38.58456421       3.83812339
Si      11.95472568      35.75546008       7.52070478
Si      14.87568161      35.24664739       5.07706537
Si      13.02123235      38.03198697       7.82068539
Si      15.93795270      37.18557037       5.15199363
Si       9.34115514      37.73037403       5.94317170
Si       9.31341677       1.26719279       4.21520872
Si      10.05682416      39.95610825       6.15168598
Si      10.36408768       3.42080679       4.27869680
Si       9.66009288       1.04287951       8.33787187
Si      12.28588757      39.52491994       6.01094114
Si      10.74589455       3.14485523       8.22003851
Si      13.32437188       1.64684721       6.06045424
Si       6.49492032       2.53253088       6.60330982
Si       6.67257122       5.76691154       4.70967709
Si       7.52775164       4.70876909       6.70250631
Si       7.61722251       7.84584596       4.72509622
Si       7.03748789       5.93164672       8.86915333
Si       9.90103823       4.49625751       6.43038202
Si       8.07991356       8.08416380       9.00026232
Si      10.92963307       6.69336574       6.55102362
Si       3.99245805       7.37099210       6.81441016
Si       3.67339673      10.61053160       5.11583128
Si       5.08293002       9.49129320       6.75752325
Si       7.37376074       8.75990184       6.87373807
Si      14.77970010      38.43446784       3.70055646
Si      16.09663353       0.19820134       4.30336607
Si      12.03033255       0.04354491       2.07437044
Si      12.80260841       3.31849846       0.18519123
Si      13.36740782       2.06401489       2.19833378
Si      13.38559811       5.63550793       0.29612073
Si      12.71019463       3.13786406       4.17566681
Si      15.62783149       1.04984561       2.26313298
Si      13.71049201       5.32965821       3.98839476
Si      17.17092159       3.59258751       1.57224939
Si       9.61814266       4.66467511       2.34557514
Si       9.78618875       8.37749850       0.63582690
Si      10.52028149       6.93748848       2.43458360
Si      10.60483425      10.89111886       0.41507923
Si       9.93958728       7.73535191       4.58469711
Si      12.81782947       6.76748685       2.22800907
Si      10.36565932       9.95482843       4.73952299
Si      14.24897156       8.80259699       1.77094996
Si       6.59128779       9.21725308       2.85052958
Si      12.35450921       6.76135209      38.50595579
Si       9.64908134      11.63726334      38.25685461
Si      11.55428764       3.35499789      12.23357082
Si       8.23377389       6.00077747      12.84593642
Si      14.02475033      34.26456376       9.00695922
Si      15.36250150      37.65414604       7.41522431
Si      15.80046997      35.80027443       8.76387535
Si      16.58739989      39.56744011       7.64081042
Si      17.56786311       0.43630959      11.62489293
Si      12.83399714      39.23269444       9.91841898
Si      13.11203330       2.85556887       8.02748354
Si      13.91976765       1.33114081       9.87307189
Si      14.32780690       5.18167357       7.71762112
Si      13.73134115       2.53286284      11.94598028
Si      16.16673128       0.88161466       9.46981348
Si      14.98508067       4.54832631      11.43640549
Si      17.82637191       4.08827011       8.76030765
Si      10.31924174       4.13027381      10.29965578
Si      10.53595643       7.83414485       8.98590469
Si      11.48652459       6.09792045      10.46219559
Si      13.81441339       5.86080571       9.84104882
Si      19.00888616      39.47909318       7.35858617
Si      19.96656919       1.61981798       6.82169184
Si      15.54411838       1.13228466       6.29561687
Si      16.01155722       4.58044113       3.65334959
Si      16.86892608       3.73014444       5.73738528
Si      16.83377622       5.54749339       7.25349025
Si      18.66883395       2.58713745       4.91042498
Si      13.27094974       6.49465424       6.05566917
Si      14.90022999       9.53493296       3.78877766
Si      14.07284647       8.76522385       5.88251536
Si      19.96781843       3.59677801       7.94798335
Si      14.36764427      21.73133328      22.83066019
Si      11.45316931      23.60437397      24.42426362
Si      15.54761814      29.35727988      26.45502463
Si      15.24308390      29.19797089      21.41585435
Si      13.74398548      27.17252694      26.21753791
Si      14.28201928      31.21880871      25.88241081
Si      12.20563097      27.48074930      24.51365729
Si      12.85049759      31.04643121      24.14833246
Si      16.02683906      24.81367314      24.43457653
Si      15.30711740      24.78858057      20.61453731
Si      14.30345408      25.20997915      22.67587878
Si      13.49045203      25.02501238      18.91756915
Si      12.71431692      23.51415837      22.55808046
Si      13.48033964      27.42674639      22.51562336
Si      10.71766981      23.72273678      21.11714824
Si      11.76149409      27.55724330      20.87308261
Si      11.18197707      24.00104118      18.91199295
Si      14.67040974      33.30051159      18.29236128
Si      14.28337538      31.20969776      22.28508164
Si      14.31942609      35.18750111      22.01683874
Si      12.43518474      31.52972079      20.68197678
Si      12.77856927      35.56777503      20.27887170
Si      14.75191434      28.06542107      15.80856591
Si      14.62093729      29.12251469      18.07387683
Si      13.10322584      28.50959384      14.12351270
Si      13.06768887      27.33099600      18.90584537
Si      13.37670046      31.22352395      18.50538048
Si      11.39741312      27.37944722      17.33200532
Si      11.56139823      31.11056066      17.01736765
Si      11.96924637      26.81077882      15.07567873
Si      13.93624462      39.30392458      20.18614670
Si      13.78441505      35.51159354      18.18169451
Si      15.10782919      37.76512639      18.64372012
Si      12.14545015      35.11312477      16.40244066
Si      13.59376168      32.30246159      13.92412317
Si      13.90473921      33.82012864      11.28202073
Si      12.67201542      30.61069360      15.06843794
Si      12.26198445      34.38382999      14.10295946
Si      11.68619026      30.08197798      13.10645795
Si      12.82948415      31.66654175      11.57990031
Si       8.65043171      25.78735308      26.29355909
Si       7.88872056      22.16525144      23.36843324
Si       5.62002326      25.42043521      24.60028087
Si      11.11271870      33.37513837      26.24964123
Si      11.18208720      29.48841382      24.66497321
Si      10.19630226      29.52730280      26.84089380
Si       9.56948761      29.90426966      22.99631246
Si       8.21673410      28.28750686      26.84127822
Si       9.76659816      31.77591398      27.06504221
Si       6.51144422      28.97007727      25.12444852
Si       7.86938159      32.06531766      25.68190480
Si      10.46325283      25.79068684      24.71038580
Si       9.84174031      25.89666985      21.01976613
Si       8.82699059      26.15141652      23.04167671
Si       8.13646524      25.94137812      19.15255145
Si       7.17817293      24.42789248      23.03820633
Si       7.85048847      28.34700852      23.21059696
Si       5.39664479      24.21245560      21.42775285
Si       6.34115304      28.12016617      21.52464175
Si       9.10223049      21.86010462      21.24609295
Si       6.31212237      24.12183920      19.19298980
Si      10.94603165      37.84061847      22.87117939
Si      12.01448428      33.21665100      24.21399824
Si      11.32582833      33.68919798      20.68529674
Si      10.27886130      33.66537987      22.73092046
Si       9.62168589      33.71078452      19.15852040
Si       8.43896797      31.98476455      23.22470691
Si       8.49979443      36.62097522      24.15462905
Si       6.67398665      31.81542982      21.35139479
Si      10.76552710      29.69292511      20.97299770
Si      10.03341311      29.33405534      17.31898116
Si       9.07130309      29.66229846      19.34415934
Si       8.25541056      29.32961188      15.65565831
Si       7.28317311      28.07385793      19.35564260
Si       8.24492494      31.79762053      19.59523056
Si       5.67953747      28.80537402      17.65648455
Si       9.92556118      25.61448896      17.68678260
Si      12.11216907      37.85567825      20.60649811
Si      10.69088749      33.28002589      17.14873337
Si       5.04043201      31.14282949      25.43511755
Si       4.38757333      31.44856416      23.10823507
Si       4.64571943      27.43641422      25.20143162
Si       5.01582622      26.29365777      22.25907977
Si       2.58409359      27.99208988      24.12218833
Si       5.01698647      29.97698596      21.37245392
Si       3.94841679      27.44413475      16.99313674
Si       2.32243362       6.46901658      29.49224061
Si      11.03890968       2.00844915      24.51544905
Si       7.02463746       2.27003420      27.31441015
Si       5.76190224       1.58313382      25.43141823
Si       5.30585715       4.74599024      24.36895730
Si       7.75943637       2.67349459      22.02560509
Si       2.09871058       1.98744242      28.85451125
Si       3.22954197       3.74649160      27.64149567
Si       0.43965008       1.20457977      27.44878529
Si       1.66350057       5.35207422      27.27189815
Si       4.02833531       3.11701083      25.41323185
Si      39.86748355       4.81762481      25.93768100
Si       2.36062015       2.19296943      24.17494169
Si      39.97449869       5.07479829      30.00239236
Si      37.42539675       1.67348520      29.77729304
Si      37.97237342       3.88144444      29.22858855
Si      35.08273339       1.31729125      28.88338518
Si      38.85845074       3.00793550      27.12578399
Si      37.21842483       2.05139343      25.84627313
Si      12.20903012       0.77005087      22.77452208
Si      10.14545162      39.99791859      21.04718585
Si       9.69728892       0.58844362      25.52034292
Si       7.93503447      38.02382764      25.93163734
Si       8.06428386      39.63261733      24.22191588
Si       6.50608923       0.99677090      23.32884021
Si       8.71295135      38.36618826      22.39999214
Si       4.86040791      39.60368910      22.27870106
Si       5.40940079      39.50945137      26.27121997
Si       3.33262545      38.55164777      25.74027300
Si       1.53776597       0.41943427      25.50668466
Si       3.94822428      37.78795550      23.53030751
Si      39.70202865      39.74708606      24.23027975
Si       1.97513504      37.05999709      22.57930968
Si      39.32088875      39.26456801      28.15270757
Si      37.50435031      38.37287535      27.11031100
Si      35.58620182      39.93522704      27.10325868
Si      38.77721201      38.00859095      25.25904167
Si       1.90407522       9.02358077      21.28277409
Si       9.64692357       3.34014942      19.38440751
Si       5.98462330       4.03086759      22.22968718
Si       6.68941663       5.96801595      21.05944849
Si       4.20293784       3.08408424      20.97997847
Si       7.52740691       4.17245765      19.75213798
Si       4.02854635       6.45095379      19.33289014
Si       6.11022769       3.77798153      17.83687558
Si       4.22601467       6.76321101      23.64940600
Si       0.86965192       4.02855569      23.86348986
Si       1.98551726       5.88181466      22.70748955
Si      39.16732653       3.10318392      22.51171890
Si       0.36497954       7.61003006      22.26640123
Si       2.73650770       4.87139005      20.57033384
Si      38.60707819       6.77628768      20.95374048
Si       0.99101253       3.97744583      19.21589367
Si      38.37623106       6.70185964      25.61411395
Si      36.33111926       4.35392130      25.58621742
Si      37.04907048       5.88225186      23.95006573
Si      34.35192502       4.39192903      24.42770195
Si      34.87068778       6.59577534      23.65717223
Si      37.83565170       4.92591350      22.08913401
Si      36.01321824       3.95503957      21.20543313
Si      10.40787812       2.42443035      17.27311842
Si       8.59927100       1.45612803      20.27158651
Si       5.74709157      38.66525611      20.27037375
Si       6.57347423       0.51864330      19.13497950
Si       4.92197976       2.16382887      18.92081229
Si       3.19914388       1.32134559      17.56668387
Si       3.20509435       1.30719921      22.11549585
Si       0.39923124      38.72237601      22.35684502
Si       1.45115649       0.40140565      20.90939939
Si      39.95026796       2.23882682      20.42448197
Si       2.34896678      39.56419142      18.87677538
Si      38.37829655       1.62578186      18.73221700
Si      38.05216992       1.34776170      23.75279383
Si      35.88456492       0.57045540      23.03969644
Si      34.75762513       2.63987830      22.76542269
Si       2.89768826       9.77653320      17.29312547
Si      10.52749143       5.18893435      14.95493340
Si       8.28432557       4.75884451      14.62234026
Si       4.73563322       5.59022397      17.25337494
Si       5.87983783       7.08038495      15.72414836
Si       2.84817383       4.95550953      15.89826481
Si       3.99178562       8.51672349      15.52934833
Si       6.26049578       6.80073339      13.38760129
Si       2.12545137       8.29840895      14.15177027
Si       4.54666905       5.98214527      12.22005466
Si       2.49602955       8.13776556      19.03873035
Si      39.37725316       5.71295031      18.92505125
Si       0.57259876       7.38132839      17.79421063
Si      37.52252254       4.84076274      17.64755337
Si       1.15665427       6.61498726      15.51070613
Si      37.62539650       8.44588105      16.20300510
Si      39.36694717       5.77369289      14.11497492
Si      36.83947750       8.54973279      20.70180043
Si      34.45833695       5.43081057      20.45124000
Si      35.47929499       7.30608044      19.25781193
Si      36.34215596       6.75619942      17.23110926
Si      34.61951780       5.99488856      15.91082788
Si       6.94058279       3.12781279      15.68252524
Si       4.16400864       4.47439150      13.99079836
Si       1.78583061       3.08653460      17.01209383
Si      39.29689667       0.46585783      17.09558457
Si      39.98305884       2.17559143      15.71964291
Si      38.31807352       3.88718809      15.54035524
Si      35.92690979       3.41449255      18.90428504
Si       3.33411378       7.85645580      12.20430020
Si      37.73146747       7.59656347      13.93576670
Si      35.74758746       6.34838069      13.18097384
Si       0.69703664       5.19565511      11.99980757
Si      35.08388675       4.47967044      14.24369779
Si       5.83230930      21.92601733      11.40402917
Si       8.76919370      20.26771513       9.17548269
Si       8.82719377      23.75004206      10.41463715
Si       5.01445294      15.85258737      13.04924210
Si       6.77032519      19.73587229      10.29978989
Si       7.92424613      18.58496853      12.00327832
Si       3.25562163      12.15466284      13.93132865
Si       5.14927091      11.64899937      15.19862392
Si       6.90642933      14.86997912      12.09222241
Si       8.00219469      13.33464032      13.30221952
Si       5.80959121      22.88935764      17.04068977
Si       7.45669355      23.41090539      12.35538787
Si       8.65298300      27.30309941      14.26225645
Si       8.58437286      22.09129338      13.97280186
Si       9.93406094      25.68350957      15.31015546
Si       4.37643707      21.12657285      13.09084577
Si       5.35988586      19.61246611      14.73887520
Si       5.38244717      17.90800653      17.92610432
Si       6.55419479      17.75482709      13.72241894
Si       7.05557971      21.27367444      15.72692556
Si       8.17209053      16.78095270      15.31959379
Si       8.45156613      20.37692361      17.38353207
Si       5.22685126      14.61695094      16.00275118
Si       6.89283166      13.02407396      15.38466273
Si       6.57258939      16.24472741      16.91807321
Si       7.60520438      15.15852067      18.66955156
Si       6.74445358      19.50148755      18.93331416
Si       7.78401962      18.40156927      20.59532839
Si      12.31081460      25.88094325       9.39943555
Si      14.27117906      28.75145354       7.98497097
Si      14.40698213      24.40933876       6.53012615
Si      15.97865139      27.20945020       8.71674036
Si      10.08735648      22.01993041       9.69607865
Si      11.10554241      22.62499281       7.53425837
Si      11.23887437      20.89528288      11.40467960
Si      12.95858917      23.92041041       8.32942757
Si      14.12837022      22.79634409      10.12921673
Si       8.55300992      16.41374972      11.42420520
Si      10.59049578      15.78533574      12.45037548
Si      12.93854871      19.47956699      10.78232031
Si      13.44051335      17.72183261      12.10130596
Si      14.32723074      26.82918929      10.36450635
Si      15.18686015      25.95646712      12.33525888
Si      10.52582050      25.37664946      10.89465305
Si      10.40243715      23.49237918      14.61317387
Si      11.79186807      24.10465068      12.84960525
Si      11.81361298      22.44157197      16.24969345
Si      12.96552998      22.18461457      12.16370341
Si      13.43654684      25.42749749      13.83294363
Si      14.31582492      20.91174453      14.01354805
Si      14.85389627      25.36887657      15.58013778
Si       9.65211133      20.12214474      13.00808612
Si       9.57204941      18.38799195      16.39960180
Si      10.98543978      19.05900844      14.67457931
Si      10.90200490      17.23830280      18.04719228
Si      11.95558844      17.19365697      13.62184607
Si      12.72555948      20.38138108      15.63720354
Si      13.72451009      16.26367343      14.76562978
Si      13.62156630      19.56226818      17.76210746
Si       9.64464034      14.74925501      14.29065768
Si       8.25737115      13.07202741      17.51614998
Si      13.59811360      23.93798162      16.94365838
Si      15.79519432      22.85525343      19.30262735
Si      10.53893506      21.80941834      18.11706127
Si       9.60880895      19.44585689      21.30838499
Si      11.15013908      20.82730208      20.17664777
Si      12.05048182      18.86309486      19.33783206
Si       9.26597741      16.36026108      19.66695857
Si      15.74775149      23.98637120      11.29048815
Si      16.15689708      21.90352109      15.11506395
Si      16.99796896      22.90769623      12.93577768
Si      17.47075842      20.81992677      16.87339989
Si      17.63430452      20.87755961      12.36898358
Si      15.02511549      18.84370078      13.27301669
Si      16.75716328      17.14411853      13.93564268
Si      15.76959549      20.19557835      18.34741265
Si      24.06533028      11.37898300      19.61178170
Si      25.28163429      12.03340280      25.13549579
Si      25.32492254      10.27165364      23.59016607
Si      21.61851368      10.16762270      22.26625716
Si      25.87223225      11.12552637      21.19399867
Si      18.50165305       9.34007283      22.21574622
Si      22.56969595       9.80780593      20.18929011
Si      20.55822965       6.97540083      17.53506261
Si      26.37617756      10.56983828      16.51610514
Si      22.55577449       8.42705566      29.90655154
Si      25.56491562      11.21880273      28.14235934
Si      26.07692687      10.51704037      30.50347583
Si      26.73585354       9.19379888      27.55790388
Si      24.09467960       6.49452169      30.45474576
Si      18.87295351       9.43672316      25.76567551
Si      19.60339823       7.24537836      25.11152245
Si      21.44955513       5.30546427      28.56068008
Si      17.46852850       5.84848736      27.79099964
Si      23.07374489       9.61594853      28.05886109
Si      22.99010687       9.83315815      24.05313487
Si      23.38915790       7.88905808      26.36920440
Si      21.45384479       6.59203556      26.64705434
Si      17.34278710       7.42438343      22.18287968
Si      15.79204630       6.08693609      23.45970563
Si      17.57153139       5.95673362      20.63351476
Si      17.61505675       5.61684988      25.32984203
Si      14.68775452       3.76972632      21.93923032
Si      20.36897091       8.01459075      22.62093315
Si      21.45977970       5.87047356      20.77122315
Si      14.36328860       4.25136346      19.58300450
Si      18.61130700       6.05583198      18.57566222
Si      19.26637840       4.66150237      28.52855595
Si      14.60904865       5.36164341      26.53824028
Si      13.83120490       2.44140851      23.51313167
Si      24.91357480      27.90934278      23.86524500
Si      21.37191542      26.10830539      25.14654315
Si      26.73190143      29.53337624      26.02075750
Si      25.57488950      27.48127799      26.06047382
Si      26.84291258      25.54877643      26.12971548
Si      24.92546099      25.43746300      20.14135785
Si      23.13007724      26.15993968      23.57153889
Si      24.09833486      24.14175629      23.67565547
Si      21.61141391      22.37116335      20.55068609
Si      26.27887950      27.60795225      22.00165462
Si      27.09777342      25.61057811      21.58066571
Si      27.98061434      25.91351297      24.14165935
Si      25.57405693      23.99813699      22.06134600
Si      29.53864505      24.30041698      23.91744758
Si      18.24987128      23.99605934      27.41791937
Si      22.60975253      26.03808331      27.02386697
Si      24.00405133      23.74727274      27.38243543
Si      21.36058504      21.48923422      29.11905572
Si      29.46076243      23.28465879      27.41916800
Si      26.48995573      21.16806093      28.97624369
Si      30.33072469      23.40206854      29.52377813
Si      15.99181985      22.45338297      24.39078935
Si      17.75579101      21.69717329      27.50639063
Si      19.79864418      24.25828272      25.24847433
Si      22.92181845      22.44491570      22.56059600
Si      21.26264746      22.13457824      24.82059193
Si      22.54694756      21.85998482      26.92449094
Si      19.84824303      20.16987596      24.47444869
Si      23.71528286      19.77962650      26.47939623
Si      25.50421501      23.63054476      25.57796565
Si      27.00017541      21.52026172      25.17220130
Si      28.19706852      21.39295122      27.32653669
Si      25.51644216      19.45650813      24.77292566
Si      30.91293692      23.77028763      25.63157967
Si      20.02597043      20.91464884      21.66062614
Si      20.50152600      19.27765366      29.17531088
Si      24.99076038      19.41981672      28.61382217
Si      26.24330160      17.35444923      28.71706099
Si      27.08429457      17.63901120      31.02733712
Si      30.40350369      19.40816381      30.03179221
Si      38.50185190      25.97937969      34.33656746
Si       2.70953256      27.80435747      34.47182821
Si       0.96294871      25.96438929      31.58896033
Si       4.51549417      26.99696366      29.04269893
Si      36.85592098      19.41526614      37.26898892
Si      39.37808289      24.56212029      36.00160133
Si      37.84472305      22.74179471      36.56246193
Si       1.25995119      23.85549678      34.89289599
Si      39.52590521      22.70702051      38.52714415
Si      37.86949279      20.42938351      35.42974588
Si       1.88079400      21.97837365      37.67279902
Si       0.03750740      19.94843439      34.77748674
Si       7.16185522      26.50689254      34.88881251
Si       2.76674754      23.78959423      36.55576668
Si       4.85972433      23.25309819      35.74434208
Si      37.63812620      24.85426584      32.48409663
Si       0.64306136      23.86728918      30.10277152
Si      39.35279470      22.89543560      31.91221349
Si       2.70021398      23.32077959      29.24039897
Si       0.80682218      21.92601068      33.59955502
Si       2.86451359      21.08621432      32.80260556
Si       2.20276734      25.50857975      33.57058835
Si       5.28860765      26.50140918      31.04439009
Si       4.36532058      24.74640895      32.49198602
Si       5.98094291      24.45240751      34.28756198
Si       3.90791657      22.72836759      31.20588819
Si       5.83357104      22.39732888      29.94863096
Si       3.55234107      20.02249474      27.40047460
Si       3.97064886      24.93643532      27.93139260
Si      38.12802656      19.27180635      39.51564345
Si       1.63660157      19.82451273      36.56665342
Si       0.41020003      19.11900982      39.39584748
Si       3.28231941      18.80545044      35.36555675
Si      39.46740355      16.99489884      38.15666928
Si       3.87990351      17.12822207      39.76359412
Si       1.41880382      15.59806997      37.09301699
Si       7.18166059      21.56179643      36.54059011
Si       4.24592901      18.69119598      37.33769428
Si       6.35497876      17.89824423      37.44507585
Si      39.84060846      17.96595638      33.27043274
Si       2.52259793      18.74809009      31.80115917
Si       1.84058040      16.84101787      33.25262238
Si       4.57034089      18.12893501      30.80259344
Si       2.78025068      16.65017710      35.26950024
Si       4.90339076      15.82014748      34.63055309
Si       4.48878001      21.20179317      34.65375453
Si       7.48792654      20.68713343      32.67637048
Si       6.08793499      19.49937335      33.91468648
Si       7.28361497      19.23668554      35.84217125
Si       5.86911634      17.39186750      32.77957581
Si       8.22525088      16.97874057      32.20772354
Si       3.80265769      16.62273976      29.30326761
Si       5.41203004      20.13528589      28.82914444
Si       3.06162898      15.18147722      38.79268719
Si       1.73181975      12.42282506       0.29456819
Si       5.10996244      14.21964128      38.16797397
Si       4.23879151      13.74757297      33.82539006
Si       4.17205236      11.78715827      35.28060497
Si       6.04664074      12.85783410      32.70354086
Si       5.11152756      11.96694801      37.60504286
Si       6.35183872      15.57669020      36.49043809
Si       8.42467819      14.63995979      35.31878326
Si       9.50079584      13.92618318      37.32771047
Si      29.35709992       6.89004371      29.76888245
Si      32.04312367       0.81442660      31.82911440
Si      29.00962177      39.74157799      34.15060790
Si      29.54701138       3.46924631      32.73437928
Si      30.38620109       1.06159515      35.40272174
Si      31.78923627       3.04374808      29.59500485
Si      35.89544665       4.85876152      29.95590708
Si      31.41954302       5.09754462      28.83597603
Si      31.71027252       2.96469600      31.84191983
Si      33.17872940       6.54310952      30.11549651
Si      33.56524903       3.87119541      32.83173972
Si      32.16798264       0.42356119      34.05261608
Si      34.21330478       1.10274655      35.09886946
Si      33.98416591       0.19558473      30.74498101
Si      35.93614053       1.07159684      31.65939172
Si      35.47083693       3.33817021      31.77008446
Si      36.29778077       0.36424202      34.05792106
Si      37.47912267       3.83069866      32.81049806
Si      38.08749532       1.34595248      35.45028183
Si       2.79971524       5.22352672      32.99690280
Si      28.41660069       7.41347465      33.58930365
Si      26.18285695       8.02315517      36.71249803
Si      28.37921539       1.17116478      38.40678209
Si      25.91169678       3.73658644      39.11532206
Si      26.20635933       1.12725463       1.38132876
Si      26.14104304       4.17820764      35.22427920
Si      29.95738225       3.33695381      35.03245147
Si      28.17332595       4.41521052      36.14030056
Si      31.88309714       4.24309717      35.97173638
Si      28.10816822       6.78231362      35.81077883
Si      28.09903623       3.57868346      38.29644976
Si      30.03194151       7.47074530      36.58911909
Si      29.86290912       4.69246516      39.32281787
Si      29.41249535       5.84463591      32.15399069
Si      33.40518450       6.03454171      32.32204369
Si      31.35596697       6.88275185      33.10472409
Si      35.25838580       7.04094051      33.33093680
Si      31.72515008       6.47195410      35.49876153
Si      33.49511297       7.66109381      36.49900540
Si      28.46189419      37.72070827       0.96138838
Si      28.27466255       0.30347090       0.58133503
Si      29.96754276       1.59179677       1.63476063
Si      30.46607587       0.48609954      37.72496315
Si      34.26027263       0.61735621      37.37281985
Si      32.26425986       1.61409599      38.46800737
Si      35.92779552       1.76055893      38.53546516
Si      31.88346614       3.91419872      38.28763339
Si      31.95852340       0.82600614       0.57945686
Si      33.69384094       4.96867272      39.29654393
Si      33.84814568       1.84752977       1.89185409
Si      33.87195615       3.40924446      35.05498214
Si      37.72994400       3.62573803      35.11172360
Si      35.70800338       4.47084935      36.03334229
Si      39.54597530       4.80639442      36.01791734
Si      35.44479873       6.76072338      35.66378246
Si      35.70250880       4.09757591      38.32872306
Si      37.24764241       7.83481515      36.74900806
Si      37.57213463       5.08916539      39.36759008
Si      37.26422563       6.15687053      32.37566860
Si      38.98174173       7.31024277      33.41604717
Si      39.20423128       7.16632512      35.74235060
Si       0.85973800       8.53382600      36.70420698
Si      35.78993324       1.37615332       0.85910309
Si      37.61070730       2.32640977       1.98334335
Si      37.90312843       0.75931006      37.63589096
Si      39.77519560       1.85226734      38.84589487
Si      39.48834877       4.19679411      38.36612006
Si      39.25444119       1.23132527       0.95514821
Si       1.25405181       5.37363667      39.19212638
Si       1.74471813       4.25334807      35.18318609
Si      24.06601964       2.13869115       4.42231448
Si      25.77533029       3.35296246       1.28887860
Si      27.56163663       4.61598822       2.51195178
Si      23.95018370       4.33311338       4.94517560
Si      25.50106646       7.82576510       3.24727322
Si      25.81220603       5.10278549       6.00639264
Si      25.50955451       7.54937893      39.06859865
Si      29.70230828       7.08556447      39.01468177
Si      27.66187593       7.84158304       0.14511682
Si      31.36507321       8.29309718       0.16464005
Si      27.50236346       6.95745856       2.33988122
Si      29.23216391       8.05009709       3.52520661
Si      24.30755006       1.38492292       6.51070478
Si      26.01441030       1.33275606       8.29555081
Si      25.35171529       0.49312785       3.42847170
Si      29.90329512       1.31432985       3.96628142
Si      27.90372212       1.89274842       5.07362932
Si      31.90622861       2.30839857       4.90180510
Si      27.65972815       4.16895615       4.83350256
Si      27.85215324       2.23437501       7.26593723
Si      29.64308624       4.95557992       5.90998877
Si      29.71983993       3.99320969       1.53977994
Si      33.66616819       4.30066674       1.58860529
Si      31.59379307       5.12651087       2.53051361
Si      35.57219942       5.37993178       2.59771578
Si      31.32784332       7.54050724       2.33385371
Si      31.66613422       4.53554252       4.80622859
Si      33.30984107       8.56938305       3.11946716
Si      33.62574162       5.38828228       5.77952487
Si      33.48597561       7.37834482      38.95428593
Si      37.52577434       7.42875643      39.05918182
Si      35.55358614       8.07674360      39.99453129
Si      39.44956102       8.88091329       0.11742374
Si      35.30908890       7.70713338       2.24911041
Si      36.91178673       9.10363343       3.16420606
Si      33.74667318       2.52294538       8.81740329
Si      34.18563822       1.63100890       4.37172525
Si      37.97756704       1.51844438       4.22119920
Si      36.28601191       2.52921398       5.33832673
Si      35.73205748       4.80210299       4.85589674
Si      37.44020778       6.08247255       5.66438932
Si      37.34146099       3.19088143       8.87109782
Si      37.64078121       4.70591434       1.68675396
Si      39.60142805       6.13727586       2.15873399
Si      38.91213649       8.35609007       2.28775424
Si      39.50905203       5.49441764       4.40763971
Si       0.42105590       9.22392929       3.88229956
Si       1.18541251       7.76975236      38.94290788
Si      25.64290082       7.43054847       5.88166546
Si      27.77964962       7.98671948       6.89522291
Si      25.56614280       4.77602011       8.36698484
Si      29.78869129       4.28850735       8.24278428
Si      27.83279869       5.20279274       9.19162115
Si      31.65038277       5.46183724       9.25298605
Si      27.77633379       7.47245744       9.18847010
Si      29.69935061       8.69606589       9.36047434
Si      29.51952218       7.21570497       5.69028252
Si      33.36218247       7.67399118       5.35533682
Si      31.49079402       8.07162427       6.57195841
Si      34.85886391       9.04589574       6.28844243
Si      31.68438132       7.77440224       8.85265336
Si      33.38132865       9.31472970       9.74774117
Si      32.24173677       4.97780364      11.50971449
Si      33.75384528       6.72317264      12.12312327
Si      33.59184715       4.84492261       8.08892783
Si      37.18893402       5.38749531       7.97157548
Si      35.30512573       6.27236039       8.93360767
Si      38.98041437       6.59211328       8.66552056
Si      35.14137336       8.58721615       8.63984019
Si      35.93803254       5.74673167      11.04632635
Si      36.69599815       9.93867961       9.77617427
Si      36.89354726       8.41473793       5.37725352
Si       0.55087387       9.49026901       6.16151435
Si      38.35116210       9.65037297       6.62232076
Si      38.51559098       8.89890917       8.76710355
Si      39.90486687      36.01327806      25.35327237
Si      33.65062037       3.38798037      19.46898830
Si      33.20991044      39.28477793      17.66759490
Si      31.91037639      33.60087126      18.92473010
Si      36.19257484       1.29744247      18.48427195
Si      33.37290689       1.72124989      21.18522194
Si      35.22954414      38.45410758      23.68476079
Si      35.06357039       0.06864181      20.87054636
Si      36.78430902      36.47699575      23.00777767
Si      33.76697282      38.27728800      19.70475388
Si      37.26469289       0.18541279      20.16349200
Si      35.03927106      36.31253610      19.39885039
Si      38.34872801      38.22695242      19.64776899
Si      33.59287421      34.07699983      22.11190204
Si      35.64735095      35.10378083      21.36742761
Si      34.47683848      30.94316434      20.04212544
Si      37.21851362      33.36215430      20.72885094
Si       2.40105745      34.96280593      24.17873186
Si      38.83274997      37.08412899      21.66146172
Si       0.54500734      35.26787926      21.52542646
Si      37.83529740      35.05509091      24.78998260
Si      38.97436676      33.20605853      24.09793697
Si      39.34829901      30.10317625      24.33472781
Si      37.62040798      32.00109493      22.70290114
Si       0.97395739      33.61639779      23.12033545
Si      38.45044431      30.38660057      21.30459659
Si       2.04800466      31.58950508      22.77911708
Si       1.64326388      30.15678852      24.51904586
Si      32.92377962       3.55715651      14.90072092
Si      34.42044686       1.65467990      14.92785272
Si      32.10436835      37.86544907      16.15559566
Si      31.51988769      39.36002150      14.50567798
Si      33.62368157      35.86256982      15.80890883
Si      33.36317433       0.43177953      13.19526325
Si      30.97541640      33.16417856      16.71105780
Si      30.71027096      35.27475429      15.75537098
Si      32.62754628      31.41835796      16.55576091
Si      36.57461296       2.70707952      14.40966571
Si      35.07076655       0.22498837      16.72273852
Si      36.93111466      37.07339098      18.20788284
Si      36.32452709      38.34953203      16.11481421
Si      38.68816036      35.58953617      17.72533495
Si      35.35263794      36.82509206      14.45336710
Si      38.59321251      38.82484833      15.60732888
Si      37.37058653      35.57409105      13.91267911
Si      33.93526704      34.86210251      17.97062021
Si      36.27981486      31.97925499      19.04390476
Si      35.63070246      33.44710594      17.25859557
Si      37.65129701      30.16305161      18.33035849
Si      34.56692271      32.52387848      15.45890762
Si      37.58076501      34.38484074      16.14401767
Si      35.31890804      30.36712839      15.06200823
Si      38.76608610      32.52146310      15.68678874
Si      34.83555108      28.04989152      17.37188147
Si      36.57568130      29.20606429      16.53952882
Si       0.04046687      37.24384557      16.70244155
Si      39.47297140      34.19179593      19.65414814
Si       0.91224212      30.60699935      20.97746726
Si       0.79031432      32.07830169      19.10744690
Si       2.49471283      28.89775173      20.35792870
Si      39.51180802      31.10915259      17.40173205
Si       0.95549869      29.70321319      16.23765451
Si      38.11867469      28.50417130      20.03738195
Si       1.85017895      27.99303783      17.97478639
Si       2.91778550      27.08684109      22.07217296
Si       3.83055143      24.17013683      18.74561551
Si       3.77152185      24.06189596      16.28709868
Si       1.87983704      23.05224295      19.85020799
Si       1.36978716      23.43540433      16.20809403
Si       2.83235275      20.53353245      17.49642691
Si      39.50384921      26.06869365      20.62196842
Si       0.08425463      26.21139037      18.32906548
Si      38.46121633      26.03535339      16.51705503
Si       0.40309110      23.80739360      18.23897567
Si      36.27371531      25.24222458      16.90448501
Si      38.21027123      22.71419916      18.52896718
Si      35.92451668      26.46792454      18.74180080
Si      33.14149026      24.69749460      19.46053819
Si       5.22913959      20.59411066      20.55457331
Si       3.54857740      18.97833363      20.87107839
Si       1.97997263      20.40679641      19.68583942
Si       4.52726667      17.05115583      19.83707642
Si      39.99024146      19.22456812      19.82094902
Si       2.57776834      16.19971887      20.31457634
Si       1.35032217      21.22908431      15.73780179
Si       2.01670797      21.09770088      13.39724243
Si      39.31030779      20.02711936      15.98642880
Si       2.58168300      18.78832672      13.24290330
Si      38.47405708      20.47306906      11.87506544
Si       0.59746233      17.63289063      13.51329261
Si      39.62148887      24.55874206      15.11390510
Si      36.60494941      23.03981297      16.74897457
Si      37.55978340      22.93160680      14.59815458
Si      34.47814422      22.08585805      16.92004258
Si      36.08132835      23.57866983      12.83375285
Si      37.77338041      20.65038416      14.20594469
Si      35.66915312      19.45953878      14.40509666
Si      34.57037894      26.34108515      15.64594478
Si       3.98582917      13.62351096      17.85264424
Si       3.06552555      14.35270192      14.73053857
Si       3.75102249      18.67035933      16.56894507
Si       0.81316920      17.17622587      19.01683559
Si       1.70680091      17.02036986      16.83708306
Si      38.77518281      16.10471631      19.59770613
Si      39.82011330      17.76848083      15.63847272
Si       2.08268506      14.55864510      16.75262318
Si      37.92525322      16.38513307      15.88137485
Si       0.17507566      13.23920573      17.11308261
Si      38.47299346      20.28891435      18.25363633
Si      36.44635459      19.07360837      18.33580345
Si      34.84056277      19.79645099      16.69495519
Si      37.03957328      16.76972778      18.08035016
Si      32.78068713      18.70497392      17.18899138
Si      35.08871936      15.42086778      18.25760742
Si      33.90223405      22.60690581      19.27986996
Si       3.08288142      14.08639779      20.01512227
Si       1.28638643      12.82065832      20.56162931
Si      39.40582372      13.74031066      19.39073318
Si      37.45062044      12.62539816      19.92941222
Si      39.21906086      18.21782562      11.72221599
Si      37.18735148      16.77856133      12.10035022
Si      36.87301826      14.14524339       9.86311620
Si      34.17917136      20.11853776      12.36243009
Si      34.87735050      19.40668906      10.23847941
Si      35.40017258      17.20835733      10.58138088
Si       1.41182090      10.61561551      14.40478228
Si       1.04034364      10.98602884      10.83486135
Si       1.50316286      15.46207363      13.32728582
Si      38.55131829      14.00850588      15.53090811
Si      39.46139946      13.74457007      13.22065271
Si      36.60459526      12.69142376      16.07731921
Si      37.53989911      14.44188000      12.02835628
Si      39.79076773      11.29596785      12.89135225
Si      35.62691570      13.11265085      12.38109944
Si      37.69821949       9.96846383      13.29659850
Si      36.27686303      17.09808678      14.26087150
Si      33.43333630      16.17102574      16.76339942
Si      34.43817542      15.60142828      14.72435875
Si      34.92268095      13.36315474      14.60180116
Si       0.80779217      10.85216261      16.65226926
Si      38.15500157      10.21727872      19.66163367
Si      39.26499792       9.31751749      17.58920716
Si      36.75830824      10.42241641      15.42010928
Si      34.82344566       9.48133869      16.13334146
Si      35.81257980      13.14934232      18.33316785
Si      34.34950564       9.15326581      18.51645829
Si      35.98529211      10.75383017      11.91803451
Si      14.44019564      31.04134580       3.29575906
Si       9.98644946      32.84304871       3.64908715
Si      10.72135557      30.52549284       3.97505358
Si      15.48827042      30.58602245       5.28020055
Si      15.21116708      28.41332175       5.80498034
Si       7.70606936      29.94675742       1.21192318
Si       6.24828633      29.36493682      38.34386799
Si      11.31814860      30.67265907       0.94965387
Si      12.56907828      29.84487425       2.62887909
Si       9.72069746      29.10053624       0.64383480
Si      13.14090818      27.58014997       2.38244454
Si      10.46532331      27.14004927      39.60907706
Si      15.23248228      27.27006078       0.99267346
Si      11.69319830      30.28922770       6.17837461
Si      11.52366516      27.72856085       5.99277325
Si       6.24141201      28.46380995       0.41531286
Si       4.46289652      29.30450025       1.65152157
Si       6.92606495      26.27581242       0.39286236
Si       4.94320733      28.14027683       3.46113106
Si       3.29126875      26.04520252       0.32774607
Si       8.74728704      29.36461221       3.44829423
Si      11.18244383      26.45727493       1.77423548
Si       9.31861591      26.95005927       3.38280553
Si      11.64708521      24.18168488       1.79301074
Si       9.66309777      26.17540827       5.63925699
Si       7.42505689      25.70983463       2.72142316
Si      10.22196508      23.79372550       5.49633729
Si       8.02571642      23.45566087       2.55024874
Si      13.48722827      27.11329530       4.64539564
Si      13.97547443      24.79134577       4.35821540
Si      12.21570305      23.34469752       3.79643211
Si       5.21579574      25.26475052      39.22824355
Si       5.65907443      23.00304250      39.49419398
Si       8.75633825      25.79968968      38.85478632
Si       9.62211165      23.57268298      39.07253916
Si       9.81003040      22.76288671       1.30908723
Si       7.72937372      21.94930234      38.61654145
Si       9.71387373      20.09022824       1.44814999
Si       7.94235903      19.37132699      38.70161209
Si      13.81984873      23.58214064       1.05942268
Si      11.78609413      20.31608119       0.16962612
Si       0.13395162      25.57439492       2.15887912
Si       3.02370689      25.09419808       2.53483776
Si       4.43062945      23.26793716       3.12429577
Si       8.18111098      22.78929494       4.73071567
Si       8.67457605      20.75567782       5.64505111
Si      38.59660762      21.56981464       0.50404045
Si       1.43768015      24.64193879       0.15439537
Si       3.75875049      21.72528956      39.11967773
Si       1.92270538      22.26730014       0.60976552
Si       2.64623934      21.77325554       2.88244832
Si       2.67986727      19.34151407       2.98385918
Si       6.04578844      22.72291726       1.70505806
Si       7.47253545      19.60985101       0.76988847
Si       5.79789749      20.53206264       1.90185225
Si       5.72800527      19.33672615       3.91469700
Si       4.59404572      17.83806854       2.57267026
Si       4.21375754      15.52095180       1.72513865
Si       7.31425632      16.04142500       0.37729501
Si       0.67099711      18.72334321       1.78186070
Si       0.79450919      16.32829012       1.91661403
Si       2.23738497      14.71309135       0.94162049
Si      13.98210321      38.97571054      22.53143013
Si      15.53943931      32.31255928      24.36223451
Si      17.12912715      33.69724666      25.48790153
Si      13.15540758      35.38655080      24.12568292
Si      13.10523765      32.56421168      27.40762531
Si      14.90746659      36.70459993      25.74885725
Si      14.76426551      33.92615834      28.37315383
Si      18.06107293      36.63588671      23.19233094
Si      18.85734456      38.97414467      23.47139748
Si      17.19643145      35.98223068      25.28548285
Si      18.94062898      36.73350076      26.66197453
Si      14.31196439      31.43558806      31.08652152
Si      19.21997663      29.60800884      27.39980433
Si      16.96602922      30.53314650      28.07395040
Si      20.82360166      30.87943563      29.03176232
Si      16.85993027      33.03062721      27.75810200
Si      16.44581633      30.37827147      30.27085360
Si      18.16642852      34.30422601      29.26403587
Si      17.69750970      31.80308079      31.60592293
Si      19.10082430      33.11547709      24.42310351
Si      20.73354066      33.68851740      26.32635722
Si      20.35348830      33.72353206      28.91215069
Si      22.25459673      34.51970106      30.20157882
Si      11.19278986      38.83223752      25.32996351
Si      12.86223784      39.83675232      26.57422487
Si      12.36146243       2.23478889      26.48314783
Si      12.08796230      34.29426140      31.01575350
Si      14.70550984      36.24770028      28.14889476
Si      12.66378068      36.74964415      29.22680544
Si      16.40657905      37.39645424      29.41655716
Si      12.32981175      38.98558385      28.71590102
Si      11.72215514      36.44507046      31.39950631
Si      14.93197129      39.13881707      25.81831604
Si      18.92787404      39.00320515      26.41151572
Si      16.80949323      39.60345081      27.17506220
Si      20.54751490      39.75124283      27.89157848
Si      16.51033998       1.78984912      26.64480004
Si      16.51247707      39.77732545      29.45860648
Si      13.49836190      30.97438257      33.29809590
Si      14.98123194      31.77628281      34.83677091
Si      14.25307888      33.69020337      30.60525898
Si      17.44300543      34.07319427      31.49313897
Si      15.39156487      34.87438204      32.10979533
Si      19.04838916      35.19930506      32.73089777
Si      15.80614497      37.15619025      31.66566515
Si      14.68319245      34.20202671      34.34267179
Si      18.41254941      36.49384186      28.89317307
Si      22.24635320      36.76293172      30.30823391
Si      19.96568789      37.28485656      30.43386617
Si      23.11603483      38.09139036      32.02591026
Si      20.16519646      39.44240469      30.11777129
Si      19.13246256      37.71837920      32.64474337
Si      21.98450810       0.05062620      31.40567360
Si      16.89300003      31.07009206      33.83970915
Si      18.62936911      31.83115187      35.18656722
Si      19.26331524      34.50290094      35.07363802
Si      20.90977393      34.01666195      31.92210792
Si      22.40514435      34.42371465      33.59241896
Si      22.43995427      36.73363735      34.08668432
Si      21.77091574      33.28925562      35.44938951
Si      26.96634164      36.49171179      35.44257053
Si      26.75370673      21.88538069      19.56055246
Si      30.25587514      24.39505075      21.01150480
Si      29.76123360      22.25412957      21.29013439
Si      28.98139885      21.28785845      19.51761207
Si      29.44349609      19.09912682      19.83795044
Si      21.72917200      19.06095867      21.01999276
Si      25.34691231      21.72358139      21.55440444
Si      25.79094240      19.54695519      22.35639782
Si      24.16026305      18.24513373      20.85441377
Si      27.53667148      16.22130109      18.41796795
Si      24.57313298      15.75908320      21.16147013
Si      21.44133914      18.49699668      23.30642553
Si      28.92181416      22.01701632      23.50176390
Si      29.79404512      19.82409763      23.76262453
Si      30.05691682      20.03161820      27.71269082
Si      32.01277762      21.72819730      20.51645493
Si      31.85622392      18.52031983      19.50240537
Si      32.87772728      19.76888855      21.17218573
Si      31.64902843      16.26347629      20.01934451
Si      31.92746697      18.98919158      23.10852400
Si      31.98617397      16.64410388      23.53070705
Si      33.78502205      15.16463231      20.12052377
Si      33.72288476      12.80733212      19.47340170
Si      25.65870511      16.74599946      24.99895191
Si      29.16716801      18.95766541      25.87912962
Si      29.23308046      16.73641014      26.12551197
Si      28.32735775      18.78352264      22.04655195
Si      26.81731980      15.48008170      20.64912575
Si      28.35578407      16.44181400      22.29798959
Si      26.96841842      13.20317919      21.30749003
Si      30.59768334      15.63994049      21.97850890
Si      27.80892364      15.87942181      24.57318712
Si      30.68441377      13.25195073      22.07547488
Si      27.89275778      13.51744327      24.82268152
Si      30.09635643      15.51794241      18.44060604
Si      30.14192636      13.08642004      18.57758620
Si      32.04227009      11.66346475      18.32868814
Si      28.99175369      12.37384510      20.48297590
Si      32.15728383       9.36690074      19.23057690
Si      25.00520549      15.87916010      27.14909123
Si      24.49537813      15.20430167      23.37352293
Si      26.05036208      13.45043614      23.48506047
Si      28.33205217      16.25105552      28.21389152
Si      27.41535724      13.99060155      28.26660287
Si      31.35583138      16.00049398      25.65412239
Si      29.98808661      12.45901028      24.10504752
Si      31.05857649      13.71911373      25.78417802
Si      33.02653652      12.59159129      21.72828218
Si      32.67400686      10.54106319      22.60041052
Si      27.23344742      12.25961242      26.72419924
Si      14.57125615      17.58840804      20.72502042
Si      10.46146771       8.63704488      16.44327239
Si      13.73163706       7.71162674      20.66810468
Si      10.61276769      11.53711146      13.84499389
Si      11.71165692      13.31768387      20.30195278
Si      10.61558746      12.45409296      17.88147860
Si      13.98525545      13.96062398      19.87985456
Si      11.36688124      10.14108347      18.13118433
Si      11.24531423      13.16352314      15.56892653
Si      13.70713231      10.52847635      18.22256602
Si      13.69104325      13.10498407      15.75727720
Si      14.82297402      11.84609374      20.24823592
Si      17.11719868      11.59549837      20.17619970
Si      14.57045695      17.57475418      18.16005119
Si      13.15461091      16.19177508      17.05887615
Si      16.89987376      18.01606340      17.74818719
Si      14.42436763      14.36968280      17.62871316
Si      16.88983890      14.53464189      17.49796945
Si      17.97530856      16.04815103      18.93220043
Si      20.31797505      15.56851224      18.78972755
Si      18.53833645      18.92001670      16.07754875
Si      20.88945843      18.34979935      16.44617847
Si      11.32501797       6.49983636      16.93077211
Si      13.76925098       6.64467258      16.83514651
Si      11.83432460       5.66745648      12.87518761
Si      14.12503393       5.79264931      13.18761321
Si      14.88794306       4.42784753      17.36123139
Si      13.97527795      12.91023486      12.05522170
Si      11.21990607       9.38969230      14.36516957
Si      14.52786010      10.96495287      16.07349929
Si      13.73244469       9.49762350      14.31805152
Si      16.92314487      10.93534855      16.19204805
Si      14.72194974       7.39755967      14.73688129
Si      14.74044498      10.70456769      12.46826204
Si      17.08207692       7.43219013      14.84539164
Si      17.20918732      10.51238252      12.26308128
Si      14.31354060       8.39770339      18.47013736
Si      16.74997109       9.26135854      20.64964080
Si      16.47020991       8.05451340      18.72706310
Si      17.61749155       8.75253420      16.67950854
Si      19.97201737       8.94938655      16.84241137
Si      14.69883884      14.14892400      13.94178131
Si      17.79696906      15.37281547      15.44494505
Si      17.09581334      13.91499432      13.91325278
Si      20.31411038      14.95575964      15.28883708
Si      17.95698456      11.70624323      14.15994148
Si      17.83929135      15.03312883      12.00046616
Si      20.39662784      11.50617415      14.33487947
Si      21.33936232      14.35241688      11.55598700
Si      17.71319437      12.31985411      17.97110694
Si      20.97780458      13.53583753      19.72547083
Si      20.06627197      12.23293791      18.08098790
Si      23.25654623      13.60888027      20.06720847
Si      20.64546101      10.12211234      18.70811004
Si      20.98037096      12.87273089      16.04442046
Si      23.24300676      12.83798482      16.43665510
Si      18.26456570      17.92486994      12.46965032
Si      21.43020097      15.90301704      13.40787641
Si      21.37326408      16.17570502      16.83983298
Si      24.04593742      14.37177954      18.21587042
Si      15.15602609       4.20501001      14.42194907
Si      17.43155865       3.64492746      13.90580986
Si      15.07195693       7.62050404      10.53299129
Si      17.98004884       8.32353020      12.83636359
Si      17.23165843       7.01044921      11.12481002
Si      20.35492725       8.22086366      12.79587396
Si      17.44587893       4.69297588      10.99057600
Si      21.26764866       6.81354586       8.54697321
Si      18.09712501       5.33291901      15.31480910
Si      20.79760676       6.04412366      13.26863907
Si      21.62968804      12.32246895      12.51186095
Si      23.82614600      11.84250698      11.77212034
Si      21.84939830       9.14757494      10.89397606
Si      24.14880372       8.37916427      11.62117503
Si      21.11451172       9.33017719      14.81739997
Si      24.16027520      10.79953767      16.97681432
Si      23.51738703       9.13219963      15.29974555
Si      24.61023650      10.00558142      13.22159687
Si      21.99520224       5.33533671      10.22267372
Si      31.79016865      20.61549350      39.36361562
Si      32.44909781      19.20733431      36.39538783
Si      33.88061320      21.18523601      39.37763378
Si      35.33821468      19.78003952       0.23367870
Si      35.41287856      17.61958318      36.84359793
Si      29.07494968      18.74814669      38.55867442
Si      26.30237034      18.42612887       0.43649990
Si      26.22968341      16.07111307      37.79324393
Si      31.19600716      20.84002321       1.54228164
Si      28.86694516      20.72668495       1.90127080
Si      32.62867529      19.28058337       2.77121343
Si      28.54857887      18.59798258       0.83575781
Si      29.68344816      16.73847951       1.83519202
Si      32.05338290      19.11593199       5.03801053
Si      32.90023164      17.33447558       6.25986291
Si      29.87976015      15.19931481      32.27565471
Si      24.90093358      15.58979745      33.70033880
Si      26.34546672      14.20519917      34.76870400
Si      26.64646275      12.51572931      31.47641911
Si      31.94892250      16.90597060      35.63633460
Si      29.51070204      16.73742614      35.47087114
Si      33.33783422      15.32850529      36.52770092
Si      28.55464935      16.73632654      37.59277644
Si      28.71864443      14.89013933      34.29615081
Si      29.85092223      14.99065244      38.61778831
Si      30.15429121      13.21937836      35.17184671
Si      31.35963362      18.72840771      38.37771898
Si      34.73409452      17.72135074      39.14211746
Si      32.55883215      17.19025026      39.57189692
Si      35.85491949      15.98949404       0.33050485
Si      32.02492311      17.10951564       1.83962907
Si      32.21962770      15.19091716      38.57468964
Si      33.08092259      15.20947665       2.92303580
Si      33.32131632      13.47132383      39.59408760
Si      35.04731817      19.55565144       2.45756820
Si      35.86973566      17.62809623       3.49266069
Si      35.36243410      15.55004203       2.63992715
Si      36.65474267      13.63915746       3.61675098
Si      29.08928351      12.95838814      31.73285905
Si      30.68448667      11.15476352      32.13553806
Si      32.96832977      13.59467482      35.09634752
Si      33.96812890      11.72013346      36.01258168
Si      34.17935495       9.06820718      33.13342309
Si      35.84436485      15.36528773      36.42699324
Si      36.68094606      13.72384466      37.68726902
Si       0.10260336      12.56052779      38.29894580
Si      35.53825963      13.82608656      39.60454949
Si      36.40547122      11.89596724      36.29228157
Si      36.64017385      12.03699973       0.51797014
Si      37.21854360      10.06523342      37.33519890
Si      37.99854482      16.79786059       0.11503667
Si      39.08192045      15.06956194       1.18739615
Si      38.93462601      14.36696042       3.38894991
Si      38.75785024      12.90238645       0.16461586
Si       0.68757991      13.11887724       4.22821714
Si      39.94484780      11.19982574       1.07664484
Si      39.49121965      10.70595435      36.90800373
Si      25.97153482      15.90155968       0.09347299
Si      27.11526458      14.02849567       1.17866936
Si      28.97283176      16.76523237       4.00306176
Si      26.94139539      15.88630521       4.62786134
Si      30.05883319      15.03408165       5.03965637
Si      26.56498339      13.68681841       3.50483046
Si      27.92612698      12.10606912       4.51211782
Si      27.09673142      10.60946703      34.28874474
Si      25.85813741      13.91543146      37.19981882
Si      29.37876314      13.11133147      37.42680379
Si      27.21818701      12.17806531      37.83674067
Si      30.66408222      11.57893589      38.41127481
Si      26.70937756      11.87543757       0.09055060
Si      26.31122693      10.41739053      36.44781580
Si      28.05721842      10.15603747       0.89732362
Si      29.34704635      14.58546198       0.88285619
Si      32.76281837      13.06056079       1.86440815
Si      30.55109493      12.69705867       1.84708515
Si      33.91198728      11.08855582       2.94213999
Si      30.04426592      12.82600261       4.14589951
Si      30.28092922      10.67635366       0.46306636
Si      31.60209947      11.68293969       5.46046696
Si      32.27385868      15.39130930       5.16870774
Si      36.26760976      13.34153343       5.83764440
Si      34.21612905      12.62622438       6.69899234
Si      37.79398800      11.87724470       6.76530624
Si      33.80427247      11.02121657       5.22183576
Si      34.21126641      11.49637828       8.68903518
Si      36.60989911      11.99116343       8.83028312
Si      30.01799091       8.90302457      32.35334234
Si      27.78039568       9.24831161      31.35309401
Si      26.58653421       8.59251655      33.13989706
Si      29.48815754      11.16257530      34.18931174
Si      33.05565781       9.66473608      35.26634831
Si      30.62416651       9.55864549      35.52444813
Si      29.40421014      10.14193097      37.34208074
Si      32.91206616      11.80689071      38.11421745
Si      35.99403636      10.21432547      39.31760795
Si      33.68751747      10.23798783      39.43736286
Si      36.18125307      11.45714309       2.66906682
Si       1.16352111      11.16685942       3.01249689
Si      39.72916360      13.15096536       6.26945313
Si      25.71889476       9.95393088       3.90556873
Si      26.81872159      12.13167973       6.68300805
Si      29.02910661       9.91208180       7.48515839
Si      27.93813565      10.11543308       3.27134893
Si      31.16373878      10.21872540       7.06260378
Si      13.02067435      14.31172995      38.64263644
Si      13.79404527      11.38750308      36.62582747
Si      14.38971103       7.75434383      38.51130979
Si      14.49507517      10.99336090       0.31272667
Si      14.91428120      10.05327556      38.19457303
Si      17.86674769      10.96944023       1.30288317
Si      17.18946806      10.30039403      37.84491608
Si      16.55755862      10.74879672      34.39462780
Si      13.95975282      13.83402265      36.49055163
Si      17.12765056      16.19948481      35.87636835
Si      16.30769877      13.98590739      36.24606266
Si      19.37411791      16.25945611      35.50360432
Si      17.40046128      12.61178269      37.99147522
Si      16.95596367      12.99609993      34.30067678
Si      19.69375706      12.79340723      37.54557553
Si      19.21520782      13.02037365      33.61825414
Si      20.08735743      15.06766732      37.41691494
Si      22.35758552      15.27125619      37.41642843
Si      17.22422058      16.63872305      32.16802451
Si      19.87501510      15.21470081      33.48148890
Si      22.06147353      15.40352277      33.41620516
Si      19.72354876      18.70084324      35.53836394
Si      17.79189775       6.14446021       3.50514213
Si      19.43829988       4.66089742       4.38077800
Si      17.74937403       7.44180494      35.24349202
Si      15.27747896       7.12312726       0.46938130
Si      18.28863996       9.33734073      39.68772992
Si      17.54801933       7.11855417      39.70368564
Si      20.57284249       9.43154593      39.40474321
Si      18.58969914       5.70132423       1.31873618
Si      18.24894673       6.46394436      37.32772422
Si      21.15493793       6.02956543       1.35108647
Si      20.52362647       6.20483071      37.30705972
Si      21.47915695       8.92527605       3.47901878
Si      21.80182358       8.30752205       1.20925742
Si      24.17730108       8.73298274       0.99537237
Si      19.70608384       6.97449977      33.83912544
Si      17.89828424       9.59710596      35.76730768
Si      20.46218222      11.96144058      35.40541499
Si      20.16946301       9.73670800      35.41976571
Si      22.77308895      12.13874307      35.27482857
Si      21.04197488       8.49781988      37.26804820
Si      21.09911570       8.75564380      33.46099431
Si      23.28090767       8.54076095      36.96322048
Si      23.48381787       8.84141484      33.47392219
Si      21.00738328      11.72528257      39.20571705
Si      23.84313978      13.92831253      38.65824262
Si      23.26522901      11.71777645      38.53713758
Si      24.48581719      11.12754783       0.39064501
Si      23.97033169      10.73260972      36.67204322
Si      22.71460905      13.61574795      31.82080222
Si      21.56586856      11.69063573      32.36631324
Si      23.55419948      11.15901722      33.48250876
Si      25.72261148      12.26151627      33.50126141
Si      23.11734185      14.45272530      35.19208435
Si      22.72076735       4.65013447       7.10177640
Si      21.81295727       5.21423334      39.26342569
Si      24.38174088       5.47334669      38.76442352
Si      22.04286411       5.19996502       3.54459133
Si      20.84390616       5.41221374      35.06473653
Si      24.29141769       7.38869176      35.20500144
Si      23.14670309       5.11404666      35.03085766
Si      24.38790829       4.29763948      36.77941993
Si      24.38457838       8.74767756      31.28245639
Si      14.97342861      22.86427763      26.43759256
Si      19.06034244      21.10853925      29.30776500
Si      16.05005049      24.92596254      26.86644923
Si      14.63521099      25.84616404      28.84975085
Si      17.14475195      24.93071200      31.62983576
Si      14.18988212      28.08305448      29.94649262
Si      16.56998161      27.25414275      32.24704240
Si      12.52040056      20.20727075      25.75446680
Si      10.28119581      20.11683824      25.21832726
Si       8.91780327      21.06314231      26.79607935
Si      18.05732744      18.34674119      30.98109705
Si      15.63738657      21.65442313      28.26577196
Si      15.13895656      19.50740511      28.34512898
Si      14.53195707      22.36343591      30.19943809
Si      13.03697159      18.95805010      27.65588083
Si      16.00406349      18.01668929      29.95523437
Si      11.65319912      19.93401654      29.29281443
Si      14.39186101      18.90384005      31.63224158
Si      12.76312516      22.51843063      26.01142905
Si      12.66277262      25.64269360      27.84936656
Si      11.79205340      23.47145513      27.72792754
Si      10.98383756      26.18946469      29.24827838
Si       9.53671075      23.42575138      27.02802096
Si      12.30375118      22.16538139      29.58763893
Si       8.17213549      23.66865696      28.71830705
Si      11.07162708      22.99991256      31.29778129
Si       8.78667762      25.76832696      28.68696289
Si       7.42695285      26.82556100      30.30999233
Si      16.83224691      17.75947768      34.21683606
Si      18.19512242      20.58744012      31.41142982
Si      17.33390072      23.53765622      33.59342411
Si      16.62918665      21.41723508      32.91864330
Si      15.89372231      24.47831292      35.21564961
Si      14.58653958      21.12990974      32.17056800
Si      17.20263590      20.26251823      34.91826913
Si      13.35499765      21.91846868      34.02984248
Si      15.68864141      20.79305040      36.83169450
Si      15.03994627      24.50563418      30.68636344
Si      14.26406633      27.45660808      32.16247073
Si      13.57438921      25.29840010      32.24205448
Si      12.84495680      28.67382686      33.70438913
Si      11.42715698      25.27928417      31.43448309
Si      13.77238401      24.20536846      34.34293844
Si      10.16349349      26.27132232      33.09624829
Si      12.34165617      25.14166172      35.92649728
Si      10.79239248      28.37845201      28.88418855
Si      10.49451737      28.56584924      33.14058556
Si      15.95039192      23.14500816      37.35599896
Si      14.29597349      24.16077163      38.80450679
Si      16.46412033      26.90260820      35.37501183
Si      15.26607301      30.38461486      37.03055837
Si      15.01468224      27.88586201      36.96362183
Si      12.96103313      27.47063612      36.04866316
Si      15.48978160      26.49744159      38.84466791
Si      11.62649565      28.29613242      37.76219787
Si      12.13500438      30.20875302      38.94799499
Si      17.19487075      29.90777283       1.41333180
Si      15.09653411      29.57530616       0.82830146
Si       9.04097780      17.49668942      28.21482452
Si       6.80646909      19.98496328      26.67231385
Si      13.33919558      15.63990433      29.70729561
Si      12.15805753      18.74486359      31.18905196
Si      11.56441063      16.57085898      30.86190661
Si      11.01148514      19.52436605      32.99608982
Si       9.21007185      16.14838275      30.14241007
Si      11.36806623      15.27626590      32.78448136
Si       9.61661087      16.19272660      33.91647010
Si       9.34446780      19.84218654      28.77808139
Si       8.96393969      22.80528021      30.57757048
Si       7.68005572      20.98192326      30.42167598
Si       7.48979603      23.81337720      31.81599785
Si       9.01948875      19.12139651      32.17349662
Si      14.65275659      17.54496190      33.52088028
Si      13.46482771      20.55766471      36.01297150
Si      13.20051332      18.12391884      35.49773145
Si      11.76104561      21.45024588      37.72624212
Si      10.92839196      18.03332167      34.74254422
Si      13.82698274      17.73588732      37.89227154
Si       9.55740292      18.92905517      36.23040502
Si      12.05115126      18.18959130      39.28341249
Si      11.23270612      21.82622827      33.28038426
Si      10.23974640      25.14696114      35.14402144
Si       9.74146556      22.81017732      34.73898856
Si       8.88397424      26.57325229      36.50463284
Si       7.65413630      22.75281854      33.75650736
Si       9.66554253      21.21312523      36.46353141
Si       8.01054855      26.16909048      32.48655622
Si      12.03911813      23.77342517      37.90442066
Si       9.78339734      29.02720898      36.50783175
Si       9.89095504      17.96703403      38.36640566
Si      10.85948303      20.44438664       6.48024809
Si      12.59015650      18.36532486       8.92682765
Si      12.25807657      19.46813966       4.84804827
Si      12.60737610      16.16863091       0.27058907
Si      11.24829071      17.39746520       4.14635884
Si       9.31386198      15.68001793      38.97734942
Si      10.42685788      18.89818686       8.14822454
Si       9.50273059      16.87058872       7.59163336
Si       7.78891362      18.83715468       4.76921963
Si       9.32298745      18.10411840       3.13554304
Si       7.32443873      17.56536964       6.70308408
Si       8.42152276      15.90703754       2.43267088
Si       6.24434235      15.64235053       6.03863880
Si       4.39697783      14.59795050       8.91697356
Si       3.60522040      15.86831526       5.79534968
Si       2.92858851      13.78153091       5.01794600
Si      13.40821766      14.86956607       6.30904237
Si      14.83596419      13.14296632       9.78654167
Si      12.42552828      16.15664537       2.50072139
Si      11.76608583      13.91419458       1.94071547
Si      13.70918392      11.67151928       4.35248383
Si      12.62650204      12.39440116       0.23176095
Si       9.25423245      15.43201420       9.46320999
Si      11.17098350      14.58116681      10.45023137
Si       8.30350445      13.40217893       9.02569471
Si      12.80048667      13.79721944       8.73620360
Si      11.68594978      12.92639899      12.07147483
Si      11.81572288      11.65242263       7.99251850
Si      10.41770362      11.18387925      11.41847906
Si      11.04641718      15.84962834       6.02401720
Si       7.69086814      14.58858352       4.40757263
Si       9.90557999      13.89111720       5.40618449
Si       6.50465808      12.60340510       4.04461564
Si      11.40132703      12.75869989       3.77262131
Si       9.64547828      12.40653209       7.35132165
Si       9.95564670      11.23011004       2.77918504
Si       8.67514019      10.59309873       6.29593736
Si       9.60336400      14.39521530       1.01389480
Si       5.89652745      14.32294489       0.36088782
Si       7.58821013      12.67702806       0.66741362
Si       7.63112987      11.36417694       2.58699118
Si       3.75377444      12.01288295      11.55501229
Si       8.27574108      11.93234947      11.03368722
Si       7.04593898       9.84381618      10.62553988
Si       5.54041876       9.72221343      14.35416706
Si       6.35215874      14.11290358       7.93683544
Si       3.26491939      12.99418028       7.22897112
Si       5.33141414      12.10407485       7.64517063
Si       1.36106948      11.56742556       7.12928335
Si       6.50296600      11.23045047       5.85619155
Si       4.83044868      10.59306985       9.73889101
Si       4.29122247      12.45967378       3.60152975
Si       4.42976061       9.88738691      12.43857938
Si      16.53302255      12.48379914       0.27776010
Si      11.73125163       9.98079987       9.72592107
Si      14.03332656       9.64345372      10.62316302
Si      16.02621575       9.46424339       9.34554030
Si      12.46437182      10.48420983       5.93469286
Si       7.13639831       8.96257038      12.88298285
Si       9.11175726       8.17251694      13.70584582
Si      22.07150192      14.51120949      23.25428622
Si      22.78369321      11.96230386      25.79678145
Si      20.70935255      12.71530651      21.91517652
Si      18.30104070      13.01926591      21.75651988
Si      25.59449700      13.29511447      29.52776549
Si      23.08880747      13.71387467      29.54674492
Si      22.31498249      18.02222961      25.59118545
Si      22.61670706      15.99328755      26.80349234
Si      19.96337583      18.18566463      25.83387758
Si      21.63169128      14.09612771      25.41928585
Si      21.91955715      15.84920483      29.12817844
Si      19.19817613      14.13911610      25.42721907
Si      19.61008777      15.68442369      28.96733203
Si      21.20218910      16.39577835      22.19941985
Si      18.61499641      18.82775019      21.16280808
Si      18.95464552      16.71862868      22.31422041
Si      16.32543708      19.08186735      21.61504946
Si      17.61635786      15.25316596      21.09154950
Si      18.68017915      16.43129569      24.65478514
Si      15.30155709      15.46566611      21.25411023
Si      16.35659233      16.72287641      24.82322516
Si      19.10705915      17.92088167      27.94516107
Si      16.73511380      18.04565331      27.75507864
Si      17.54623348      20.68772292      25.12320522
Si      16.03777297      18.98120386      24.10692696
Si      13.77789701      19.66886359      23.88154694
Si      15.91834410      21.31795364      21.10338984
Si      17.55572064      10.29299988      24.08633403
Si      15.14612594       9.77255016      23.99430899
Si      22.04931528      11.76915228      28.12611275
Si      18.68802999      13.86465350      27.72212034
Si      19.50415764      11.86958791      28.81492855
Si      16.33138498      14.10766635      28.01775949
Si      17.92437194      10.07220518      27.79932815
Si      15.72853898      10.91919793      27.54647375
Si      17.71652473      12.66645409      23.97613194
Si      15.08106984      15.29413810      23.51156624
Si      15.41627068      13.15463363      24.21065018
Si      12.93981374      15.95210022      23.70389965
Si      14.36955936      11.59015068      22.66901692
Si      14.99721246      12.93706165      26.62840959
Si      18.84515620      15.22384628      31.32183511
Si      15.69678654      16.20190858      27.01656571
Si      13.51672208      16.59767354      27.55023504
Si      12.21394621      15.44555070      25.83798315
Si      12.75856681      17.95284122      22.58055473
Si      14.27642546       9.65418606      26.26145125
Si       7.28104022      28.74118178      29.01126308
Si       9.76940809      28.86241405      30.97586202
Si      12.04933128      31.38974764      30.43724293
Si       0.71718986      27.77192274      30.10929869
Si       0.16104352      31.21826749      27.64491193
Si       4.36283632      27.03510317      35.78182948
Si       4.84826877      28.31404408      32.28781294
Si       2.58267983      28.02368507      32.25281582
Si       5.57560154      30.40467004      31.66108748
Si       0.76148939      29.28959818      31.85506006
Si       2.29483551      29.76240272      36.04116431
Si       1.73545066      31.40600762      31.27707343
Si       3.22961919      31.75186284      34.80232398
Si       2.49683463      28.01183741      28.54657162
Si       5.41540459      28.87743040      27.71020096
Si       3.50134129      30.07312469      28.25188565
Si       6.52363637      31.05932691      27.25362757
Si       2.29463188      31.24579250      26.54110448
Si       3.86871797      31.33925249      30.24584513
Si       3.46980108      33.60242705      26.10164653
Si       4.62359761      33.56397877      29.71490211
Si       5.95178268      33.46729604      25.80241500
Si       6.40132908      35.30405059      24.51621140
Si       8.00082414      30.99547622      38.98140154
Si       4.74854087      32.55964472      38.10408437
Si       6.18283681      28.41833361      36.00105217
Si       9.26461536      30.19700784      34.48704801
Si       6.90166291      30.50223375      35.14633450
Si       9.82640303      32.52736183      33.84176373
Si       5.46650737      31.63123854      33.69654560
Si       6.84722057      32.04188750      37.17293908
Si       6.30358470      33.86444229      33.24896355
Si       7.86100850      34.14481587      36.84264240
Si       7.83979514      30.33584091      30.62250777
Si      10.45546829      32.63455072      29.17662400
Si       8.38465676      32.55944762      30.25849457
Si      11.53295742      34.72466770      28.69142481
Si       6.68914914      33.13443942      28.77239329
Si       8.45965135      33.77825914      32.29057601
Si       7.56171697      35.35028329      28.19454751
Si       9.22723086      36.11846207      31.73895224
Si       9.85722268      35.34060317      27.26286574
Si       9.97616085      37.67539770      26.93630996
Si       8.23742751      33.46191458       1.01562862
Si      10.09117354      30.83383179      38.01170151
Si      10.87440432      33.00910320      37.54646741
Si       9.90166603      34.00424322      35.74254451
Si      10.68623095      36.15308742      35.17141745
Si      11.74687227      32.41748915      32.51963935
Si      38.38392892      32.77729823      30.26520843
Si      37.65043321      36.04179610      28.14214837
Si       1.76654486      32.62131375      33.24552312
Si       2.70537386      34.78588076      32.66441492
Si      38.57471997      33.40634015      32.43742087
Si      39.06830485      35.62087215      32.14893673
Si       0.89882035      35.36404465      35.07530142
Si       0.48802670      32.46626639      29.56103030
Si       3.30947204      34.77717230      28.09096554
Si       1.24226901      34.64486856      29.09920807
Si       3.97182013      37.07337199      27.58156845
Si      39.82848929      35.76209827      27.66249085
Si       1.20891723      35.72615429      31.19688411
Si       0.55531661      37.77816793      26.81098266
Si       1.61229842      37.96838649      30.85535948
Si       5.49853572      34.49050174      39.42979986
Si       3.29254392      33.44135291      36.58936996
Si       6.49413131      35.21514675      35.23001959
Si       4.40449199      35.33079732      36.17722082
Si       7.17791661      37.48186637      34.71511363
Si       2.97860752      36.07968261      34.53762370
Si       4.56512053      36.37786312      38.34099619
Si       3.54713713      38.28104384      34.26327167
Si       5.39554487      38.53120894      38.09024137
Si       4.81571131      34.86500113      31.68798860
Si       7.51605231      37.00938175      30.17589412
Si       5.38884329      37.18319438      31.21970487
Si       7.87801473      39.37737436      29.68433496
Si       3.71102849      38.24066479      29.72545892
Si       5.62354150      38.53686913      33.26191713
Si       4.01524102       0.62897742      29.54234235
Si       6.05665845       0.99281958      32.83110224
Si       6.23640646      36.51621238      26.59951379
Si       6.01329272       0.42451000      28.33358483
Si       7.85796719      34.92258513      39.22246034
Si       7.32183928      38.78694293      36.72743753
Si       9.25795351      37.46731631      33.58986245
Si       8.01782753       0.98792747      31.62278031
Si      10.12562109      38.46979417      29.17468006
Si      39.39209400      36.82467845      34.16833511
Si       0.04745074      39.04302036      33.74951984
Si      37.81715965      36.58088065      30.42401648
Si      39.31014064      38.53011407      30.33317259
Si      38.57164011      39.83312675      32.16514942
Si      38.72317088       2.09262547      31.60312319
Si       3.67274023      39.08530560      36.49343977
Si       1.56590327      39.27365383      37.34994121
Si       4.09835725       1.14724123      35.80220074
Si       0.35876890       0.48501447      35.47417767
Si       2.03552871      39.26668269      32.74098079
Si       4.41817970       1.87822709      31.50106466
Si       2.31795044       1.67828670      32.47800230
Si       0.81228462       2.79391951      30.83587624
Si       2.10293913       2.02065304      34.78730685
Si       6.65993397       2.82914016      34.35030249
Si      21.68942803       3.15690313      31.05986329
Si      25.60825800      37.74864475      37.09010246
Si      25.78487798       2.07592350      34.36903539
Si      23.45526562       2.79663035      34.33958616
Si      24.86197346       2.01497976      37.73921583
Si      22.19874605       5.39197429      30.79520092
Si      23.45684455      35.54802065      35.96844561
Si      21.88556864      33.62143105      37.79504727
Si      20.37643382       0.37743403      33.07271698
Si      18.64837568      36.97028393      35.30917720
Si      20.27412733       1.88664394      28.39332047
Si      18.58396934       2.86322339      29.81826552
Si      18.52838473      39.80686205      31.71498360
Si      15.17432900       2.05229153      28.50555732
Si      16.72949788       1.56658056      32.42696937
Si      15.63913004       4.42126548      28.51829541
Si      22.47171867      33.65932940       1.59329536
Si      24.87928837      37.63625203      39.67320917
Si      24.27079306      35.50129346      39.34729996
Si      23.18036759      39.11888278       0.00432781
Si      22.46485585      35.70506492      38.01619106
Si      20.50261711      37.01182576      38.63439137
Si      21.73549427      36.13964020       1.96207546
Si      23.55519366      37.90256689      35.80836854
Si      22.93845299       1.70495137      36.38690622
Si      21.96273302      39.50121940      36.49196111
Si      21.38491864       3.11938473      37.22407209
Si      19.98334876      39.25078276      35.19190942
Si      21.30421888      39.16444431      38.68599478
Si      18.32610383       0.88041674      36.12313361
Si      19.91569861       0.86008083      39.63321050
Si      21.44047398       2.37946192      33.17059785
Si      19.76884803       3.58153563      34.05090147
Si      18.04654227       3.48178399      32.24584791
Si      19.22842093       2.93197230      36.14304183
Si      17.51621996       4.47463633      36.65495169
Si      24.55561158      38.41226540       3.16733701
Si      22.56159989      38.48075651       2.08198813
Si      21.09381727       0.19082397       3.20451753
Si      22.19221730       0.41513286       6.75872128
Si      24.32650377       1.09142725      39.93912156
Si      23.31253716       2.78493560       1.13594631
Si      21.50279814       2.89632612      39.53071897
Si      22.25186273       2.46016906       3.18503960
Si      17.60543785      34.78118644      37.04908222
Si      15.83153150      31.67500211      39.60157836
Si      17.00624524      37.69578542      33.67425736
Si      15.55276626      39.21645912      34.74791545
Si      15.87798695      35.50820919      35.79729862
Si      13.19240363      37.06109370      33.07761546
Si      14.14786529      36.59245370      36.80838626
Si      14.65749635       1.44736051      30.74727370
Si      14.38636224      39.11322190      30.87929323
Si      13.16509174       3.74418359      32.09237254
Si      13.74383150      39.25984722      33.25479791
Si      10.55590013       0.42615819      30.42480602
Si      11.81968042       0.40793692      34.20190128
Si      10.96553941       3.80165845      30.06241241
Si      20.85391176      33.67104700       4.31590049
Si      17.88151353      32.33943611       3.27936724
Si      21.01523664      32.88616421      39.84764522
Si      19.83894155      36.31972924       0.72281120
Si      19.15997453      34.10281765       0.44717062
Si      18.40711207      37.76587272       1.89964921
Si      17.07476761      33.85545939      39.35354030
Si      19.19803412      33.96588066       2.70222707
Si      15.53283820      35.45494692       0.42820394
Si      17.25746301      34.52590183       3.69392217
Si      18.40337220      36.90163323      37.53531415
Si      17.87619865       0.70957092      38.43938719
Si      16.94311683      38.50595455      38.39135084
Si      16.32601631       2.33315912      39.44781963
Si      15.02474431      38.67330974      37.01672050
Si      16.56174030      37.58422328       0.51317582
Si      13.40837733      39.91079283      38.21032358
Si      15.03955041      38.88842304       1.47750339
Si      16.33747693       1.29045733      34.81682315
Si      15.26322288       4.58884583      35.80212286
Si      14.47004546       2.52652544      35.89807360
Si      12.69635721       2.56077242      34.27870839
Si      14.12287276       2.12555652      38.42814923
Si      10.90745980       4.02467671      34.60097784
Si      21.69618329      35.91568999       4.18858435
Si      20.70569735      39.17825250       5.39741826
Si      20.18428153      37.02946961       5.27166004
Si      18.06874904      36.71326774       4.13552596
Si      19.27848287       0.11522599       1.80394268
Si      17.91244749       1.77677962       2.69665251
Si      16.79982617       4.42666662      38.77673675
Si      13.87650067      31.64094500      38.54553836
Si      12.71978008      33.72349238      38.87102955
Si      12.97788484      35.83450478      34.94169919
Si      11.03951387      37.53912552      36.99489807
Si       9.82274361      39.83192881      32.74237370
Si      17.38209656      32.10495092       5.44852457
Si      16.13124560      31.89388637       1.94283374
Si      15.09284555      34.54849761       2.82540568
Si      13.37784537      32.95382862       3.33044043
Si      13.61301128      35.73924664      38.87490368
Si      11.59752271      39.79775607      36.72710224
Si       8.87236545       3.54684434      33.46572879
Si      13.17511818       3.93641092      25.18656750
Si       9.23615313       1.55711780      27.72532648
Si       7.89065954       8.55912712      15.94915759
Si       7.79129347       9.09229849      18.22959235
Si      11.06418238       4.91228220      20.66927751
Si      10.49013317       6.70998428      19.33184426
Si      10.47443752       5.95182254      22.87780943
Si      11.57933725       8.67236311      20.06663946
Si       8.24692068       7.37722775      19.77885066
Si      11.10006975       9.78415521      22.11626981
Si       7.80885491       8.56747247      21.75068975
Si      14.19404797       7.88579599      23.05925522
Si      11.73349769       8.00340487      23.59755903
Si      10.98696082       8.89905770      25.78035764
Si       6.43075494       4.46286049      26.53950012
Si       8.14662281       6.69012534      23.01107445
Si       7.48915102       7.59897855      25.25020831
Si      10.94449267       4.44842533      24.64909042
Si      10.69964856       3.30743039      27.81778485
Si      10.22980063       5.29402717      26.71400605
Si      11.46014851       7.23866133      27.44816515
Si       7.97903779       6.02959434      26.97860631
Si      10.57105275       7.56963290      29.63902485
Si       7.35276606       6.75502988      29.22106066
Si       4.19355869       5.18292050      29.25607649
Si       4.68087665       4.25244449      31.33613564
Si       7.01760819       5.30428347      31.21372510
Si       5.79421420      10.30740054      18.71769052
Si       4.44363254      11.41175407      17.33060618
Si       4.67274424      10.77212702      20.63746473
Si       7.87554674      11.34844536      18.85523676
Si       8.91507255      10.49900245      22.24954119
Si       8.29160787      12.29554385      20.86421137
Si       8.40105521      11.30277134      24.33825226
Si       9.74199756      14.38081455      20.89742493
Si       6.06210978      12.85178670      20.95593559
Si       9.31379193      15.22462329      22.94995373
Si       5.76605352      13.53832586      23.00847338
Si      12.12016569      11.93449146      22.47305487
Si      12.22794548      10.85256124      26.23149639
Si      11.82613614      12.83555635      24.83514016
Si      11.68613047      11.72679058      28.27796374
Si       9.56906306      13.35120988      24.62446153
Si       8.81173577      14.15113007      26.64269983
Si      12.43834898      13.91455512      28.34834036
Si       2.23066101      10.87206614      19.93862794
Si       1.96065180      12.51455017      22.74196932
Si       5.44616564       8.73736430      21.92376062
Si       5.20603311       8.22642499      25.30075947
Si       4.96325989       9.94397080      23.77867787
Si       4.73170964       8.96320045      27.54018178
Si       6.15158849      11.79379866      24.39179043
Si       2.74362178      10.30309764      23.21266022
Si       5.22786491      12.52650898      26.35454935
Si       1.73027979      10.30861477      25.34437147
Si       8.73256756       9.54119210      25.85643000
Si       8.56197511       8.67689852      29.65686369
Si       8.15577014      10.40816267      28.01469204
Si       8.10432996       9.37587343      31.80521759
Si       9.40075394      12.43787039      28.24007421
Si       5.86792150      10.99758807      28.17890943
Si       8.94718878      13.75976586      30.06041829
Si       5.27360992      11.74130743      30.62495797
Si       1.43332316       7.58261584      27.70241756
Si       1.19242061       6.31667159      31.65464089
Si       2.54784443       9.48046309      27.30393994
Si       5.16817106       7.30236164      29.16062197
Si       5.77746259       6.64379134      32.95293958
Si       4.64125970       8.03595337      31.36663717
Si       5.85351268       9.95621291      31.93081070
Si       2.39960230       8.37479796      31.82928687
Si       5.65479783      10.36900707      34.23161018
Si       6.96287778      15.54715806      22.99396364
Si       6.11942422      16.23903597      25.37305021
Si      10.32755222      17.64327126      22.84773481
Si      10.10484414      16.22571912      26.49560378
Si       9.55079478      17.96437614      25.02863227
Si       7.56394982      17.84464412      26.33750695
Si       3.65474956      14.01858871      22.29129252
Si       2.72897728      12.73055668      25.97417447
Si       6.40506117      14.49087928      26.85235142
Si       6.68066694      13.75410736      30.71059505
Si       5.42495909      14.91188330      29.02913804
Si      21.43405758      29.67093506       3.21432311
Si      24.04643064      36.46872197       9.55927956
Si      26.70579568      33.86925040      12.46415831
Si      20.96572900      36.14631151       7.22695667
Si      22.30781736      32.15680037       3.52085086
Si      23.18468673      35.09230616       7.77869630
Si      23.64079023      37.11245342       4.95695468
Si      24.90014302      34.14692298       6.45260627
Si      24.56288148      33.79071751       0.83828322
Si      25.56325950      32.46374600      11.03106759
Si      26.95767174      32.14489667       9.22442695
Si      28.99978331      29.45752483      11.15018675
Si      22.45292953      31.31352362       8.51068840
Si      23.50623192      28.44762950       5.84893018
Si      24.11438038      30.54006002       6.93075247
Si      25.07362435      28.33687042       3.85948830
Si      24.22454703      32.18662432       5.24171560
Si      26.18869952      30.24578682       8.01060894
Si      25.95169770      31.86240566       3.73278498
Si      27.84019708      29.80369120       6.29967942
Si      25.16166946      30.09330138       2.25671622
Si      26.84050875      29.47037802       0.77951340
Si      27.97508135      28.34546518       9.55363894
Si      29.76308486      27.40555156       8.56485013
Si      25.47912752      25.50879119       4.36877929
Si      26.89545742      26.34135755       6.00145435
Si      27.17814370      28.20457868       4.85726845
Si      28.78790398      24.60785810       6.22719700
Si      28.65855944      27.58366395       3.31397280
Si      30.80175064      25.16700146       4.93653362
Si      27.33913822      25.81947025       2.61876121
Si      30.59649506      23.33203339       3.38257060
Si      31.72445903      23.01596206       1.21173489
Si      28.99048348      35.84129256      14.46345746
Si      26.39661523      36.01054845      11.23312475
Si      28.06181627      35.89947339       9.31422082
Si      26.87152604      39.39140563      10.86353754
Si      29.69436699      37.72192637      13.29373330
Si      29.09093394      39.82847997       9.59252994
Si      31.21378981      37.12872138      11.66743010
Si      25.21176034      38.47796458       8.90846519
Si      24.75909905      35.28909799       4.49430073
Si      26.58177865      38.32595511       6.80913874
Si      26.59756933      35.84841636       3.33304653
Si      26.22095058       0.33734838       5.47960066
Si      28.52214501      38.08260363       8.08260619
Si      29.84954272      37.70136532       6.18506233
Si      26.20768984      37.45037900       1.72746234
Si      29.34443374      31.61953842      16.11007774
Si      30.64966497      30.81701317      13.49388695
Si      32.42053291      34.68915246      14.19991028
Si      28.80459484      33.85117659      13.24577247
Si      29.09053991      31.63158803      10.23249590
Si      30.17059363      33.38011882      11.49684935
Si      30.68103373      31.10286520       8.50832968
Si      30.29093438      35.35089925      10.24178515
Si      32.08815770      32.65692464      12.70376015
Si      31.79934555      34.77839500       8.49420121
Si      33.70260688      32.21646417      10.76102658
Si      27.14634077      33.99780654       7.78080744
Si      28.11009643      31.53482568       4.77071599
Si      28.81823408      33.20977053       6.29657277
Si      29.76704006      31.12713669       2.99012581
Si      29.36486660      35.05618844       5.23875378
Si      30.99640716      32.93168656       7.15143392
Si      30.67322412      34.85533905       3.33779661
Si      32.58955172      32.46823948       5.37118998
Si      26.24223686      33.77418458       2.40518192
Si      27.84956951      33.72092418       0.86982794
Si      29.92216613      33.22388901       1.80479521
Si      35.58138623      29.71760936      12.91149240
Si      30.94878250      28.98686768      12.18906710
Si      31.75360585      26.86506048       9.68994757
Si      32.57429168      28.76167601      10.66656213
Si      33.30220057      26.48384555       8.01792453
Si      32.82033757      30.59424964       9.31449367
Si      34.20302050      28.19391381      12.13706172
Si      34.26403305      30.06557176       7.47390561
Si      29.95678668      29.27864186       7.16698143
Si      30.74508134      27.24678749       4.10574161
Si      31.52923118      28.87628805       5.47768328
Si      32.06108425      27.51516974       2.29069953
Si      31.86860503      30.65037228       3.96554270
Si      33.58999029      28.15421774       6.36226362
Si      35.41386129      27.44407329       4.74383250
Si      28.92107634      29.21111163       1.73810608
Si      35.48491871      26.71747876       9.00899543
Si      32.58637771      24.71796095       6.55265291
Si      33.78057818      22.96763965       3.15831297
Si      34.58454247      24.11070105       5.11114306
Si      34.93217020      25.68390139       3.31334026
Si      31.23893320      39.15295850      10.44666321
Si      31.62341874       1.18649234      11.72828586
Si      32.91974545      38.46271745       8.82107854
Si      33.02764144       2.83616810      10.97040183
Si      35.55484369       0.05213173      11.52193956
Si      29.79942854       1.78975556       8.21043367
Si      30.66730470      39.43441432       4.89641033
Si      31.31400788       0.94937906       6.60991251
Si      32.32653165      39.17059043       3.25486536
Si      33.23811037       0.43162573       7.60729033
Si      34.57321703      39.83302080       5.79165736
Si      33.43716460      36.29986771      12.70491035
Si      33.98473123      34.11359891       9.39228438
Si      34.93327524      35.60187690      10.95915135
Si      35.61380501      33.65741578       7.60030462
Si      35.12830997      37.79874298       9.85745870
Si      37.14449499      34.46282937      11.80951732
Si      36.57205032      37.31937730       7.93385526
Si      38.74465062      34.50394100       9.99931755
Si      32.02128741      36.74171076       7.20742142
Si      32.88969232      34.37358750       4.09540230
Si      33.68342240      36.17202650       5.49877371
Si      34.35970151      33.41757867       2.45707585
Si      34.02985834      38.17375129       4.38302421
Si      35.90203743      35.62241881       6.29358158
Si      35.72962946      37.94902085       2.87308821
Si      37.87059940      35.53635734       4.43845594
Si      30.66309228      36.39037041       1.57523654
Si      35.82843676      31.15313359      11.17793557
Si      36.18572133      29.02897628       8.05312965
Si      37.30774147      30.74082343       9.26879888
Si      38.02320370      29.00710304       6.66447210
Si      37.77246299      32.92231741       8.40382231
Si      39.18635265      32.78047320       6.50761196
Si      34.72792301      31.94707878       6.18282652
Si      35.49109367      29.28964202       3.43529131
Si      36.27213380      31.28697442       4.47772380
Si      38.35672893      30.89391416       5.34663815
Si       0.37643903      30.43723941       4.16142766
Si      37.83015286      27.21620529       5.22955087
Si      35.62696336       1.91525016       9.86098697
Si      36.73339681       3.55078209      11.04108908
Si      37.44603345       1.45357444       7.44749870
Si      38.69009617      36.60844587       8.69555242
Si      39.04666099      38.59398159       9.87227456
Si       0.45376474      36.22640213       7.13013436
Si      39.55710959       0.60218696       8.47130552
Si      36.64504817      39.36024628       6.76027727
Si      37.90784170      37.62764472       3.56386506
Si      38.28232714      39.16180987       5.08872085
Si       0.65567983      38.16730312       5.68200194
Si       2.68547963      37.84865075       3.80894079
Si      39.82684348      34.72624659       5.46156645
Si      18.17558703      22.20897232      20.82264527
Si      17.98222889      22.47372206      18.48069839
Si      18.23525692      24.38755491      17.20433066
Si      17.25876179      24.66388142      15.13589353
Si      17.25261874      26.59089916      13.79707610
Si      17.87023771      27.81014178       9.97793553
Si      17.68299444      24.48718534      21.37079341
Si      18.41631452      26.24583671      20.16021869
Si      18.10933351      25.21764340      23.67523514
Si      18.27096271      27.61984444      23.64998571
Si      21.29754757      26.16520723      22.17872312
Si      17.45306807      27.99244833      21.50722098
Si      18.31329998      29.70950662      20.36637869
Si      20.37818104      24.03661566      16.67215376
Si      21.65257672      24.09839868      18.70065579
Si      20.76410286      26.07630006      15.52170114
Si      20.78664871      26.05788443      19.92787556
Si      21.52670079      27.97852901      19.05289773
Si      17.37544335      26.25426944      18.16695407
Si      16.91881630      28.37152216      15.08641149
Si      18.14331270      28.10596737      17.03729088
Si      17.49063751      30.07947327      13.63510976
Si      17.12883179      29.73549856      18.27021335
Si      20.49899788      28.03170357      16.84588276
Si      17.65366945      31.74368882      17.02348306
Si      21.01252178      29.97963639      15.63322815
Si      16.39997040      31.96392887      14.72741992
Si      16.97522439      34.02043028      13.90607653
Si      22.96619693      25.61379690      15.15969468
Si      24.61559364      28.75581943      14.66425292
Si      19.57050600      26.34113908      13.43026697
Si      20.16274386      28.35836552       9.76618093
Si      20.85127052      28.16349369      12.19747830
Si      20.28009150      30.48532040       9.00454294
Si      19.90270790      30.01725719      13.49679128
Si      23.53050461      28.51915835      12.58671313
Si      20.36521058      32.02883388      12.45106835
Si      24.31760241      30.26861986      11.19412313
Si      16.69818312      29.64679890      11.43068478
Si      15.35738781      32.54855331       8.30370598
Si      16.84797084      31.92446563      10.37850553
Si      16.17849742      33.85184171      11.72684153
Si      19.22971336      32.10384378      10.33381251
Si      16.79332676      35.93019907      10.83722373
Si      19.92017632      34.12061685       9.52617053
Si      20.85647570      30.91688660       6.84751537
Si      19.64007319      32.67309265       6.09149258
Si      19.11929263      34.46943965       7.46906428
Si      20.53166311      27.78478186      23.59832949
Si      21.44567556      29.79035739      22.53758880
Si      22.29972529      31.99672303      25.64268555
Si      25.07018282      30.36032209      24.23480513
Si      17.73132346      29.33937029      25.30726235
Si      17.15590015      31.05225693      21.76079393
Si      17.61678603      31.25681427      23.99886709
Si      17.79271949      33.23963112      20.73694673
Si      20.71616985      31.46606341      24.12071840
Si      21.62097286      33.15840815      22.72585955
Si      16.72585801      35.40180091      21.58679366
Si      23.88349807      27.55780500      19.24525763
Si      25.08682382      28.91303941      20.60110027
Si      24.39191349      29.98785776      17.43117760
Si      23.88135855      30.11325514      22.14550799
Si      28.14166164      28.66202720      21.27902971
Si      25.04089615      31.77592577      20.62288542
Si      27.11073952      29.99048997      19.75829441
Si      20.62874464      29.76655859      20.32020673
Si      20.21075065      31.74351432      16.93197566
Si      21.14374130      31.67258130      19.13217138
Si      21.45194009      33.32285429      15.62058645
Si      20.45682509      33.34664379      20.55523156
Si      23.41541020      31.75894159      18.87145981
Si      20.62008817      35.50824347      19.71304219
Si      24.15082724      33.85564691      17.92812259
Si      16.92874490      33.36420431      18.53605521
Si      16.32980771      35.97741874      15.44975557
Si      17.27167179      35.53085326      17.79140560
Si      17.03875283      37.83307063      14.25950511
Si      17.21602131      37.40186411      19.24348809
Si      19.43646735      35.39969904      17.61840166
Si      20.30033262      37.41590676      17.05261931
Si      27.10176434      29.06329211      14.38432558
Si      27.65284082      28.25225474      16.43066256
Si      28.19954608      31.10421985      14.03805790
Si      26.68939167      30.02537190      17.52660271
Si      27.23877838      32.11243563      16.67462710
Si      23.38461366      30.41646721      15.47148320
Si      22.82937153      32.04450860      12.14189111
Si      24.12978455      32.08437068      14.20315751
Si      23.54136731      33.93721588      11.04407783
Si      23.73076910      33.75672271      15.60011566
Si      26.34850918      32.69165096      14.44536346
Si      23.89659086      35.95107067      14.77274100
Si      19.30321060      33.93512171      13.62620349
Si      19.17294148      36.15628093      10.60572245
Si      20.33836273      35.77953209      12.63737268
Si      19.80589742      38.32509976       9.54031504
Si      20.24862900      37.33217123      14.34138516
Si      22.65907530      36.03406954      12.67914535
Si      15.94052742      37.70105720      12.13639670
Si      22.25796358      33.58724893       9.16878765
Si      21.92483354      37.73728721       9.02272168
Si       3.59854052      34.35345032      19.07045315
Si       4.31585640      38.14199962      18.49012311
Si       4.53043705      35.57043560      23.19525646
Si       5.00725424      35.44152871      20.84853269
Si       5.74420808      33.48649283      20.06898585
Si       6.96030591      36.64669668      20.45328236
Si       6.58936534      32.44667365      18.25822090
Si       8.25106032      35.69623750      18.59223341
Si      10.91408720      38.99471472      18.92021937
Si      37.77237490       1.37793585      12.81017815
Si       0.27270318      38.79333265      18.28084538
Si       2.11205099      36.72736277      15.81797173
Si      39.49365976       0.38341430      14.09710698
Si      39.52863813      36.60285380      13.42163355
Si       1.34301141      39.43263958      12.97181565
Si       2.99278338      32.13625479      18.13247661
Si       2.92149523      31.17108005      15.87927784
Si       1.07192921      35.20657640      14.40380348
Si       2.42828866      34.33791863      12.77180099
Si       3.22075395       2.41945596      13.58667549
Si       5.93524615      39.33795385      17.15213947
Si       4.30547019       0.23877299      15.79405118
Si       7.60607430      38.35346453      15.84226812
Si       3.01756472      38.55358145      14.52781244
Si       5.33576299       1.74547538      14.36941847
Si       4.70636321      37.54718384      13.22478062
Si       6.75217446       0.86591462      12.75699814
Si       3.81538908      36.01066833      17.37314096
Si       7.11484177      34.27774668      17.01644002
Si       5.26334426      34.99143216      15.81576335
Si       8.88550039      33.39633370      15.76752734
Si       3.97605574      33.04917402      14.43075932
Si       6.41914842      36.64154082      14.55098390
Si       6.00712665      32.12031062      13.59388628
Si       8.05543110      35.66197702      13.15425101
Si       4.90133009      30.89237122      18.52978055
Si       8.00480118      31.49475243      14.75554033
Si       8.73384196       3.09198361      13.06769616
Si      12.03012482       0.77909537      17.18131615
Si       8.92246192       1.85750576      15.62416174
Si      13.02571316      39.60918986      15.19171436
Si       8.46489535       0.02745486      14.20247166
Si      10.63944589       2.95508876      14.36774940
Si      10.03273662      39.20693388      12.60952489
Si       9.33709068      37.50611285      17.39653482
Si      10.71052304      36.74225361      15.64342395
Si       9.85972688      34.91590396      14.43015138
Si      11.74004875      38.28964315      13.94690674
Si      13.82819860      37.23671781      13.27976213
Si      14.36677340       1.39126796      14.09470663
Si      38.95059946       3.11394777      11.59348153
Si       0.50907370       2.06133171      10.16413787
Si       0.56204226      37.80963791      11.47243921
Si       2.51771699      37.04180818      10.11233576
Si       3.40460802       3.93971995      11.89436322
Si       2.25296262       1.08982016      11.72162611
Si       5.64759458      39.10238835      11.78502553
Si       4.08703671       0.30975908      10.53177802
Si       7.19157795      37.93630918      10.43771713
Si       3.68182316      38.80302870       8.73554401
Si       5.32948212      37.17278831       8.13552891
Si       3.80796131      35.90359086      11.79330312
Si       7.11006844      33.60305259      12.09222774
Si       5.33384437      34.33729919      10.85420301
Si       6.59999125      35.87106075       9.67805797
Si       8.37497715      34.76789994       8.48224210
Si       8.97679174      37.38252994      11.73890688
Si      12.73885414      35.62579126      12.13641508
Si      10.72903504      36.57258130      10.56780490
Si       8.71199096       3.41865202      31.22485484
Si       8.41497460       8.88813561      35.51296996
Si      12.16588109       5.52349991      33.14467317
Si       8.72743343       7.82865570      33.58017068
Si      10.76329682       8.92798427      33.32711481
Si      12.57312707       7.39231610      36.21470834
Si      13.80852249       7.41540014      27.36834828
Si      11.74553296       7.57439476      31.70816779
Si      13.61581195       8.76180167      30.93998863
Si      13.86207035       6.08896440      34.71924606
Si      15.83397649       6.91911846      33.83272856
Si      15.04326987       5.25731920      30.61755676
Si      14.88378854       7.47422638      29.52173296
Si      16.77876556       5.48632374      32.14931709
Si      17.31208024       8.08556960      29.01006426
Si      18.81093493       6.50620082      31.74865157
Si       7.54098867      11.15229813      35.21578042
Si       9.12459667      12.42073963      34.40198040
Si      12.20041995       9.33900953      35.12992813
Si      11.49686755      10.94807493      36.67289034
Si      14.14675557      10.48803155      34.40344923
Si      10.90178680      12.90515613      35.72484458
Si      12.50394715      14.04495292      34.57243488
Si       9.82879880      10.99206670      32.54169738
Si      13.11399889      10.98084816      29.96840005
Si      11.85701248      11.80758484      31.65023581
Si      15.24222666      12.16169263      29.44588995
Si      11.10747896      13.69894079      30.86558621
Si      13.37888896      12.69064902      33.09280484
Si      15.45394270      13.49144917      32.61401225
Si      14.92326491       8.84513638      32.86463953
Si      18.46865733       8.66212651      31.06827237
Si      16.79854963       9.97694859      32.22627755
Si      20.81300761       9.58075343      31.27949468
Si      16.55612785      12.04423383      31.24191942
Si      18.71081765      12.81864535      31.17364019
Si      15.04740825      15.68406845      31.87277201
Si       7.50066822      21.23554405       7.58320048
Si       3.92815198      16.66604608       8.22019335
Si       1.45121920      17.02173315       5.88774342
Si       2.36668042      16.49275883       9.96509631
Si       5.56560874      18.55497722       8.22145371
Si       0.85567609      18.13964195       9.83054954
Si       3.79207654      20.11607634       7.30958996
Si      37.81924198      14.87696669       6.51936962
Si      38.16445167      15.71644194       8.51295346
Si       0.11596595      16.95016806       8.10221662
Si      38.04460100      18.12276629       8.07152146
Si       5.82789979      23.41123625       5.06244692
Si       2.19750831      19.19911130       5.42379505
Si       0.25179808      20.50059718       5.44324105
Si      39.89088759      16.31850343       4.05538712
Si      38.12309774      17.75022629       4.11632724
Si      37.29956372      17.21205547       6.13258461
Si      38.90330129      19.77058463       3.62425660
Si      35.21405552      18.09017702       5.71066385
Si      36.62175660      20.94560462       3.60518219
Si       7.58501528      23.48164647       8.38960166
Si       5.33511770      23.93580171       8.70011482
Si       2.27700460      20.00908205       9.39576025
Si       3.70210232      19.87965586      11.24682480
Si       0.76870434      21.73250209       9.42824470
Si       4.07403161      23.15014124      10.53157243
Si      11.87977176      27.84144010       8.18579785
Si       5.90069722      25.71194948       4.82249405
Si       7.34796692      26.35600495       6.60175890
Si       3.37555076      25.81993255       4.69970365
Si       6.04053261      26.27079329       8.74615644
Si       7.48218266      28.54903868       7.04470638
Si       4.55593826      22.62414210       6.87293339
Si       1.19933826      22.52377958       4.71275709
Si       2.54884113      23.64793252       6.56430351
Si      39.23099366      20.39976537       7.61670522
Si      35.53139064      20.49120005       5.81956819
Si      37.04938401      21.23409150       7.60613778
Si      37.71414874      22.92991943       2.56634802
Si      34.77073251      20.80847069      37.09715604
Si      38.62677981      20.03906962      29.84080374
Si      36.72245275      19.00459382      33.64504748
Si       2.78217671      17.82694498      27.67650281
Si       0.88499568      16.82450040      26.74653432
Si       0.19532754      18.36199942      30.90353870
Si       3.02047130      14.48055436      28.83146366
Si      39.41799964      16.09769538      29.89434918
Si       2.45441948      15.04615891      26.66106213
Si       1.21712766      13.67472790      24.49738421
Si      34.52405940      22.20737374      34.88271819
Si      33.58315574      20.26045409      33.95788054
Si      35.13255798      21.54053155      30.70252564
Si      36.62049800      19.64617359      31.12379788
Si      33.33007064      20.74509152      31.79224126
Si      35.87515807      17.65553900      30.03182612
Si      32.62716722      18.97719623      30.40213273
Si      38.93725102      16.66505833      27.67437781
Si      35.58876325      18.33769189      27.75854076
Si      38.08293810      14.77557956      26.00908296
Si      35.16628134      16.39846186      26.36380315
Si      32.41614001      20.47793123      27.35437000
Si       2.28369960      10.46001725      34.90629204
Si      37.91951299      16.89970334      33.96584541
Si      37.99895096      16.29005291      36.29746314
Si      37.03454634      14.85903208      32.76192819
Si      39.51674083      14.26673122      36.53814534
Si      38.59325056      12.36443602      35.27102510
Si       2.32120204      14.55309677      32.64471722
Si       0.81728758      14.01815510      29.90656472
Si       0.79001442      12.91374744      32.03336114
Si      39.69559136      12.37764273      28.50712715
Si       2.12678722      10.83491188      32.56125602
Si      38.46637070      12.76216745      32.91499623
Si       0.85276697       9.72638209      30.98116278
Si      37.38458886      10.94363189      31.61432054
Si       0.91304776      10.40381782      28.79355242
Si      39.54211959       8.81234479      27.75959870
Si      31.29138166      20.19574555      34.55298128
Si      30.12508838      18.32096255      33.78179723
Si      34.66869117      18.28068058      34.48116260
Si      33.71448673      17.04931248      30.73689687
Si      33.78576746      16.57725326      32.94535085
Si      32.55344790      15.52521472      29.32623973
Si      34.48620352      14.38216825      33.22767848
Si      31.59715250      16.55793069      33.36772661
Si      33.70124660      12.75361878      31.77773991
Si      37.13532088      15.60354410      30.45847164
Si      36.01694869      14.29620755      26.81180458
Si      36.12578832      13.80837408      29.11910764
Si      34.99026269      12.55363893      25.51080348
Si      37.42973559      11.79725172      29.37471911
Si      33.80225771      13.51262008      29.62408193
Si      36.27224312       9.98200549      28.26446283
Si      32.76178475      11.74452889      28.51367281
Si      39.39818822      12.91311293      26.17142021
Si      38.74962770      12.00580528      23.13459346
Si      38.25896503      11.08005750      25.19581996
Si      39.47705466       9.21385235      25.52492112
Si      36.11583071      10.49419023      25.95448113
Si      34.83198133       8.81586367      24.66411717
Si      29.04545738      18.66815600      31.77552606
Si      30.10303624      15.56335638      29.88066974
Si      29.35354400      13.41233171      29.50642376
Si      32.94462505      16.51149486      27.22522691
Si      32.82720890      12.32734803      26.26849107
Si      31.82297866      10.89687165      24.80993929
Si      35.02265830      12.42918688      23.09835489
Si      35.02985471      10.00852044      22.72230116
Si       2.80777456       8.11340471      35.23520680
Si      38.86403388       8.96422504      31.74701107
Si      38.30065304       6.99858195      30.48496690
Si      34.93502858      10.72089760      31.79642255
Si      33.98698755       9.76795631      28.78709129
Si      33.21025819       9.04066970      30.82573123
Si      33.13725239       7.98333692      27.54146887
Si      37.51947946       7.93608649      28.48128538
Si      36.78055513       5.94634133      27.44859279
Si      34.44922605       5.83664760      28.15688894
Si      30.58877781      11.46111677      29.52599573
Si      29.49502978       9.72164350      28.37621842
Si      30.95983206       8.01047426      28.46530401
Si      32.63673118       8.73491632      25.23251575
Si      17.32253818      27.60965924       5.38123732
Si      20.51322475      26.63072065       8.19495338
Si      16.30179278      25.87850553       6.73537797
Si      17.21569687      24.02018307       5.75713467
Si      13.20487054      21.54169637       2.03687073
Si      19.06803294      25.36907388       9.86888377
Si      19.65467541      23.44660168       8.47558926
Si      15.50307520      21.52605807       8.65309067
Si      14.58202201      19.27650962       8.03284970
Si      15.64789423      22.45805330       6.47960795
Si      17.82868530      21.89375681       9.32033236
Si      15.72725551      20.65267879       4.92041010
Si      17.97271384      19.88507709       7.93536429
Si      14.35142238      18.98836092       5.76130034
Si      14.80664154      16.77985558       5.09536951
Si      20.62999882      19.12040147      10.66860575
Si      15.35777925      16.38995903      11.99936206
Si      16.42601316      18.41653059      11.26477154
Si      16.12060070      15.00308779      10.35435985
Si      16.47468404      18.17381498       8.77592724
Si      19.75025534      16.73796870      11.40435150
Si      17.14618949      15.94515480       7.61770267
Si      19.85652217      15.03604040       9.95577857
Si      15.47055536      14.08026613       7.67804959
Si      16.45927075      11.94635995       6.82209226
Si      18.09415020      13.78273438      10.20421042
Si      18.57555231      11.52799213      10.23087080
Si      15.82264501       9.57473463       7.15509528
Si      18.30972306       8.29511156       9.64037065
Si      19.69886135      27.45685800       6.12779989
Si      21.31491489      29.08208676       5.44472818
Si      20.41839694      25.63110060       4.81357609
Si      17.40048206      28.11709081       3.03654905
Si      16.28391786      24.33174829       3.51402176
Si      17.03993485      26.06119229       2.23446937
Si      16.88564971      22.55534795       1.89284996
Si      19.46598586      25.98590688       2.68371489
Si      20.06986243      23.13409402       1.19632534
Si      21.60227926      20.80352735       7.63108064
Si      22.81055930      25.08049316       4.68751495
Si      22.91222810      22.78243425       4.00866769
Si      19.42013572      23.73192139       6.02746013
Si      17.89731836      20.04884080       5.55862448
Si      19.46076967      21.69667251       4.87997778
Si      18.36524383      17.98296469       4.47094095
Si      18.96497322      21.79491660       2.64956288
Si      21.64349104      21.10675366       5.17900651
Si      19.54973154      19.73172029       1.53997553
Si      22.17500775      19.06980467       4.09385263
Si      15.40666873      20.86803935       2.53110694
Si      14.49911880      17.20989887       2.73069396
Si      15.83058362      18.86717728       1.43203569
Si      15.05177558      15.89550328       1.03823043
Si      15.70889716      18.96274826      38.55960595
Si      18.04565605      18.09986048       2.11798407
Si      16.81471274      16.97544310      37.92690896
Si      18.66941691      16.05627302       1.00835638
Si      15.00768558      15.77887859      38.78845477
Si      20.10288039      19.19476308       8.35484727
Si      19.54753206      15.43716710       7.77828551
Si      20.91016747      17.25453531       7.16834712
Si      20.03826697      13.33154626       6.86990455
Si      20.63413181      17.47747166       4.87181626
Si      23.20452486      16.73489015       7.70298932
Si      21.12310259      15.44027100       3.85676399
Si      23.59919644      14.58347157       6.70749051
Si      17.00195970      16.23557800       5.28873823
Si      16.13845387      12.31137485       4.59432212
Si      17.33614024      14.23566823       3.97403936
Si      17.10952965      10.44945587       3.42714910
Si      16.85503515      14.49428451       1.58385994
Si      19.67519451      13.75726870       4.59087074
Si      20.51480087      11.95191356       3.47156696
Si      22.99541285      14.81209031      10.00531233
Si      20.89367181      11.25757510      10.71476110
Si      22.57524336      12.41885361       9.71223522
Si      22.37170858       8.72849919       8.56579832
Si      22.31485160      12.76953180       7.39192702
Si      22.89981622      10.92046758       6.19658343
Si      24.74964211       8.73345424       7.77678782
Si      18.60899104      11.55051843       7.65643184
Si      17.61636874       8.00650463       7.33532328
Si      19.23316109       9.53461167       6.47215821
Si      19.31127909       9.92809067       4.17874524
Si      21.46969524       9.05752326       6.55974483
Si      22.13354690       7.00694543       5.31455237
Si      23.62243896       6.16729732       8.83553111
Si      20.48465657       5.42897622       6.27282279
Si      24.72994360      21.70891743       5.11600055
Si      25.73147449      20.19739520       3.69299394
Si      22.35194445      22.56719374       1.17511149
Si      21.81982669      19.07964670       1.68194252
Si      23.15622668      20.54939308       0.37893536
Si      22.44638293      17.04281902       0.67593255
Si      25.32635396      20.53954434       1.34799752
Si      19.15684447      20.10932863      39.33239976
Si      18.93567352      16.60499688      38.73658042
Si      20.24858459      18.45691358      37.89194871
Si      22.45773722      17.43370776      38.30044924
Si      24.44486901      18.55977719       4.68316242
Si      23.36793539      14.93173166       4.38216316
Si      24.90654537      16.59599042       3.73368938
Si      24.17923977      13.07976809       3.23527823
Si      24.64301927      17.03185703       1.48838601
Si      20.84901485      15.35526771       1.53646820
Si      21.09844803      12.93029330       1.26803252
Si      23.40720246      13.09871185       1.08217996
Si      25.74915655      14.09526260       7.29208967
Si      25.17458149      10.46005485       6.27491796
Si      22.63919326      11.17428705       4.02276084
Si      17.70615506      28.39764670      30.73890913
Si      19.35313473      29.60636792      34.10179030
Si      19.41595838      30.66793989      37.30582890
Si      17.21405718      28.61861579      33.99902287
Si      17.59430308      29.61843832      38.42900643
Si      18.04779070      27.21435082      38.57280935
Si      19.55095768      28.29197064       2.30131245
Si      26.32918645      35.61082870      33.42425492
Si      21.39217550      29.44715746      30.84883391
Si      22.89681693      31.19381315      27.82752375
Si      24.31803007      33.37753317      31.18609409
Si      24.01699065      29.16079084      27.86558571
Si      24.71048332      31.09158021      31.55167904
Si      18.29760605      26.87979555      29.00698300
Si      20.14681382      27.46260641      27.73429996
Si      18.73840987      24.81369894      29.79712719
Si      21.89020935      28.19095418      29.01115911
Si      22.57358023      26.08338958      29.27165577
Si      23.34930874      31.86239493      37.99305872
Si      24.66136513      33.94705779      33.40760688
Si      26.10593452      35.68059595      38.05077578
Si      25.50295828      32.08970948      34.87172255
Si      20.70335986      29.39082380      35.83943352
Si      22.24903567      30.86939628      34.83518535
Si      21.33880432      27.24031032      36.33436779
Si      22.99617413      29.90878424      32.65381419
Si      24.05338924      30.81694692      36.11802518
Si      23.85945181      27.63487292      33.40446422
Si      24.78731188      28.76712135      36.90389063
Si      19.66667583      28.59343800      32.04641453
Si      18.55796636      25.82115928      34.99997730
Si      20.17824405      26.39563401      32.92292411
Si      19.01914601      22.04138361      34.45309827
Si      20.83667353      24.97525365      30.87892001
Si      22.05822049      26.31381948      34.29046424
Si      21.45572038      22.68265845      31.25786681
Si      22.50922729      24.00546068      34.72013427
Si      20.04989906      21.18878461      32.58702516
Si      20.81949745      19.05995645      33.17308693
Si      25.10589227      31.99632610      39.56107472
Si      21.31503055      30.86558726      38.77268031
Si      19.94081961      27.51099117       0.14953234
Si      21.91415562      28.76254853      39.61209526
Si      20.90642605      25.55581008       0.99563892
Si      23.01004065      27.53462702      37.90026862
Si      23.10420463      28.92958595       1.66886881
Si      23.54552210      25.29750655      38.32748145
Si      24.27758805      26.87220501       2.02625221
Si      19.47127232      25.98787940      37.08294147
Si      20.08865688      23.77736257      37.91113591
Si      20.82410424      22.60103693      35.86948568
Si      21.90036780      24.20073793      39.38000900
Si      21.67676411      20.30542350      36.05621080
Si      28.33899275      34.46118728      32.70539025
Si      27.83799885      32.28516150      31.77929582
Si      25.65313784      30.00322193      29.66134516
Si      26.43048698      31.30363393      27.47360949
Si      26.75700430      27.10954997      29.90579858
Si      30.41407190      28.18518417      30.59166508
Si      28.05888463      25.92407532      28.39043815
Si      27.22728484      32.31638583      36.39687122
Si      28.25766267      30.19381593      37.07126422
Si      26.47699097      30.95204878      33.12397183
Si      25.55885060      27.70226588      34.90477752
Si      27.38325911      28.78561677      33.73119423
Si      26.02898345      25.44155955      35.35624326
Si      28.17257702      27.77173386      31.67989795
Si      28.90575694      28.54221072      35.61128761
Si      28.42060472      25.45258588      32.32179856
Si      29.54910025      26.47419081      36.33069709
Si      25.25837292      26.51773537      31.75782545
Si      23.27946187      22.95656271      32.68017862
Si      25.06629435      24.13901759      31.72458928
Si      24.15754770      20.88127094      33.21181281
Si      25.85522087      23.37708424      29.55685089
Si      26.77199852      24.19693560      33.44323403
Si      26.59855805      20.01308171      30.94773767
Si      27.60783141      22.01749231      34.21434372
Si      20.46280720      17.85999889      30.96444531
Si      24.47793345      19.32377808      31.46842656
Si      25.64053369      17.64507804      32.78711236
Si      26.60481554      28.97225673      38.42984300
Si      24.96479489      25.12095628       0.08100093
Si      26.47474004      26.57941236      38.86790477
Si      26.33099092      22.83382921       0.62324945
Si      27.60992305      25.53371085      37.06037110
Si      27.96398920      23.33766782      37.15526261
Si      24.18891024      24.27260056      36.32196358
Si      23.49601389      20.34413520      37.66496682
Si      24.78882407      22.16080690      36.98252643
Si      25.61062427      21.08850055      35.11244225
Si      26.59652737      22.06623853      38.40466266
Si      25.64377583      19.30243008      36.74027352
Si      22.76537010      19.39815969      34.16882090
Si      23.46269546      17.19469748      34.63819606
Si      24.38350875      17.40369192      36.86788399
Si      28.42455884      23.89090851       1.76518073
Si      30.28108685      25.60292113      33.86629736
Si      31.19302466      23.56702872      34.50461333
Si      28.26651531      24.40499004      30.04925906
Si      28.24608437      20.87996184      32.18080375
Si      30.11897501      21.56384676      31.00344024
Si      31.51791263      21.90421456      32.77222652
Si      29.66324173      22.42390671      38.25458240
Si      29.46816524      22.37683320      35.72937737
Si      26.78806386      18.44461534      34.72717933
Si      33.63645415      20.65880867      25.46855192
Si      34.21931230      17.10248853      23.19614672
Si      34.12188463      21.84297441      28.48990023
Si      35.45003138      20.68895874      26.92107424
Si      38.83220651      22.53078899      29.00533829
Si      36.97041648      21.77072021      25.50298818
Si      37.43942253      24.54606394      28.90950136
Si      39.29870998      25.50741780      27.98274105
Si      34.18557123      19.36901314      23.66177876
Si      35.33985684      20.33090994      21.73071921
Si      32.55442939      22.44522029      24.54299065
Si      33.86459775      23.68550123      23.06308995
Si      36.32290755      24.15320041      25.46648427
Si      35.25444729      22.63626500      21.25814408
Si      38.12121918      25.27970173      24.30374429
Si      37.26771919      23.82529633      20.57682489
Si      37.15034392      26.31737325      20.61082034
Si      36.59993994      13.76899917      22.03959155
Si      36.16242781      16.55731252      24.12270468
Si      37.99565719      18.17445493      23.68414592
Si      38.35031799      14.32499221      23.49477241
Si      39.98983082      15.61824162      22.38672279
Si      38.95667690      21.50913899      26.81198051
Si      38.37144033      19.17007961      27.37730997
Si       0.80530241      22.56442533      25.76680924
Si      39.83706792      18.48426184      25.39535208
Si       1.67100970      19.53474465      24.24866870
Si       2.86385549      22.26189168      27.09827224
Si       5.20961437      23.59308445      26.33134652
Si      35.58259437      15.86667875      21.67937212
Si      39.04989037      17.57839133      21.52136011
Si      37.23092782      20.43024195      23.41589585
Si      38.69136259      23.72060492      22.38418554
Si      39.19904721      21.51457903      22.46835844
Si       0.67075167      24.31582693      21.50848221
Si       1.32440388      21.71031270      23.59911701
Si       3.71341468      22.93958568      22.83224492
Si      39.84181494      24.84833595      25.77456670
Si       1.65173993      25.96860107      24.96719950
Si       2.98741170      26.54999697      26.69963921
Si       2.28286361      24.97712711      22.93138702
Si       1.48688974      16.16088473      24.01008126
Si       3.31772177      16.33995120      22.65400980
Si       3.69479050      19.11570109      25.22761789
Si       3.87093166      16.80308917      25.73315740
Si       5.65497627      20.05662822      24.58271580
Si       1.81973288      18.09664207      22.48204894
Si       6.80396095      20.15957311      22.41409637
Si       5.40370633      22.30851276      24.35016643
Si      29.33189426      35.22078602      17.95836984
Si      31.40436155      38.33527611      19.91914088
Si      29.61239957      38.10590518      16.52249954
Si      30.55891940      34.54789396      20.90993143
Si      27.12764445      33.97834749      22.82419636
Si      29.74887384      36.48009613      19.92800174
Si      29.39699737      36.54498755      24.29566599
Si      27.61033949      37.33843172      20.73856064
Si      28.35452329      33.18345943      26.36032473
Si      24.68873700      32.75848883      27.85296381
Si      29.04810384      34.50834036      28.09181724
Si      27.68017272      34.92138373      24.86195229
Si      27.24111512      35.31876438      29.26944256
Si      25.75196991      35.96986864      25.69411211
Si      26.17972309      33.41664561      29.88696691
Si      25.61227952      37.71738411      14.68952636
Si      28.05575719      36.40735667      16.56750913
Si      27.24996590      37.78304222      12.61726110
Si      25.92461081      37.35919663      17.10794580
Si      27.69062841      33.52888668      18.41051823
Si      25.75618434      33.93730422      19.60841861
Si      26.05346922      35.52811783      21.33586041
Si      23.83165023      36.11367528      17.30111391
Si      23.97731809      36.52076612      22.25094393
Si      22.17445743      36.99078621      18.62307245
Si      25.50117035      32.32096577      22.90858412
Si      23.67207667      33.13032979      23.97524811
Si      24.19317467      34.34958113      25.86991199
Si      22.15584205      35.48327705      25.51224477
Si      21.91748585      35.40461868      23.14988236
Si      33.29574011      38.12367453      24.99590645
Si      31.47700067      39.47890250      25.75422967
Si      33.22353462       2.48681156      27.92664114
Si      31.42556818       2.81957784      23.60321223
Si      31.48365288      37.15310714      29.85473159
Si      29.84753147      38.08409801      31.10023329
Si      32.14337455       0.37398429      27.73771235
Si      30.42336415       1.29830757      28.87788186
Si      30.91607699      38.57678309      33.41113893
Si      30.13278844      39.45955515      18.35710767
Si      31.74246712      39.76190762      21.70333463
Si      28.20407201      38.24404807      22.92294013
Si      29.56217860       0.13879150      22.61804374
Si      26.21667458      39.20605542      23.98469341
Si      30.16731024       1.16217208      24.56070840
Si      28.05919963       1.32227902      21.25238537
Si      28.28490364       2.11449128      25.72561907
Si      29.94562232      37.77344042      26.31203891
Si      25.65242788      36.40335391      27.99310481
Si      28.30227678      39.11976269      27.43171343
Si      23.90835935      37.66463164      28.96812082
Si      28.88239480      39.87546228      29.74246469
Si      26.77647918       0.34511351      26.04981509
Si      26.71676592       0.75608231      30.72318262
Si      24.72517511       1.00302854      27.24455277
Si      28.17795289      36.33498603      31.16726131
Si      26.58119402      37.48085611      32.22127222
Si      25.10576051      38.61906255      30.94515239
Si      26.30272851      38.89431125      19.02963661
Si      23.08654789      38.13876907      20.63478441
Si      24.51234457       0.01163794      20.41893904
Si      21.24047971      38.74064553      21.75783905
Si      24.88329679       0.63114732      22.63286739
Si      24.66374863      37.51146615      24.32498397
Si      22.59169483      37.89110838      25.45429276
Si      22.95390172      39.17355382      27.43499498
Si      21.34438174      39.30139216      23.96176946
Si      20.21183802      36.56461822      21.94901348
Si      32.34754344       4.02748049      25.41596920
Si      28.70046666       2.33479843      27.95297453
Si      25.30058696       2.35797565      29.46948105
Si      23.88469136       3.52953207      31.26611189
Si      27.60651550       1.54851335      32.82605544
Si      25.99611524       8.86819364       9.84563788
Si      28.44945865      11.87075730       8.33085540
Si      25.43342162      14.55462307       9.54659459
Si      27.23829638      17.00699115       7.10109160
Si      23.23254283      17.66818201       9.89287373
Si      29.80719324      19.80146541       5.49840401
Si      25.05920011      18.05179529       6.89404707
Si      28.01929657      20.65462289       4.20024655
Si      25.21294156      19.75862261       8.39401226
Si      27.03693871      22.22214096       5.96935334
Si      21.73952725      22.52271270       9.19541826
Si      25.45007412      23.78830925       5.78797695
Si      24.51946183      24.92727878       7.67040652
Si      22.82954400      26.22771295       6.87111444
Si      32.66597613      12.75463783       9.78558628
Si      33.67698468      10.14290044      12.15128974
Si      27.70732516      10.91559809      10.29532932
Si      29.78353581      10.13559104      11.07052346
Si      27.45014058      12.51968302      11.86302759
Si      29.74389172       8.91671905      12.98898706
Si      31.84166362      11.56296198      11.52761327
Si      28.66112872      10.40549089      14.37481249
Si      31.21606479      13.27475093      12.98999307
Si      26.73589756      11.36460659      13.65367564
Si      26.41299185      12.76335644      15.49315894
Si      31.56404044      18.03602461       8.21218804
Si      34.40782867      14.18032731      10.55534914
Si      33.38327107      16.13681674      11.17851410
Si      30.63038467      13.43431703       8.54419800
Si      27.32628899      16.03160486       9.35787958
Si      29.62645096      15.16196581       9.94217801
Si      26.95458817      17.63015927      11.05775254
Si      29.19568435      14.13135776      12.09545139
Si      31.29104158      16.85834324      10.24648447
Si      28.32972249      15.57003133      13.77618613
Si      30.38327966      18.38256412      11.92338023
Si      25.47611390      13.41013987      11.47509182
Si      23.30366748      16.27699320      11.96380972
Si      24.89174817      15.01992067      12.94387707
Si      21.57110855      18.15131497      14.12793768
Si      24.53478343      14.09635922      15.08263068
Si      26.45349584      16.65316542      13.12702342
Si      23.77182352      15.76927402      16.55188122
Si      25.68954209      18.20480056      14.75708993
Si      31.01289519      21.85818474       5.56133103
Si      33.13961832      20.79241429       6.36562307
Si      30.62454655      23.40317888       7.30332270
Si      32.97821715      19.87183661       8.68715927
Si      32.10253430      21.29565933      10.28140392
Si      29.28760383      18.78453174       7.50016392
Si      26.77389602      21.45937292       8.31130095
Si      28.73668349      20.49585295       9.08950335
Si      25.98666417      22.96167595      10.04376706
Si      28.45775340      19.41314329      11.17356710
Si      30.26731219      22.32088185       9.42557484
Si      27.72200996      20.98125644      12.80829587
Si      29.71734291      23.74881547      11.20179220
Si      25.13204672      18.77702909      10.48894597
Si      21.78059596      21.22339185      11.30829209
Si      24.03565979      20.33288703      11.95636107
Si      21.08233849      22.87264637      13.07965270
Si      23.63105845      19.30828697      14.04293631
Si      25.69533580      21.94816200      12.14147163
Si      22.88863109      20.94483239      15.59714284
Si      24.96532091      23.43684624      13.78683340
Si      19.98560213      19.26138060      12.93675510
Si      18.92314662      20.60754724      14.36042626
Si      20.77876530      22.02779320      15.14424619
Si      26.08794758      26.52496463       8.15142855
Si      28.30192142      25.64301021       8.42766500
Si      24.80752813      28.60427655       9.08962217
Si      27.68595056      24.64020438      10.45976658
Si      26.72917687      26.22835135      12.03278399
Si      23.80588748      23.82619799       9.49723714
Si      23.15562789      25.43816220      11.06767130
Si      22.94245016      24.36561290      13.18361375
Si      24.72642439      27.15506503      11.14349944
Si      18.97809564      24.10591851      13.04781421
Si      33.20873880       9.56963581      14.56950329
Si      30.39207340      12.03018598      14.78967616
Si      31.85238322      10.94673022      16.02953556
Si      29.85326593      13.50483570      16.33327123
Si      32.66561405      15.39111786      13.26117868
Si      29.57737729      17.46817690      13.97776889
Si      31.51230927      16.80834740      14.66133391
Si      29.06888395      18.91612935      15.81212450
Si      31.23011185      15.41388415      16.45517722
Si      27.90853206      14.48419389      15.83257391
Si      25.51566955      17.15720849      16.95866381
Si      24.52497163      18.71930182      18.38234959
Si      28.16031077      18.45245420      18.05318596
Si      33.87269869      22.30114982      11.39865652
Si      33.64951451      23.93814929      13.01519671
Si      31.86155723      20.14008797      12.36587840
Si      29.34758443      22.65560528      13.27243348
Si      31.26119119      21.50964544      14.19629276
Si      28.62284909      24.31721721      14.81870163
Si      30.93172602      20.25444165      16.17522901
Si      32.92827548      22.99436944      15.01370526
Si      30.22669251      22.10228990      17.63600802
Si      32.32835636      25.08340658      15.82130515
Si      27.26586698      19.90832375      14.81431521
Si      24.53543143      22.45485256      15.83757528
Si      26.55144299      21.40616856      16.34363609
Si      23.69940624      24.22833463      17.12034474
Si      26.38061173      20.07292840      18.18594646
Si      28.28033375      22.94204081      16.66535582
Si      27.52617276      23.94941011      18.54563908
Si      22.55484267      19.75466501      17.51931067
Si      22.71455725      20.65259745      19.69861961
Si      31.45172827      25.34940284      11.58023460
Si      28.12135191      27.91222941      12.66890765
Si      30.31023014      26.92394513      12.99524805
Si      30.33805882      26.08736688      15.10821695
Si      29.97437276      27.95715388      16.52301460
Si      26.49009127      25.19818829      14.21193172
Si      26.12676011      26.50029623      16.34547624
Si      25.66505774      25.03476129      18.04827191
Si      31.43232399      24.39978861      17.91079812
Si      29.59356855      25.37352331      19.02142281
Si      30.96473684      30.01704038      15.62654868
Si      39.45351691      27.89507264      22.08874409
Si      37.17667012      28.78130270      22.72161414
Si      39.15597862      27.61230564      24.58167428
Si      34.99491478      25.55454279      24.02213361
Si      37.31059707      28.58297363      25.75868110
Si      33.75659588      28.68483817      19.38893672
Si      34.25804577      26.66519623      20.25611250
Si      31.63425519      29.32350744      20.05355030
Si      32.36481101      23.87629748      21.34270533
Si      35.06325965      27.38544271      22.48341636
Si      30.41136245      26.02740505      22.42085679
Si      33.04149226      28.64430338      23.51013385
Si      29.86661528      27.43558060      20.41630012
Si      36.55529490      30.41706733      24.27437946
Si      38.76955517      32.03141066      26.06730570
Si      34.69062740      31.31048190      25.31692210
Si      37.09998740      33.91631376      26.79273002
Si      33.63705360      31.71398682      22.15291252
Si      31.89343811      30.25603891      22.22444027
Si      33.97785521      33.15743543      24.14217550
Si      29.98987527      31.34319856      23.12264794
Si      31.92418672      34.00796368      24.81380580
Si      32.47280476      31.33690947      18.88657628
Si      28.41373155      31.94509167      19.87373853
Si      29.00977444      32.99815027      21.78489680
Si      34.22148352      36.51281253      26.43293212
Si      31.56595845      35.45419793      22.78786565
Si      38.78529334      27.48579982      29.08237751
Si      35.45133942      26.97328034      26.12795995
Si      35.52277468      25.57219518      27.97498659
Si      33.68118192      28.11071818      27.19635739
Si      37.29282603      26.27841791      30.53351380
Si      32.65077109      24.61503996      29.25029594
Si      35.05653633      26.84408376      29.98666965
Si      31.66559052      26.94325479      24.07486819
Si      32.21681945      25.53491566      25.92673586
Si      29.47912008      27.81081289      24.56475930
Si      31.99140199      26.54024882      27.91035403
Si      29.88706587      27.39638734      28.33718760
Si      38.17769519      29.42189719      27.82306153
Si      35.35594052      32.33522797      27.37298309
Si      36.20141321      30.49358211      28.82890848
Si      33.44088577      33.38928421      28.33085472
Si      34.37457004      29.00106203      29.22686754
Si      37.23155927      30.91360335      30.91948386
Si      32.28773950      30.01633863      30.12969686
Si      33.07367206      29.69174502      25.62410761
Si      30.29860316      32.32929469      25.20062118
Si      31.06646174      30.62231222      26.50310888
Si      29.28332069      28.95437251      26.53899779
Si      31.66182468      31.68286187      28.56802626
Si      29.75906505      32.80465976      29.39616312
Si      28.57040960      29.57067566      23.32167378
Si      34.89259562      37.81689383      28.28991213
Si      35.47251240      36.67614390      30.52246713
Si      33.08840619      38.76226393      29.18255693
Si      34.08914579      34.61568421      30.36004694
Si      32.04585687      35.40602369      31.29911289
Si      32.53362916      35.00943518      26.86173464
Si      30.73111720      36.14662703      27.81872318
Si      33.55584449      25.68697342      31.34151904
Si      35.13814099      24.57809099      33.11376458
Si      31.63891283      27.06537293      32.38773720
Si      32.61477516      31.65277380      31.77473084
Si      30.34804822      32.23353706      32.44912839
Si      30.15818738      34.10584217      31.22875765
Si      29.98630295       9.90144310      16.93148783
Si      31.27980752       8.97076617      21.61518780
Si      31.02370031       4.15916994      13.39076050
Si      28.40355598       7.16781254      13.73387270
Si      27.71075595       4.06566404      11.17721571
Si      33.22718835       7.33260166      14.50531363
Si      32.69511283       5.04363211      16.68052072
Si      31.43625860       6.74126322      15.89621888
Si      31.79898114       4.23140352      18.64407768
Si      30.84850174       8.04912887      17.85473458
Si      29.79086099       5.61005016      14.78929590
Si      29.63008758       6.98463893      19.51276744
Si      28.67447141       4.40293538      16.50594901
Si      33.39380847       6.88134693      21.74468441
Si      31.91976362       7.42309825      23.39278911
Si      31.22208595       5.58484751      20.60689070
Si      30.79898453       6.01942118      24.88998546
Si      29.95789832       4.27796534      22.23373037
Si      29.55757493       2.54004675      12.49320591
Si      27.89152599       1.56126446      13.96105254
Si      30.74939345       0.79969421      16.55478996
Si      30.10063809       2.88112106      17.62910168
Si      28.59449561       0.16104480      15.88606090
Si      28.83204553       1.32452849      19.00044673
Si      27.82657468      10.22517571      20.21911467
Si      28.68133777       9.46021862      26.08952525
Si      26.82444666       5.94842086      12.51545494
Si      25.63249928       5.05328797      14.30040786
Si      22.92929756       5.94059968      12.23478812
Si      27.83478766       8.56392663      15.57966212
Si      27.93919511       5.90705866      18.26144016
Si      26.66500531       7.56517159      17.26328473
Si      26.60766932       4.89088384      19.83988268
Si      26.23047421       9.43101718      18.59884149
Si      24.78219336       6.74448666      15.98022912
Si      24.27236559       8.22081461      19.75371225
Si      23.61868147       5.27320094      17.44881511
Si      28.98911482       8.52108255      21.22639449
Si      28.82615156       5.51710504      23.77899918
Si      27.60900547       7.33436926      22.73606115
Si      27.37408483       4.25280833      25.21458543
Si      26.83611420       8.64339752      24.56256002
Si      25.67869372       6.63136852      21.32968197
Si      25.67825613       7.54998695      26.30353462
Si      24.35367533       5.62626722      22.96642732
Si      29.85127395       7.33459159      26.55761844
Si      29.20333937       4.23021327      29.06869633
Si      28.54767774       5.92762120      27.86556694
Si      27.83920608       8.41154310      29.40576208
Si      26.50363208       5.52508318      27.04368128
Si      25.16428728       4.69252475      28.81498723
Si      23.08315103      39.67800335       8.74123527
Si      21.92865705       3.39035292       9.06315694
Si      25.90375735       3.02497793       9.88144518
Si      25.98838216       0.79075826      12.58705179
Si      24.55439057       2.37111503      11.55397838
Si      24.49373973      39.59774960      14.00438846
Si      23.91445611       4.02501786      13.15671522
Si      22.74473957       1.47857622      10.31801335
Si      22.49898274       2.81778279      14.64603105
Si      21.37994758       0.53087492      11.98125877
Si      26.93801682       3.33470033      15.32779149
Si      27.16656807       0.62314630      17.69645873
Si      25.62866938       2.18317207      16.87820098
Si      24.95636209       3.68554906      18.56844337
Si      23.73336883       1.09966990      15.74408918
Si      23.69970005       2.42863946      20.06724340
Si      22.40115405       0.02042406      17.44410039
Si      27.96866814       3.53889755      21.22500045
Si      26.05731039       2.56675195      22.30451351
Si      25.42343240       3.81930919      24.20619176
Si      23.86498989       2.55487123      25.75859584
Si      22.91031757      38.64475917      12.49555093
Si      20.44011127       5.69908580      15.56103039
Si      22.57714756       6.71540617      18.87284333
Si      22.87488811       7.18146671      24.18861827
Si      20.48832638       2.11682513      13.54892754
Si      19.25618077       4.17878832      12.53147960
Si      19.10699127       1.24687101      15.42077361
Si      16.68851754       1.34366816      13.71744500
Si      21.86131899       4.15498449      16.38892832
Si      21.83837137       1.56931800      19.11015921
Si      20.59427589       3.14542970      18.02200828
Si      20.35649376       0.73990091      20.73860060
Si      19.90465090       4.54557073      19.65325237
Si      18.50893308       2.69558294      17.09237578
Si      18.14547597       3.79693560      20.95985080
Si      17.17951963       1.43584927      18.38969166
Si      22.86509096       4.24289523      21.72964460
Si      22.72156171       1.36919355      23.92140539
Si      21.50406431       3.32439585      23.32538318
Si      21.91677254       4.67709907      25.43520104
Si      19.42411433       2.43711068      22.33934543
Si      20.06883106       3.46718067      26.69942501
Si      17.98645165       1.31788412      23.87712423
Si      23.14948276       3.66314104      27.97759550
Si      22.23330198       1.76866223      29.39107860
Si      19.62477179       0.34410002      10.63845208
Si      18.22146839      38.24698337      12.49101045
Si      17.23025076      39.80098849      15.28063548
Si      15.47293800      38.94758928      16.67920656
Si      20.13250280       0.26003626      17.11889371
Si      18.54987022      38.65861964      17.68157507
Si      18.54764099       0.03756822      19.57040280
Si      17.76960504      38.76129574      21.21122785
Si      13.98706518       2.24973407      16.45923443
Si      16.40698059       2.89651113      19.75930014
Si      15.24219069       1.52265141      21.04885227
Si      18.16116306       3.10482497      25.55980133
Si      15.03104796       0.79391183      17.83720599
Si      16.09684762      39.87089741      22.25832789
Si      14.10310167      30.86043820       7.04545267
Si      39.47829196      23.96426479       3.83738795
Si      39.23874339      25.47328262       5.80690496
Si       2.88955955      27.33964559       3.15302150
Si       1.02023828      28.22588970       4.24507709
Si       5.02040716      30.10166187       4.57055666
Si       1.40123789      26.63769141       5.93333451
Si       1.16143742      31.69282865       6.12204540
Si       2.05870074      27.56971348       7.91882678
Si       3.45506566      32.10513928       6.17405194
Si       4.27969103      33.52814054       7.82959184
Si       2.21785302      23.59119817       8.97801606
Si       9.33651462      28.76501269       8.78545952
Si       5.34385379      28.66700929       8.05149675
Si       5.83180218      30.30247539       9.58144661
Si       6.84086557      26.92813675      11.00407321
Si       7.33161435      30.09387854       5.28422240
Si      10.49799191      32.19958524       6.72834909
Si       8.10116683      31.92773623       6.71066707
Si      10.72161434      33.70116213       8.51320915
Si       6.72190267      33.97022607       7.11707384
Si       8.10230594      30.85825141       9.01261588
Si       8.65225263      31.98973592      11.00163247
Si       9.16190886      27.46345519      10.80228271
Si       9.72910929      28.66927357      12.69669633
Si      10.82612084      32.71706681      10.60618608
Si      36.72328635      20.81316991      10.01332584
Si      36.74332854      23.45648984       6.98229308
Si      38.69621140      24.64819543       7.94115091
Si      36.49777414      24.59576809       8.93170730
Si      39.57891296      26.01610368      10.01943343
Si      35.98260088      22.86219486      10.61288614
Si      36.12077425      27.51121396      11.13024007
Si      37.40562960      25.21015077      12.42858337
Si       1.44675038      30.43857081       8.00464839
Si      39.19062520      29.34278645       8.63992539
Si       2.13251855      31.66178444       9.94755511
Si      38.57626626      28.17453326      10.61074801
Si      39.46867726      29.77940400      12.23335934
Si       2.20961043      35.21670674       8.66331989
Si       1.19892814      33.81286249      10.45648931
Si       0.26377793      22.06159941      11.73570249
Si       4.39443626      25.92287108      14.99407189
Si      39.65105827      24.84118120      12.01032854
Si       0.57454764      26.27127396      13.75860644
Si       1.85232308      26.15477216       9.71099892
Si       5.40714223      28.75836512      11.30910671
Si       3.07725118      27.92329857      11.51848903
Si       6.13938283      29.82248393      13.21975431
Si       1.79423948      30.08487771      11.68841085
Si       2.83364271      27.12694805      13.73650500
Si       3.83596564      28.92700479      15.24127863
Si       4.43187249      32.29583871       9.73065106
Si       6.76186967      25.80587208      13.22211953
Si       6.15898698      28.48622558      15.31979484
Si       8.37179890      30.47208024      12.72969212
Si      36.34782038      26.81095272      13.58684110
Si      37.82905804      27.80775323      15.15496704
Si      37.37310167      32.12341751      12.41416329
Si      39.77405304      28.53377705      14.27815504
Si      34.34691434      23.02536347       0.80936758
Si      29.99493950      24.09803795      39.87766972
Si      31.78362723      22.13039118      37.64735182
Si      30.62695981      26.21517157      38.90700236
Si      33.46079562      23.84037521      37.97196581
Si      31.14988523      29.03525615      35.76920797
Si      33.21885648      23.98355839      35.70683220
Si      34.41163292      25.92151802      35.02504264
Si      36.59452491      21.81402619      39.58644006
Si      36.76248228      24.13655763      39.53143718
Si      32.92949378      25.78041150      39.31130723
Si      33.10321056      25.47524929       1.89450969
Si      33.85562441      27.90182597      38.58317789
Si      36.50077601      24.96769373       1.73024929
Si      33.37337298      29.50917669       2.38418147
Si      37.04665341      27.08368073       0.73890216
Si      30.57374557      28.12205991       0.48808299
Si      30.54438164      30.61703105      37.41486252
Si      31.17950044      30.16242211      39.61192953
Si      31.43592531      32.67238876      36.75536073
Si      33.39566262      29.90348560      39.95790355
Si      31.42939895      34.36176854       0.33137037
Si      34.39005979      31.90874213      39.15466448
Si      27.43551370      32.32228474      38.92399457
Si      27.53050911      34.58301939      36.54099671
Si      28.77352177      34.45458123      38.28974638
Si      28.77940517      37.83567651      35.48091727
Si      27.71327247      35.79659778      39.72007277
Si      30.99160192      34.60208891      38.09322710
Si      31.89920615      36.79656925      37.43444409
Si      39.85046293      25.06816180      38.50963840
Si      35.86189024      24.01238226      37.47655576
Si      36.60268840      26.49744480      35.52423904
Si      37.10760419      25.98178818      37.77007781
Si      37.00465059      28.58304751      34.35778865
Si      36.16055428      27.79324681      38.73051969
Si      37.16208702      29.77021305      37.81921756
Si       0.40881380      28.33381873      36.17115753
Si      33.32176200      28.16097968      36.21463168
Si      34.18198008      30.40189464      35.61063779
Si      34.40496653      33.29065121      32.16298420
Si      33.73284056      32.33144540      36.94288512
Si      36.47145841      30.34896648      35.66799694
Si      34.69845463      34.43659804      36.11228560
Si      37.38419740      32.31252344      34.81715660
Si      31.23762519      33.01924979      34.43994354
Si      31.83390862      35.17355244      33.71946811
Si      30.95356482      36.91877169      35.11142337
Si      34.06647422      34.95304182      33.84211892
Si      34.62096545      37.06827284      32.88327579
Si      39.30906471      28.29724873      34.09054244
Si      36.49925009      32.38772036      32.63139716
Si      37.31310461      28.84577207       2.11903015
Si      37.58785679      31.02378018       1.26632149
Si      33.74370335      33.83562963       0.35105108
Si      35.03170045      35.65229964      39.64918861
Si      36.60990421      32.65186881       2.65150927
Si      38.04741997      34.49536851       2.24416019
Si      31.17474453      38.59100015      39.16431377
Si      32.24598341      37.96567584       1.23831474
Si      34.52827060      37.45158919       0.91636943
Si      36.13274593      39.16607520       0.95190601
Si      39.20989456      26.68241971       0.23839546
Si      39.45439934      29.58262472      37.80518339
Si       0.39282883      28.92571769       0.03746414
Si       0.37772516      31.30031195      36.50871677
Si      39.88677041      30.78587075       1.57736559
Si       2.83384908      28.59856454       0.09567789
Si       1.01271008      32.46268836       0.45718162
Si       4.01890035      30.27356244      38.61912990
Si      36.73416327      31.60689672      39.14671460
Si      37.01591295      34.31484657      36.18057912
Si      37.81044617      33.59686087      38.36117307
Si      37.60392476      36.76778262      35.54090804
Si      37.38330649      35.32714227      39.95128369
Si       0.10927612      32.97852295      38.19567080
Si      38.61713345      37.25183989      39.15319721
Si       1.23266256      34.73302089      37.23977326
Si      34.19855484      36.30267596      37.52395170
Si      35.90522756      38.09566241      34.59716769
Si      35.19082361      38.33285683      36.92437364
Si      37.52600188      38.30145086      37.42980417
Si      39.64443063      31.79991689      34.10997440
Si       1.57518520      34.30438460       3.78689498
Si      39.70320910      38.69601923       2.48003859
Si       3.31829947      31.74991390       0.50656183
Si       4.69039070      31.58834490       2.50480824
Si       3.77076388      33.15254564       4.09144626
Si       4.65654499      36.60702560       2.75617258
Si       0.50628913      34.33520456       1.72535126
Si       0.86083020      36.85105191      38.44001734
Si       1.64997382      36.11252539       0.52391887
Si       1.73372851      38.04595913       1.73600272
Si       3.91883265      35.72270091       0.63795907
Si      38.41034542      39.01682677       0.67699461
Si      12.35615524       2.06018954      30.72362366
Si      19.99758181      32.15884739      30.73089827
Si      16.06273547       2.78720882       7.88972039
Si      10.64950193      35.74384403      23.69751924
Si      12.07081683      29.24866664      30.38935589
Si      24.15473952      27.63520679      16.80076432
Si      22.05390224      16.46527122      19.81638123
Si       2.15998683      18.10931635      38.31458307
Si      17.01903885      24.19689680       9.38486940
Si      27.69795226      36.58691382       5.34459667
Si      15.06333371      22.30472335      17.16733583
Si      15.60199625       1.13460849      24.61918547
Si      14.13997967      37.31248667      15.61902610
Si      32.68673430      31.08398295      33.90389936
Si      15.44531766       6.20685534      19.89422332
Si      10.07606568      34.58900262      11.51472973
Si       4.45929170      21.89159000      18.54239932
Si       6.09801734      15.29133003      20.59150657
Si      26.47748248      27.24898390       1.09372439
Si      33.11397129      37.96391688      22.68460851
Si      24.63059461      27.17324380      28.90246696
Si       4.72979467      20.76615177      37.09222316
Si      24.23853472      28.28746784      30.64463350
Si      31.34489214      29.27937459      33.55060411
Si      33.30401566      18.61402789      28.17702724
Si      20.09878243      35.05383196      15.42515171
Si      32.16100082      13.60128938       6.60433648
Si       3.65485104      29.66484196       6.58433657
Si      34.00894453      24.30239737      26.91030744
Si      14.99227343       5.51423149      37.85632089
Si       3.07814081      16.74807039      12.10278677
Si      23.08374976      19.94028717       9.06337855
Si       5.99512243      17.83704408       0.60729221
Si      39.09006136      27.56714316       3.23338421
Si       4.91579083      14.11951145      11.17136572
Si      18.64091383      22.44950564      39.40888618
Si      36.78574108      31.96832973      14.59310673
Si      26.76786783      38.18132654      28.64493080
Si      17.32025543       4.64189884      17.21724179
