3068
Lattice="40.0 0.0 0.0 0.0 40.0 0.0 0.0 0.0 40.0" Properties=species:S:1:pos:R:3 relative_density=0.96 cell_dim_angstroms="_JSON [40.0, 40.0, 40.0]" n_grains=239 grain_size=8.0 crystalline_fraction=1.0 grain_radius=8.722110763648523 pbc="T T T"
Si      13.21543291       8.66913261       2.02539108
Si       9.53184465       9.36641478       1.75308113
Si      11.44185349       9.31370827       3.09747999
Si      10.93203490       7.78934329       4.82133520
Si      16.26876692       4.20529974       2.89983228
Si      12.82339172       6.42757529       1.04980041
Si      12.59595502       4.91925026       2.81081161
Si      12.65304876       7.60460434       6.33686224
Si      14.32812218       4.85900965       4.17764484
Si      13.87065881       3.34200635       6.05924796
Si       9.12811488       7.26021162       0.82372391
Si       8.57699547       5.65699600       2.65607410
Si      11.95429709       2.88112299       1.82595430
Si      10.19001456       2.99782816       0.36150883
Si       8.26463862       3.58578910       1.66200443
Si      10.59352980       5.65168754       3.93807383
Si      11.98703288       3.97227852       7.13259520
Si      10.09591243       3.97628437       5.68502604
Si       9.77746104       1.97364551       4.79930024
Si       9.67517063      15.68349434      16.03321670
Si       5.79971480      16.03536619      13.55204761
Si       5.71369336      16.70815497      15.86099222
Si       8.60490627      19.20522944      14.92348270
Si       4.48805337      18.47240500      16.13628152
Si       4.94441857      20.26528037      14.74777999
Si       7.24584471      21.02968775      15.19113166
Si       7.26243498      21.71728006      17.53525982
Si       8.19939700      17.36821138      16.32826322
Si       8.15068595      18.06089639      18.54173222
Si       6.59365553      19.93223898      18.85582452
Si      14.99105564      39.11470703      32.58681945
Si      14.07634919       0.46502977      30.76994608
Si      11.91255788       1.19446070      31.11104095
Si      11.32584689      37.80908344      33.10875103
Si      11.84342229       2.20592625      33.02719906
Si      12.97395624      37.26065251      29.07643856
Si      10.68360281      37.99283532      29.47985569
Si      10.02387035      36.07495770      33.38527960
Si      10.08367451      34.69223422      31.48411579
Si       9.46759224      36.09257669      29.63851507
Si      10.68385664      39.24290155      31.38376221
Si       8.49261898      39.93230655      31.78645551
Si      29.16362508       7.05471626      37.04558805
Si      27.24899834      10.20915290      36.34913736
Si      27.27459185       3.85849005      38.36993656
Si      27.49239824       9.07409488      39.74768533
Si      27.52739522       4.54927963       0.51130369
Si      25.48078574       6.06821275       1.22764413
Si      27.21682704       5.82400189      36.86429801
Si      25.26748140       8.97201785      35.86953303
Si      25.41535197       7.11702820      37.43207450
Si      25.50745697       7.96190089      39.67011952
Si      27.73348169       9.80015860       2.05144077
Si      24.43611991      16.77715320      33.14498737
Si      22.55807234      19.99639465      32.49659655
Si      26.20819729      18.07340232      34.30418557
Si      26.14346018      20.26646976      33.39794583
Si      26.72861961      20.01097687      31.09327906
Si      27.93183105      21.37580543      34.53683826
Si      24.14750529      21.22062041      33.64711052
Si      24.88739747      23.29698049      30.56068450
Si      24.26891004      23.54873008      32.74408335
Si      22.33303823      24.58185174      33.08491247
Si      26.53958608       3.39921400      29.03395967
Si      25.67907890       1.67723434      23.96869091
Si      23.02384929       4.93619536      29.01458113
Si      21.15038798       5.23770337      27.74871205
Si      21.48336676       6.46016827      25.72553282
Si      27.86784791       6.75013087      27.54567504
Si      23.92844330       7.08162146      29.57936445
Si      24.42316441       8.23343190      27.50021916
Si      24.58188140       3.74262535      27.68958872
Si      25.11077627       5.01144647      25.65268852
Si      25.94592574       7.04547402      26.24663592
Si      18.80529803      12.99386545      33.16062477
Si      17.63537558      11.71527158      29.84192164
Si      19.72338272      10.85650671      33.67909564
Si      18.72995288       9.51699299      30.18003899
Si      18.46423499       9.53858112      34.67809974
Si      17.22696870       8.15215170      31.35009464
Si      15.85965904      14.68554015      31.51363136
Si      15.16785184      15.57016444      33.45709291
Si      13.64811079      14.15593353      34.56504337
Si      14.27306645       9.90469275      29.51108834
Si      13.96874537      14.46309691      30.14193253
Si      12.52972474      12.95805569      31.00418124
Si      16.94453370      12.63750760      31.90709030
Si      16.57587000       9.03136679      33.26355472
Si      15.39665596      11.12509887      32.94450458
Si      14.67585541      12.15788975      34.87859343
Si      13.50666105      10.95693662      31.59213579
Si      15.31031940       7.86658814      29.86110247
Si      30.62394340      35.64961801       0.37396685
Si      28.88301315      32.96552454      38.34314662
Si      28.96513346      37.18282172      39.72246802
Si      27.15028827      37.26218734       1.18313061
Si      31.25768879      31.93915808       1.07542655
Si      29.67453725      33.40830544       0.42033905
Si      27.80454490      33.55750124       1.91234972
Si      25.52738425      34.54834290      39.00943691
Si      25.58977722      38.74836253       0.57958120
Si      23.75962688      38.70507373       2.08313041
Si      26.85486458      31.38549898       1.88128321
Si      26.32985640      35.08610261       1.32830011
Si      24.35735245      35.01583131       2.65565788
Si      23.52844850      32.96379948       2.81062116
Si      13.13641063       9.51881399      12.39779768
Si      14.34679040       7.45228399      12.89997999
Si      16.46198130       8.08738810      14.18598854
Si      11.69858580       7.59650574       9.35142273
Si      13.02625108       5.67629084       9.89607653
Si      13.19486108       6.17556702      14.32896311
Si      11.24131369       5.47204009      13.17484230
Si      13.48943054       4.32773891       7.94951465
Si      14.66633207       2.54828884       8.51109760
Si      14.94537882       6.28161068      11.13128519
Si      16.17883470       4.37427657      11.59331301
Si      16.65884934       3.10319379       9.47428631
Si      26.38070658       4.34008377      21.66765915
Si      28.18231907       8.40539963      22.63849682
Si      29.45076047       6.71135777      21.65886470
Si      28.38660479       4.43903916      24.77778905
Si      27.11595983       3.10551009      23.43634353
Si      30.20584166       5.31458867      23.61251705
Si      28.35075119       1.43371795      22.56776672
Si      31.45940218       3.60404244      22.62713868
Si      27.29734887       6.67097204      18.55777836
Si      24.96916608       2.99563241      20.34354094
Si      24.14304611       4.35524879      18.37931361
Si      25.97118083       5.14430395      17.13036792
Si      31.15432337       7.55683744      20.55907759
Si      32.44558902       5.69396655      19.73076220
Si      29.10625455       7.32899346      17.35896637
Si      30.28073078       5.79631257      16.47870085
Si      28.09410708       5.36693214      20.28793125
Si      30.17926760       2.19727263      21.35225393
Si      29.29588488       3.50674622      19.57094495
Si      31.13194230       4.42469515      18.27316284
Si      33.29757565       4.46851277      21.43735430
Si      38.10473986      33.76460007      13.92971713
Si      39.35854410      34.79511210      12.16223113
Si       0.25410229      33.28962003      10.61379780
Si       1.73141921      31.83674600      11.72469413
Si      36.99053358      33.38173626       8.75815010
Si      35.14391859      32.15445205       7.76245556
Si      38.42083949      31.96613775       9.70094694
Si       0.08852035       8.87782538       1.15403707
Si       2.19975578      11.55010178      39.81222342
Si      38.24158624       9.75631213      39.99589283
Si      37.05161038      11.49242044       1.32997072
Si       0.46639266      12.56287171      38.52831716
Si      39.43367607      14.12481398      39.88099606
Si      37.57709152      14.96287815      38.73261596
Si      34.15556071      13.89623258       1.36277419
Si       1.48199482      10.61224080       1.77721593
Si       0.42637877      12.19210481       3.14097132
Si      39.18965083       7.98654183       3.17870896
Si      36.21654700      10.22453641       3.29199932
Si      38.00179764       9.45987454       4.30746011
Si      35.10353273      11.85305784       4.49352761
Si      37.29777404       8.30501971       6.40848181
Si      39.52450452      11.09745173       5.03717733
Si      38.35126113      12.60405370       6.32738692
Si       0.92279016      15.92393172       0.57629920
Si       2.63398350      14.90329330       1.79993637
Si      39.74545250      17.43866163       1.98496906
Si       1.95216298      13.79832398       3.76981723
Si       0.80932075      15.42233879       4.96091339
Si      38.51631436      13.01557589       1.89886615
Si      35.57868989      15.53497311       2.00937681
Si      37.38319653      14.62116412       3.31688354
Si      36.55703649      13.57152556       5.08090919
Si      38.83174330      16.32730682       3.83529245
Si      10.43733463       8.37636368      14.14609934
Si       8.80428638      11.47100780      15.79098039
Si      12.61055192      11.08663042      15.85034642
Si      12.46722779       9.51426611      13.98641429
Si      10.92355125      12.56450935      15.68545542
Si       6.68212701       8.61243981      14.19843363
Si      10.34127625       6.76340574      12.38644149
Si      10.41684767       7.94274779      10.36150470
Si       7.07568003      13.00889603      15.46893673
Si       4.98278645      11.80729565      15.69505964
Si       4.83512498      10.31496846      13.93387458
Si       4.92917116      11.43023662      11.84904632
Si       8.53588539       9.88669743      14.00474679
Si       8.80889893      11.11493620      12.01485987
Si       8.70538633       9.42831124      10.10005343
Si      13.93459473      31.02873936      16.27042596
Si      16.66646042      34.09154724      19.94830892
Si      17.43734038      31.00204367      17.89290225
Si      19.64686863      31.81736862      17.57496316
Si      13.90184289      28.73172626      16.22898470
Si      17.45734268      28.70107074      17.72413808
Si      15.33622425      27.83786689      17.92403103
Si      14.50213400      28.59783901      20.07264943
Si      16.68670035      31.70704359      19.86087121
Si      20.22989697      31.70020383      21.38418655
Si      18.16828224      30.84370984      21.61281055
Si      17.99852381      28.60397876      21.51442796
Si      39.46822398      16.06425959      20.79151104
Si       1.87454281      17.99637970      18.39968100
Si      38.19386774      18.10215059      21.02434679
Si       2.99632983      14.68905209      20.02346278
Si       3.96823660      18.48605320      18.02511381
Si       4.84734394      19.76195972      19.87403691
Si       1.64932125      16.63887061      20.34219394
Si       1.24833655      19.86989080      22.62551736
Si       4.74902796      18.45651629      21.81281090
Si      11.19005409      14.86540792       8.08639385
Si      14.16983682      16.75377054       6.64691427
Si       7.51656224      15.94672068       7.34300456
Si      11.14908991      13.41795950       6.16735577
Si      11.81111465      14.72408526       4.36885836
Si       7.52263866      14.61792841       5.42140526
Si       8.28594906      15.89386367       3.63667463
Si       9.82606029      16.66227729       7.81216901
Si      12.80873346      18.57236655       6.37959120
Si      10.51118048      17.76253433       5.94624245
Si      10.53200482      16.53732306       3.91834534
Si       9.08951113      19.86865732       5.67479230
Si      23.23474842       7.89152179       7.40277360
Si      21.47865343       8.06990391       8.97789374
Si      22.24779251       9.48079671      10.70783106
Si      28.17691545       9.89653157       7.76049444
Si      24.98960642       6.67685010       8.38909084
Si      25.78453271       8.11663247      10.08002350
Si      29.29005639       6.62801758       9.51601309
Si      23.77515818       9.79184195       6.41185923
Si      24.64451662      11.22561527       8.31381681
Si      23.08499771      11.55646610       9.90814941
Si      26.39772775      10.16642792       9.21134118
Si      27.35353031      11.48389575      11.09190178
Si      20.56706945       9.71872091      12.30761517
Si      21.46597211      11.06040332      14.19269589
Si      27.63036640       6.95951283      11.15370990
Si      28.52979933       8.22899014      12.95332437
Si      26.11984535       6.45385846      15.28868283
Si      24.14923701       8.35885241      11.75940152
Si      24.91794652       9.72489687      13.47807522
Si      23.25338593       9.95270558      15.06281579
Si      26.72682173       8.60212943      14.45635238
Si      27.54824234       9.84627731      16.21825134
Si      29.14725852      10.33623794      12.01910572
Si       6.74147891      31.44648404       0.73015258
Si       5.54778830      33.28933875       3.95562537
Si       5.68767382      35.28719746       2.65835803
Si       7.84474736      31.12093356       6.01982732
Si      10.04578918      28.70846476       8.18562284
Si       3.92766726      33.28493059       5.57415031
Si       6.21465348      31.01334998       7.82146708
Si       6.71876809      33.00411610       9.19827514
Si      11.07017067      28.88024148       3.86326046
Si      11.56588200      30.70893536       5.37365041
Si       9.97490419      30.69350304       7.03387818
Si      10.49029625      32.66621919       8.39147063
Si       7.79434050      32.94759835       4.93503697
Si       8.08693898      36.78540751       5.00580175
Si       8.31163028      34.77484372       6.20701203
Si       6.64744964      34.91670347       7.84753681
Si      10.43907270      34.68230963       7.30182470
Si       8.86104408      32.76133186      10.12261660
Si      33.95561678      17.56672034      15.71144224
Si      38.70288222      14.75683170      15.64616636
Si      36.06068181      15.71753911      13.03626164
Si      34.63752106      15.84666327      17.17907538
Si      34.97810612      13.75631251      16.18945231
Si      32.02548843      16.76410796      14.58647718
Si      32.40079661      14.73748160      13.53099107
Si      32.84256517      13.15512616      15.10780757
Si      36.66188927      13.91700955      14.61227130
Si      38.69034477      12.29060895      12.04006183
Si      37.03398646      11.98726917      13.47749048
Si      39.03316554      10.15902506      10.70534947
Si      34.93912888      11.36957238      12.43984566
Si      34.59690216      27.53787912       6.48592485
Si      37.49202714      24.39977574       3.07469101
Si      30.33626933      26.13396969       6.36864833
Si      31.57402583      26.75179323       4.41986160
Si      33.41321008      22.87412074       3.12300798
Si      34.27836094      23.66742303       1.22578839
Si      30.71895757      25.63538721       2.77182888
Si      31.81262670      26.29851500       0.67607847
Si      30.94783764      29.47335268       7.93957843
Si      34.11815312      29.88899396       6.13267618
Si      32.08126710      30.27748567       6.10962148
Si      31.22250679      29.07783419       4.21840726
Si      32.18569284      29.74919137       2.17490952
Si      33.86052990      26.29790941       4.69368425
Si      34.91528034      27.14716607       2.79613192
Si      34.10516640      25.91778782       0.84327131
Si      36.65997944      23.16811259       1.41627408
Si      31.38668048      28.67929888       0.30142919
Si       3.37531056       1.22917596      27.91444283
Si       1.78780292      39.62513976      28.20074870
Si       2.48659214      37.79927501      26.88246416
Si       7.20989823       2.17662903      28.59576924
Si       3.74318953       1.68024451      25.61836415
Si       5.24107508       3.49946867      25.44028247
Si       7.45697542       2.64249166      26.33650212
Si       8.10053663       0.60993189      25.00958145
Si       5.54946061       0.42831767      28.77809333
Si       4.44265483      36.90313208      27.81429331
Si       6.07555696      38.44998674      27.65465697
Si       6.36893582      39.00067998      25.41569658
Si       8.17618716      37.67436863      28.36310564
Si       2.58977837      38.24220196      24.71952213
Si      12.21924705      34.30458218      27.10345640
Si      14.21187490      31.14316148      26.56579772
Si      14.01249317      33.36819141      25.75729344
Si      14.38775601      26.79712983      25.95596932
Si      16.32626157      27.91541581      26.08102996
Si      17.51340155      25.94121539      28.93637405
Si      13.47625897      27.82333666      29.36565887
Si      15.09031751      31.15178346      28.79211155
Si      15.36147600      29.04530626      29.56850229
Si      17.00078942      28.03114797      28.22989010
Si      19.04221264      29.29068312      28.37518210
Si      17.20206384      26.77724866      22.57761252
Si      18.10400544      26.98550961      24.70428065
Si      15.92453819      30.14528401      25.15308459
Si      17.60838708      33.54874550      24.50573033
Si      18.03782673      31.42033627      25.41012550
Si      18.75047753      31.45710201      27.59682547
Si      11.70104699      20.57851305      36.41903014
Si       9.58383040      20.28264621      36.95562390
Si       9.07920167      18.16544663      37.63100101
Si      12.37082535      19.16395343      34.65242669
Si      12.01995138      16.88388160      35.26547236
Si      12.57710064      15.38266921      33.57544176
Si      12.34897085      13.18691286      34.21254850
Si       9.74890329      16.63097177      35.88265664
Si       9.34420790      14.37883158      36.43953905
Si      12.39872394      16.07827476      10.87183040
Si       9.98830097      16.63982986      13.74526230
Si       5.82867896      15.43253211      10.73709613
Si      10.27537796      16.12612256      11.43742908
Si      36.08332740       4.40240939       3.53038532
Si      33.71649416       2.60614014       5.79251924
Si      38.95847603       7.30619430       5.36812913
Si      38.49105182       6.96900258       7.51538056
Si      37.40254119       3.39353006       6.83414513
Si      35.51019746       6.49087009       4.25497819
Si      34.73087576       6.23228399       6.54127093
Si      33.12231776       4.63665644       6.64357892
Si      36.62369625       5.42648063       7.79361208
Si      32.43943805       4.48173456       9.11938299
Si      36.06560515       5.18089760      10.01483773
Si      31.84419836       6.42270986       9.81062510
Si       0.31074061       6.15199462       8.85075310
Si      35.50831133       7.29180235      10.74916313
Si      36.23562641      39.81682976       6.16652928
Si      39.33382896       2.59660715       8.05515247
Si      35.65909110       1.86087745       6.95319923
Si      34.31192560       3.64937472      10.13581297
Si      34.96794869       1.56160568       9.22139042
Si      33.35421685      39.94156593       9.40512017
Si      12.26584273      18.12305718      29.55789511
Si      12.39997739      20.31452158      29.92706118
Si      10.90822799      19.02084755      26.03205718
Si      11.04742582      21.32555417      26.60374738
Si      10.38429905      21.06072864      31.12774436
Si       8.95373859      22.05638030      27.64929860
Si      10.47374612      23.30763712      31.69618364
Si       8.92355241      24.34550829      28.18811556
Si      14.77735429      21.01814461      27.22553118
Si      14.19257711      20.72900145      31.64246326
Si      14.27972080      22.99004966      32.16283318
Si      16.49428400      21.33998197      28.63583324
Si      16.64665065      23.64684198      29.23059497
Si      11.37627762      22.56251579      24.74345624
Si      15.32047463      24.53708409      25.85746790
Si      12.79889781      21.63208547      28.03341217
Si      10.95146563      24.59491688      29.77204934
Si      12.82297495      24.01988899      28.83259246
Si      10.94250121      26.83073114      30.33212340
Si      14.58737086      24.18170844      30.26250189
Si      13.17356629      25.11770169      26.80906175
Si      14.68906517      26.49274797      30.92738419
Si      12.12735436      23.57533945      33.15919349
Si      16.98766484      24.80355425      27.29007905
Si      37.13940927       3.15039867      19.62970527
Si       0.34987951       0.49700434      18.11100245
Si       1.55779279       2.96492830      20.72735901
Si       1.90025271       5.12773876      21.13156056
Si       0.63003106       2.73146477      18.52417566
Si       2.46662223       3.49755113      16.99465408
Si       6.67574900      26.50455737      10.85469530
Si       9.77581610      28.58048108      11.38619918
Si       6.40874235      30.01131571      12.50498327
Si      10.02163084      25.13768384       9.88032099
Si       8.89247570      26.28467802      11.37171344
Si      12.56009711      24.02268724      12.53635333
Si       9.12563603      25.44117290      13.47086614
Si       5.40420930      27.76369607      12.32666215
Si       5.79294257      26.81668325      14.42714812
Si       5.87117422      24.40689906      10.69812976
Si       5.86921353      23.39206561      12.92474961
Si       8.24641530      23.25618567      13.54954679
Si       4.91730230      24.65380391      14.64407581
Si       8.40624086      22.20267122      15.59043957
Si       5.06165915      23.76555891      16.61676253
Si       8.68365090      30.03174618      12.99543768
Si       9.57097099      32.01467901      13.00187400
Si       8.99261571      28.92861450      15.10138828
Si       8.55019168      32.27312637      16.71806578
Si      11.27405922      25.41781725      14.13108791
Si      12.40188565      27.55451996      14.16870312
Si      11.14059675      28.69345778      15.70167550
Si      11.29580942      27.87265547      17.83502626
Si       7.73627863      30.25654444      16.65628161
Si       7.94730034      26.70644448      14.97757109
Si       7.40756878      23.63769629      17.07315004
Si       8.13684198      25.78300493      17.23039315
Si      10.50632990      25.73325543      17.78134663
Si      30.04314922       9.05762142      22.08061306
Si      31.18316802      12.74207639      22.80112126
Si      29.48487965      10.43982799      16.89615638
Si      30.61463541      11.18297338      21.10459599
Si      32.15675784      11.03413942      19.55368426
Si      33.65224372       7.95318537      21.54611132
Si      31.59200488       9.44239043      17.87409797
Si      34.65630557       6.36247980      18.10928100
Si      33.08434845      11.81999954      23.87543327
Si      34.83532505      11.66710058      22.30416748
Si      33.34387161      14.62087766      20.36393384
Si      35.24303230      13.70602789      21.29795936
Si      35.64704903       7.17452043      22.41261777
Si      37.28115932       6.90771079      20.84269630
Si      36.82752473      10.86966713      23.29752653
Si      34.13059636      10.21497346      20.59537641
Si      35.84721508       9.97773830      18.95298987
Si      37.78547230       8.99403150      19.95491263
Si      24.21345748      39.57295181      18.92463068
Si      25.03712558      38.38097341      15.34193316
Si      21.54081575      39.23860070      16.38157721
Si      23.82966598      34.97016112      14.34024763
Si      20.72481208      38.10464372      14.56582333
Si      23.50285122      38.18725667      17.16066456
Si      23.13740955      36.06144439      17.93066221
Si      22.29483274      34.81754781      16.01342186
Si      24.93498812      33.07695695      11.92701417
Si      26.12102895      32.12470880       8.33610861
Si      29.39057642      32.63287165      11.61371282
Si      27.65577918      33.87343458       8.39445448
Si      26.59342397      35.63866747       9.67115335
Si      27.97781813      37.54707579       9.49001673
Si      27.57848353      30.95470442       5.07297560
Si      28.88535198      32.82657320       4.94908068
Si      29.78386600      33.39402304       9.35971919
Si      30.71221146      31.62814942       8.25005987
Si      30.94047955      35.34316820       9.29072548
Si      30.95351744      32.26833070       5.95902157
Si      32.37252194      34.22367514       5.82751849
Si      29.34021360      36.46351179       6.07325948
Si      31.39258235      35.94632245       6.98175405
Si      18.22268468      26.64298928      33.08361448
Si      18.05818420      27.97762444      37.40912968
Si      19.92195240      28.35685470      36.16795698
Si      22.24037764      26.19546768      38.54146551
Si      20.11919705      26.70706500      34.37411441
Si      22.05886231      27.05689120      33.17372672
Si      21.71961584      30.13999327      39.11212437
Si      25.56286304      30.38269927      39.09260578
Si      21.79095119      28.42884352      37.44786134
Si      23.74946211      28.67446594      36.03921771
Si      23.47641049      30.85546380      35.03549343
Si      25.66209231      28.65144911      37.47280471
Si      22.87681493      26.27251777      28.08867003
Si      23.19311137      24.75551552      26.30087989
Si      25.35624089      24.99182560      25.56190911
Si      27.82123851      23.92706218      22.77766639
Si      23.01917924      28.26144619      27.40059553
Si      22.71518453      29.92506624      29.22346506
Si      25.12901550      28.65894812      26.47296013
Si      24.43013547      25.71474332      29.78991975
Si      25.57706452      27.34778888      24.70486792
Si      28.00321904      26.26120101      21.95152851
Si      27.71762855      27.61283263      23.80983992
Si       5.69637559       7.80774296      28.96454275
Si       4.17191478       6.17710986      25.87503877
Si       3.36621123       2.97911883      28.06705408
Si       3.80733540       7.52591751      27.67733857
Si       2.17686215       6.55287104      29.16141632
Si       1.62306032       7.88942525      30.82407390
Si       2.86511157       4.42425907      29.66499133
Si       1.19448887       3.47659810      31.21668285
Si      16.78123429      38.73434125      23.52282150
Si      20.20453259      38.93781806      21.66019029
Si      18.25480709      37.60355655      22.05253516
Si      18.99289304      35.51628493      22.96152066
Si      20.13710115      36.06903295      24.92070528
Si       3.05233815       1.70088589      29.71277933
Si       0.72701933      38.71926087      29.43286724
Si       2.52850929      37.26097268      30.42273559
Si       4.76637887       0.43589285      30.61428929
Si       2.20843386      33.24013092       0.44714740
Si       0.45909689      33.84904530       1.65613921
Si      38.84988210      32.09542412       1.88408406
Si      37.09898837      32.71602965       3.15892599
Si      38.24859644      14.40406722      25.30337124
Si       0.14842359      11.05631037      26.03021169
Si      36.52327419      11.50961082      27.23254894
Si      36.26806089      13.36303027      25.68979533
Si      38.10782363      16.12385194      23.82327570
Si      37.23993669      15.33407818      21.61499244
Si       0.87705486       8.68874692      23.24911175
Si       3.52339317      12.35787757      23.35662954
Si      39.85051235      12.90626628      24.58323484
Si      39.04824960      11.96371351      22.46838173
Si      35.52379274      35.96808008      25.65927001
Si      35.83979406      35.86877312      28.00883232
Si      33.32811907      35.37051653      22.64231018
Si      37.41872422      34.99914198      24.62759437
Si      35.06780803      34.32967314      21.62685987
Si      33.52075111      35.09799504      25.02122888
Si      33.54389685      32.70298178      25.50055931
Si      35.39820665      31.72935976      24.36921995
Si       0.43967729      23.18979011       0.20817647
Si      37.97869443      25.54452321      38.69010976
Si       1.96683241      23.67667708      38.38497361
Si       0.74621851      24.26665139      36.54830665
Si      36.48487580      23.85230590      38.13831712
Si      39.44919712      22.58955551      35.87488474
Si      35.42882928      24.44140420      36.22821052
Si      38.19413099      23.07030088      33.96112805
Si       2.00098111      27.41896939      39.42912998
Si       0.86170369      27.80910427      37.51999217
Si      35.53132105      28.11859449      37.17629297
Si       2.21349783      24.67163858      34.76770679
Si       1.03615710      25.23061390      32.74336981
Si       2.41150855      28.38554741      35.76863711
Si       1.17136434      28.99877585      33.80058697
Si      39.54771542      26.05893873      36.87846930
Si      36.87967725      24.95164331      34.25379148
Si      38.19509144      26.80377463      34.99882950
Si      35.68527832      25.55754845      32.40816136
Si      36.98357271      28.59414193      35.46175222
Si      39.68387456      27.27606808      33.33236307
Si      34.02889908      26.32642147      36.60612215
Si       2.86082746       1.28455555      19.39828749
Si       2.79753018      37.29778114      17.26113444
Si       4.86161211      38.41742142      17.61760133
Si       5.30412699      39.91328402      15.90673343
Si       2.17953120      37.03509702      21.12345916
Si       4.27076101      38.25027964      21.52436208
Si       4.79206222       3.71763953      21.81844065
Si       4.08645322      39.61196770      23.42708488
Si       6.15723344       0.71657291      23.75012445
Si       6.53888604      36.93221863      17.92862974
Si       6.07549790      35.46385564      19.78982338
Si       5.86647909      36.81509220      21.64135538
Si       4.60652358      39.74848709      19.71468046
Si       7.13010743       2.41491395      18.14662433
Si       6.77709145       0.88002657      19.97264567
Si       6.38106665       2.14480506      21.89548653
Si      13.81788514      35.27492303      18.71843895
Si      16.57348468      37.70978604      17.58324027
Si      12.81566347      35.59385745      16.63587991
Si      15.04895547      37.26607095      19.37700872
Si      13.45963189      39.01768866      19.62114216
Si       7.92383542      26.73610599       2.66794172
Si       7.58971508      26.68464268       6.55950730
Si       6.56855210      25.86849892       4.58921429
Si       4.37864737      26.64573554       4.42475737
Si       7.85350293      29.12829143       2.87761748
Si       5.75255746      29.77798227       2.72081731
Si       3.38287113      25.97623744       2.47690506
Si       4.71625784      29.21029602       0.75734176
Si       7.65456926      28.98260195       6.59788817
Si       5.45913108      29.71156921       6.65664130
Si       5.13238999      29.61457043      10.37567030
Si       6.37322393      25.76410698       8.44171540
Si       3.19319353      25.90714584       6.30913035
Si       4.10753827      26.53521640       8.25156053
Si       4.20912207      28.95324110       8.31599190
Si       3.33973123      32.95653532       2.62503451
Si       4.50876983      28.99075112       4.50050388
Si       2.10149193      29.70231619       4.43710827
Si       1.99778086      32.17024477       4.41645393
Si      34.83351626       0.66637542      28.14783841
Si      34.25646819       0.06680336      24.41730318
Si      34.22686835       2.48096022      24.11627784
Si      36.05093190       0.15427817      30.10266967
Si      35.98674600      37.84428439      30.31510586
Si      38.99058940      37.44254689      28.11941740
Si      35.67661541      39.65594422      26.26030147
Si      37.71010837       0.36122586      26.00744161
Si      39.03029152      39.74084427      27.87222517
Si       1.11007340      34.56687574      20.55019798
Si       2.92202771      34.90326373      17.18007337
Si       2.28047531      36.06437146      19.12894470
Si       0.96130996      37.78238055      18.57351269
Si      39.20479919      33.75163472      19.41063544
Si      37.81445711      35.47347261      18.78932276
Si       0.20383391      39.10327340      20.41232420
Si       1.04772610      34.11391848      16.00676620
Si      39.60382235      35.91337641      15.51749597
Si      35.89013547      34.64136417      17.73617172
Si      36.59148743      33.49535242      15.90895382
Si      34.43369147      36.40528804      17.18903801
Si      38.96805923      37.02400232      17.39382722
Si      37.49331390      38.75607846      16.86598380
Si      38.67163799       0.30527931      15.46555448
Si      35.57550578      37.79932174      15.71105684
Si       5.25522001      38.33219612       9.20420423
Si       7.22505129      37.95141860       5.80994338
Si       5.38789656      39.00193971       6.93570586
Si       5.37680438       1.23237788       6.54761293
Si       7.42249569       2.04165320       7.71730431
Si      38.32927308      21.28958036      17.04313550
Si      38.75222409      18.83249878      19.81050605
Si      35.25376638      18.99695490      18.24671229
Si      36.85515704      17.67878068      19.12684190
Si       1.52225258      21.13725782      18.68509331
Si       2.59094377      22.22801417      16.90712090
Si      39.71905514      19.81564291      18.06251348
Si      23.91623445      24.01801631       5.87722372
Si      24.38468699      26.10745394       2.56356212
Si      23.08585161      25.91877718       4.55602350
Si      20.89601765      25.53936143       4.11225883
Si      37.65715776      12.49920725      28.46918738
Si      38.55083098      13.01732928      30.50539656
Si      37.89083255      19.45530605      29.53465822
Si      39.28837281      15.85956701      27.24043648
Si       0.09521876      16.21347571      29.47438999
Si      36.58709580      16.20358463      30.68805762
Si      38.45432710      17.42414700      30.58041020
Si      39.31616025      17.85970267      32.80485877
Si       0.60858679      14.23752170      30.48148499
Si      39.79988821      15.83150959      33.91892677
Si       1.40782547      14.79014346      32.59952447
Si       3.32337299      15.84400850      32.50963541
Si      24.52013775      32.74648842      31.57951819
Si      25.15885887      32.27578227      33.84140456
Si      27.75317902      35.00636154      33.57212311
Si      30.10746522      32.88910473      35.65577980
Si      28.57038545      36.77533397      34.51932651
Si      29.32768137      36.50164568      36.68341417
Si      26.06271712      34.10700899      34.93785939
Si      24.75975584      32.82513327      38.24964514
Si      26.55421276      33.85306531      36.95028019
Si      28.24017581      31.94977850      36.97515687
Si      30.98259100      34.65444027      36.75419669
Si      21.05906593      13.90580346      38.11881813
Si      24.65721054      15.09953803      39.59070343
Si      15.78374596      13.67966530      35.93406450
Si      22.52653050      15.83563909      38.75842234
Si      19.21280403      14.71389804      37.37434415
Si      20.54666742      14.80710677      33.79239098
Si       5.27732407      12.07186087      32.45024737
Si       7.10921994      10.60572828      32.00781948
Si       5.20869797       7.95244098      33.94883372
Si       8.76807188       8.22503496      29.66774934
Si       9.04633332      11.97229753      31.90206451
Si      10.87269414      10.61332270      31.40915220
Si       5.48190182       6.35126198      35.63975704
Si       7.37977151       9.21129282      33.82522891
Si       8.89196777       6.72550461      31.31875464
Si       9.12236488       7.74706308      33.31574345
Si      11.04778229       9.14388003      33.43558702
Si       9.29870479       6.24287345      35.18920800
Si      25.03798853       8.61285561      20.12891390
Si      25.03746968       5.79475792      23.49656849
Si      23.65710177       7.60011601      23.47252436
Si      26.46136315       9.95535413      23.32840984
Si      24.64178690       9.31781087      24.47859420
Si      23.50733294       4.37005318      20.25643333
Si      22.07008722       6.25324265      20.23750202
Si      24.55628455       9.25615669      17.75968462
Si      21.69043549       6.79585627      17.86930583
Si      20.14811685       8.63737969      17.83039532
Si      20.04988724       8.78065638      24.51352263
Si      20.09296572       5.64196264      21.29151284
Si      18.49004266       7.46899334      21.10587474
Si      23.08369289       8.09657085      21.19573295
Si      21.55181454       9.90700859      21.14815248
Si      19.57150961       9.30529223      22.24398797
Si       7.07727324      11.47628945       6.15789285
Si       6.31118442      12.72052130       1.97539718
Si       5.09976251      12.72603905       5.73412280
Si       5.80853409      11.22262567       9.92634885
Si       3.88668962      12.39289255       9.42197196
Si       5.44603891      14.96390356       5.88485097
Si       4.34815294      14.65795631       9.65222514
Si       2.44600104      15.94361695       9.05227411
Si       2.87553264       9.72057231       6.77092643
Si       4.46374879      12.13082059       3.37807476
Si       4.02171103       9.96575925       3.15522730
Si       2.32169691       9.39559477       4.57536128
Si       2.17113176      11.83852666      10.66856594
Si       1.69410738       9.46454128      10.49778588
Si       1.20312811       9.15901000       8.23856614
Si      39.09951300      10.40794170       7.59900797
Si       3.33932494      12.03627005       7.03669340
Si       1.82948367      15.57446738       6.79672426
Si       1.33953690      13.29334219       6.45056826
Si      39.67822528      12.62629716       7.95970329
Si      17.79163573      20.37628776      20.60840778
Si      14.35415327      19.79334584      19.57009049
Si      16.90722637      21.44371002      16.39325057
Si      16.19310660      22.74384990      18.25700696
Si      17.08098690      25.89395216      20.58806988
Si      14.18942576      23.93807268      17.58712719
Si      13.44337969      25.11743791      19.42751482
Si      15.93312176      21.37271522      20.05788366
Si      16.80742936      24.15576799      22.36288079
Si      22.05375899      15.59229687      16.64654348
Si      22.98157150      16.03217995      20.36751945
Si      23.34088904      16.70115231      18.06166971
Si      23.22870829      22.74115840      23.41829799
Si      19.44410770      25.30901999      22.44010177
Si      23.26919799      24.71527108      21.91145350
Si       1.00009044      23.51549557      20.13045354
Si       2.20814513      21.69891860      20.58318306
Si      37.80501185      24.91144325      18.33714672
Si      35.90165336      24.14250505      17.03464260
Si      36.48619227      23.06460817      15.17260098
Si       2.87983334      24.08301022      16.65296799
Si      39.00256596      26.34023017      16.91121500
Si      38.98635246      22.97086224      18.86854789
Si      39.62237721      22.03851171      16.70562691
Si      22.53818273      28.17305133      20.27659845
Si      21.64587065      29.52742784      18.45543327
Si      23.41903452      29.59453867      21.82936989
Si      21.57747863      30.91866333      22.82583462
Si      21.42948330      26.24033039      23.77573820
Si      19.18484781      29.58469095      21.98161148
Si      22.45223739      28.29326316      23.31299231
Si      20.10538893      30.22541810      25.70271515
Si      22.35872774      29.56028910      25.19913021
Si      20.07484932      27.10093183      28.05148344
Si      29.03417974      21.08965751      10.47818810
Si      28.55122217      22.72746409       8.94014212
Si      26.85888599      21.95838287       7.50815265
Si      28.24349570      24.37534738       4.71501693
Si      27.62892679      26.01979835       3.10715957
Si      26.37844828      23.67111202       6.04844836
Si       7.66267250      21.33452853      13.41722118
Si      11.56804146      17.79712886      11.91404948
Si       9.58093949      22.00651947      12.30215238
Si       9.81624114      20.76740023      10.30472615
Si      13.47653647      21.93857450      12.72493656
Si      13.56723081      20.90464649      10.56002335
Si      13.62116586      18.54323452      10.86759450
Si      11.86762491      21.54119345       9.28901053
Si       7.76257621      17.88085061      11.55306118
Si       5.74018892      21.95376848      11.98332141
Si       7.88512267      21.42490183       8.86404945
Si       5.90791079      20.81401303       9.95788719
Si       5.91883912      18.51181327      10.27779913
Si       9.90842689      18.49437170      10.61104473
Si      31.43844132      36.96361228      37.93941697
Si      28.32236223      39.14807544      38.62430294
Si      29.94014199      38.48642989      36.85302730
Si      31.03042326       0.37329954      36.13277283
Si      32.53327514      38.05523340      39.64057639
Si      33.63136576      39.92733538      38.84121281
Si      32.98620151      36.28510290      36.12425762
Si      34.13757771      38.18580758      35.36275665
Si      35.08872620      39.20390638      37.13082501
Si      29.53485260       0.07144150       0.45667494
Si      30.63976973       1.99141533      39.59106979
Si      29.48727970       1.85840952      35.15468129
Si      34.91764893       0.94217611       0.58535720
Si      32.20933335       1.49122106      37.81038369
Si      34.83347748       2.72239613      35.51156190
Si      33.26632858       3.20996757      37.10432756
Si      37.97710855      26.52732085      22.74956674
Si      39.21817958      30.07263980      22.10670950
Si      36.96132827      28.54109992      19.46939736
Si       2.17980460      27.33235207      24.12709426
Si       0.36242376      28.02593628      25.32069006
Si      37.31473583      24.92532237      24.30618122
Si      38.72681494      28.56646124      23.74764703
Si      36.59377505      29.38017221      24.95049598
Si      35.86005059      27.57789001      26.45441161
Si      13.97755170      11.94773809      24.67723035
Si      15.59366185      12.85714441      20.38757611
Si      16.57920685      11.04146430      16.35939627
Si      13.98334836      11.69580548      19.12794759
Si      12.98576991      13.39373663      23.14696581
Si      11.34461802      12.24453342      21.81529929
Si      12.82661269      13.22723126      17.64499875
Si      15.15389582      10.22525623      23.12158891
Si      13.43653220       9.30212408      21.88480138
Si      17.81937771       9.61827755      20.36126943
Si      14.98000688      10.07895442      17.72588161
Si      16.03863748       8.48226827      19.03254205
Si      13.31124438       8.97858608      16.40366762
Si      12.44608037      10.72765087      20.54602725
Si       9.60695283      11.22088679      17.94569118
Si      10.75435492       9.67957908      19.19626371
Si      20.83904454      37.42091328      22.57252696
Si      20.38270097      34.26624630      20.33622500
Si      22.54446012      37.15836330      19.21309239
Si      18.40596638      39.51404005       9.19649701
Si      18.13808881       2.53268754       6.69781006
Si      17.00878983       0.55697206       7.69342569
Si      16.28007577      39.17762750       6.15308526
Si      20.35572923      38.82307439       7.89356564
Si      19.47336686      37.26395066       6.23539298
Si      16.57749943      36.31233541       8.54604960
Si      15.06588231      37.38701642       7.25795996
Si      18.50682315      35.38638531       7.34760006
Si      19.91441220       1.64512964       5.38685183
Si      18.98859016       0.27202134       3.71763393
Si      15.90929776       1.97156483       3.61623526
Si      17.70019365       1.19331916       2.42623641
Si      16.74716946      39.76506466       0.74782020
Si      20.86666114      39.28219017       2.47490634
Si      18.02294517      38.35760550       4.84805920
Si      17.21917005      36.82003868       3.21281020
Si      15.64174740      38.02050866       1.83951484
Si       0.68290002      17.79855093       8.15932792
Si      38.46887639      17.86735482       8.58799339
Si       1.57150749      20.51582021      10.81585799
Si      39.24400739      20.53281784      11.20397462
Si      38.32903830      21.66866467       7.83749839
Si      37.36562243      19.47763771       7.39779687
Si      35.90933544      22.20202104      10.69812088
Si      37.54251709      15.83346900       8.36955293
Si      38.40276378      18.41407740      10.97648779
Si      34.98035347      20.15404770      10.19627704
Si      36.04762590      18.50932784      11.51769671
Si      32.53400443      20.33219573      10.76367124
Si      34.97896345      16.45833607      11.08983683
Si      33.50796845      19.28606382      14.40426725
Si      35.75319183      22.92634115      12.79189828
Si      32.47843474      20.86492824      13.16087140
Si      16.83887340      14.62628916      18.21110964
Si      17.01877178      16.32463917      19.85291210
Si      15.36386064      17.82957741      19.46884385
Si      14.84302659      14.34616322      22.15757483
Si      12.90703566      15.85314749      21.65739971
Si      15.01128239      13.52783659      18.33041511
Si      13.14002280      15.02715248      17.90296661
Si      15.71438202      18.85135883      17.25389222
Si      15.54131550      17.14385958      15.52987731
Si      11.08505538      14.00196011      18.12446505
Si      13.21364148      16.86611694      19.53879086
Si      11.49252656      20.05589912      20.68571536
Si      11.41983935      18.35180360      19.06207071
Si      14.80697551      19.81804142      25.68277945
Si      12.68110001      17.10978695      24.13463224
Si      12.44475199      15.11667238      22.98403372
Si      14.66769156      17.78044174      24.57664331
Si      15.96051349      17.84081315      22.53230742
Si      34.53957935       8.69891406      37.62253800
Si      35.36538145      10.76417909      36.59746214
Si      30.86406329      10.12093810      37.59200205
Si      31.77805565      12.13887883      36.43662822
Si      33.26491096      11.01134418       0.66889338
Si      33.98391143      12.89730476      39.49678366
Si      35.83787900      12.21856605      38.23263419
Si      32.41170025       7.83906512      34.76372995
Si      33.04154195       9.71077548      33.54311783
Si      35.00780819       9.33463077      32.20519739
Si      33.64076139      11.45652554      35.18161875
Si       7.82642600      16.14786977      39.71303966
Si       5.88262956      17.43982341      39.28353778
Si       4.78622856      14.99423689      36.56122368
Si       3.46301948      14.69501916       0.16105170
Si       4.10698233      16.97984878       0.77440714
Si       2.94257202      14.35350023      38.12614391
Si       2.17844871      18.25913155       0.19072372
Si       6.59103036      19.65650045      39.58593058
Si       4.71070179      21.04108701      39.08071152
Si       3.54273269      18.56300889      36.41387510
Si      29.89980236      35.86584838      29.57733793
Si      30.23295030      33.85274261      28.50323528
Si      34.02883788      33.73954073      29.45623910
Si      29.09036855      35.32096176      25.16316384
Si      30.81617784      34.15847751      26.26832619
Si      31.21682148      32.11783266      25.12752547
Si      29.22537489      30.86456171      25.21679164
Si      31.50762400      15.77228839      22.29092179
Si      31.62310579      13.94052301      18.82180138
Si      28.72247004      13.24106250      21.40998276
Si      34.39956364      16.41991371      19.93833414
Si      32.13638904      15.93803328      20.23270832
Si      30.83902518      17.74903005      19.13294722
Si      29.22455884      15.20140619      22.48187992
Si      27.97090340      16.88602567      21.53510213
Si      31.45094200      19.66146769      20.32522723
Si      29.99882901      21.47533774      19.23201958
Si      29.32520186      13.50163848      19.14067216
Si      28.93289567      11.46805344      17.85029549
Si      28.10300092      15.20796294      18.11633122
Si      29.50073362      11.72010592      15.69975750
Si      31.52643379      17.90740867      16.83883172
Si      30.99867851      16.04218753      15.74153267
Si      30.20825415      19.59896486      15.83354597
Si      28.71689347      15.51526660      15.99249878
Si      30.87302637      19.90649333      13.58589087
Si      25.65168753      16.45509065      21.62917072
Si      28.58853568      17.25968693      19.37369153
Si      27.86304080      21.01955378      19.45847404
Si      27.36376118      19.00324114      18.19618566
Si      28.02904962      19.26665221      16.00994241
Si      30.71588965      21.62637616      17.09208531
Si      29.56000784      23.50123470      16.07397067
Si      12.26954421      31.76471652      35.40278936
Si      15.14369819      35.49291890      38.00796458
Si      11.34558419      33.77607221      36.34007092
Si      12.49166359      35.56663791      35.25446873
Si      14.33096890      37.65407248      38.90194819
Si      14.58786646      31.61127729      35.90991728
Si      15.58889391      33.40169895      34.82456402
Si      12.07135665      35.42296410      33.02089360
Si      12.82679986      33.30790674      32.05300403
Si      14.73153833      35.48064195      35.70521987
Si      14.96159142      39.25989592      35.49851496
Si      15.76201665      37.22756436      34.58042945
Si      18.02833447      37.19109580      35.04029094
Si      26.45384919      30.62157960      13.05178354
Si      26.30160646      29.20151279      11.10059855
Si      22.92928800      31.10341445      10.02838870
Si      23.87256840      28.91697315      10.54563953
Si      23.80760601      27.56126694       8.62373232
Si      27.25775176      30.26679522       9.12774381
Si      27.16885081      28.89153169       7.40048998
Si      28.09589234      26.70937480       7.82604713
Si      24.26135633      32.01503764       8.27916591
Si      24.02828628      30.58467638       6.29625813
Si      28.18245456      28.33432556       3.71373962
Si      25.07422947      31.62299916       4.48793592
Si      24.85189904      30.35385943       2.56686251
Si      24.87403753      28.56316846       6.90206734
Si      25.86438580      28.23702353       3.05616031
Si      21.57052418      14.70847687      31.41887731
Si      24.06369542      17.09999764      29.93400655
Si      23.13778648      15.95342411      26.46100686
Si      21.64287249      10.90099863      30.57759025
Si      23.06778812      14.36646196      33.32107980
Si      22.62495500      12.05761908      34.04750264
Si      23.22776820      10.63934151      32.54509659
Si      21.16124025      12.00672863      26.22516482
Si      20.86528297       9.79869600      27.03159074
Si      23.39614225      12.32662574      25.54351475
Si      22.36925435       9.47692560      28.90730345
Si      24.49773158       9.64045798      28.13887216
Si      22.12565446      13.09052634      29.72971976
Si      24.60267546      15.62316120      28.26543489
Si      24.29110236      13.45882706      29.26148480
Si      24.80465151      11.89935709      27.43102503
Si      30.88270234      17.45716730      31.77222196
Si      28.44850777      16.39206214      28.99788556
Si      33.92816599      19.50715109      31.05569948
Si      32.52587829      17.79895594      30.20975443
Si      33.79940641      15.79251530      29.87031519
Si      31.52906528      14.82929604      27.11541852
Si      29.29302099      13.86715898      24.16124638
Si      34.68871300      17.05951498      26.40818207
Si      35.49706705      16.40524517      28.44958211
Si      33.22281195      15.23991063      25.57001238
Si      34.61353304      13.38001733      25.12317691
Si      29.48068477      15.78167061      30.99580990
Si      30.85878588      13.64020170      30.48159059
Si      30.10341150      13.19832919      26.31077286
Si      31.43582986      11.18314446      25.89647493
Si      32.47043551      14.18013421      29.12165770
Si      33.78092808      12.20071370      28.84689641
Si      34.76477231      11.51610949      30.86590418
Si      26.69285445      10.17464529       4.72480863
Si      26.22068964      13.85565056       5.60380549
Si      25.76559744      17.58412574       6.53279838
Si      27.86617864      13.72698722       7.23609685
Si      29.54782147      17.98087935       6.90792439
Si      26.19178277      16.07095483       4.79592448
Si      27.99897349      16.56156176       3.69941809
Si      26.46332635      12.35811426       3.81731901
Si      30.44161011      12.67414598       4.34991318
Si      28.63111417      12.82975063       2.73325053
Si      32.31076317      13.32867174       3.22697672
Si      28.45878797      15.13926518       1.93797414
Si      30.40505853      15.47455192       0.82101767
Si      29.38044526      20.17516274       6.00364247
Si      27.87649031      18.74740754       2.92215095
Si      29.80962016      16.49819495       5.30572124
Si      29.90264513       8.09135578      30.02189728
Si      31.57544687       9.56658493      30.82723915
Si      30.10581285       9.52887302      26.67977934
Si      30.35728789      11.59610227      31.54205468
Si      31.97186094      13.15848318      32.19400849
Si      33.86427878      20.69807921      39.45121991
Si      31.72672414      23.20517987       1.54336070
Si      35.24669805      20.33042096       1.37626493
Si      34.25345841      18.53185168       2.53474669
Si      31.81026936      21.33149049       0.25830505
Si      30.72280293      19.56798628       1.40576841
Si      34.08591779      16.49874127       1.29673036
Si      30.64754275      17.75608887       0.08675584
Si      33.11472064      14.72768175       2.49375438
Si      29.90969285      21.57655416       5.28595528
Si      31.96934092      19.05754074       3.27464670
Si      30.49851071       3.65627337      39.92008263
Si      34.77461523       4.24834379       1.45185804
Si      33.55233053       5.93051478       0.62496704
Si      33.77935706       7.77953380       3.75445603
Si      32.40504682       7.03323117       2.15942303
Si      31.08494936       8.78801673       1.22319808
Si      36.14419000       6.23160278      37.83455854
Si      35.11023840       7.47382267      39.62040137
Si      32.09832720       5.15902038      38.91680923
Si      30.78885366       6.89860888      37.90085354
Si      29.68947184       7.93054055      39.60962853
Si      29.92704138       9.99866007       2.92525375
Si      11.63866550      34.14670575      39.85169628
Si      14.09806022      34.62395399       3.46738831
Si      13.62581824      32.54810511       4.68750703
Si      13.68146245      32.69064476       0.00487540
Si      10.59279486      34.50428693       1.78717382
Si      10.11917271      32.42614831       2.97724738
Si      12.17160945      31.18648630       3.36608159
Si      24.04312946      34.18583332      37.15495836
Si      26.96712232      38.77880480      37.23744554
Si      22.71686151      35.06423465      33.79681000
Si      26.44471698      37.59070488      32.85231771
Si      24.84243057      36.84044754      31.15654576
Si      22.89926585      36.56144560      32.06556057
Si      24.09480526      35.62533413      35.44362801
Si      24.89137964      38.47251880      38.06575493
Si      23.49221179      37.64421977      36.40374210
Si      28.37172300      21.53296180      36.97336311
Si      26.27740974      22.57159158      37.43778103
Si      26.56916922      25.00145757      37.65105058
Si      25.87003428      25.36252795      33.87468502
Si      31.10484781      21.20023732      34.34364787
Si      29.46219408      24.55738057      35.04053436
Si      33.07122918      23.88378044      36.31084015
Si      29.79847189      21.93294985      38.70688830
Si      28.30971143      25.24283753      39.41065633
Si      30.24331084      24.29088904      38.78686914
Si      28.62390387      27.54808115      39.60499814
Si      31.12824532      25.09525121      36.76354050
Si      31.52867820      27.44338698      36.90088314
Si      27.68912358      25.76250079      35.61518350
Si      27.98362938      28.18651768      35.71675943
Si      26.57582555      28.68145193       0.06497039
Si      35.87376160       1.88286570       1.67500535
Si      37.89560378       4.28529699       3.59956550
Si      37.13814614      39.94257643       2.41301188
Si      38.81927459      39.79932658       0.90345971
Si      39.30347750       2.59972614       4.31643807
Si       1.19094536       2.29411409       2.82672526
Si      37.14232100       3.54681874       1.47112427
Si      38.72428812       3.35950125      39.93535712
Si      38.56781349       7.17399510      38.98406268
Si      37.86769913       2.91525020      37.76553625
Si      39.63736250       2.57871270      36.31007404
Si       0.04878210       5.43741415      39.82215972
Si       0.07473777       1.74469964       0.80738512
Si       3.41930903      39.88125070       0.07432688
Si       1.92202472       1.43636660      39.19776857
Si      35.81597791      38.38454972       2.57182219
Si      34.79017397      36.20929945       2.28664552
Si      35.13494174      35.15374864       4.32886472
Si      34.19219216      32.99287759       4.31176054
Si      34.85018478      31.67606321       6.25690337
Si      34.42594151      36.30725941       6.24896378
Si      37.56364793      34.85320728       4.55411611
Si      38.14141315      33.77770131       6.68642447
Si      12.68565375      15.71564643      29.19243820
Si      10.81173376      15.71656290      25.81306961
Si      11.75364788      17.01223983      27.55685727
Si      13.29606150      18.49159419      26.51223119
Si      12.65520181      14.39955258      24.93305669
Si      18.91806055      32.02966140      39.56300186
Si      16.53111253      32.33620082      38.98782593
Si       6.97696257      13.75775862      12.62585060
Si       8.34648776      13.21475282      10.68720564
Si       7.02842533      13.53828455       8.74212690
Si      11.49534715      14.15483631      12.49164260
Si      12.23135707      11.93356316      12.66262212
Si      10.27465080      14.51628658      10.70514590
Si      30.64086460      12.90285462      39.79974739
Si      27.14426363      13.43064225      38.77808772
Si      29.28583838      16.38856480      39.94762590
Si      29.01864825      12.15348742      38.39028473
Si      29.74447324      12.52550578      36.17921406
Si      31.30086686      15.20589471      39.44849883
Si      31.90489297      15.42039511      37.33440338
Si      27.60287775      15.87470211      38.51364106
Si      28.35526855      16.08062117      36.31578991
Si      25.39590096      12.95617166      37.35777301
Si      26.58924231      15.45464125      34.77561043
Si      32.42300529      17.74036044      36.97118489
Si      30.62621623      18.98274239      37.25941303
Si      28.87277278      18.25521070      35.78147992
Si      29.51360022      18.61556726      33.65164535
Si      30.24603132      14.68686043      35.77125056
Si      30.85885797      15.04828219      33.65946914
Si      31.51805555      17.44495739      33.27222913
Si      20.17010802      13.73102634      27.42204069
Si      17.65934006      10.15785908      26.81348891
Si      16.92638094      12.16619959      26.07886843
Si      13.83300976      11.92557526      28.17408455
Si      14.65764362      12.21888292      26.29140208
Si      17.80245575      13.83186125      27.54260867
Si      17.06423811      15.88950406      26.75744427
Si      35.51417734       8.87659226      30.51157788
Si      35.57434411       3.42141056      29.88392952
Si      36.82129483       1.94201635      31.07190888
Si      38.32624427       0.57478824      29.70160551
Si      37.12368816       4.83174004      28.81952426
Si      38.61188650       3.77656590      27.40653555
Si      39.79587696       2.25139818      28.80666360
Si      36.59414010       8.95691433      23.36935643
Si      37.04898377       8.30647281      25.66071656
Si      34.43912114       5.91564996      22.64488098
Si      34.74943186       5.01062469      24.84197717
Si      32.74212283       9.07314425      24.06756636
Si      33.21383691       8.36186666      26.17061190
Si      37.23664797       9.99143629      26.90139709
Si      33.34511766      10.20484962      27.65122407
Si      35.07303889       7.01051594      26.33133246
Si      20.69589427       4.03492531      17.55710413
Si      20.47995789       6.52515474      14.61657367
Si      20.85913954       3.58578619      12.09010439
Si      19.26984595       7.72301223      13.15715708
Si      22.20005139       2.78279284      16.26127761
Si      23.38451054       4.07492897      15.01660394
Si      21.78174667       8.14189026      15.96562956
Si      24.64845511       5.71175032      16.21474940
Si      21.97993354       5.11275456      13.33230181
Si      33.73481252      19.74618870      37.81793636
Si      33.18105957      21.28802296      33.53646583
Si      34.02093120      22.62746533      35.29062328
Si      35.04165479      20.31643635      32.60204557
Si      35.26762752      21.44495484      36.83693143
Si      37.04107723      20.32357156      35.83234122
Si      35.00115887      18.50244318      39.24718398
Si      36.73586407      17.30597151      38.26544309
Si      36.24059101      19.02064822      34.26195382
Si      37.18917622      21.39693690       0.10253041
Si      38.93188165      20.29593486      39.17072960
Si       0.46382787      21.97870910      38.23941837
Si       2.33881953      20.75778049      37.12701174
Si       0.09303851      19.04775100       0.72778923
Si      38.04770607      18.91978514      37.41546200
Si       0.02508046      17.77874574      36.39339033
Si       1.11919946      16.54386233      37.86616880
Si      30.51452311      27.96089229      12.97441731
Si      30.73507821      29.47943824      11.17518855
Si      31.96494954      26.15287598      12.54339209
Si      32.88110779      30.22922911      10.81121717
Si      34.27852814      28.41400555      10.47648406
Si      37.18352378      30.27313433      12.13793136
Si      34.15480524      27.03155224      12.27506882
Si      36.56064402      30.73223252       8.51479531
Si      35.88906173      29.72946517       6.47474667
Si      36.44840092      29.22776405      10.21477702
Si      37.87882911      27.34318445       9.78784618
Si      22.90989686      37.67024984      37.92315224
Si      23.07936055      34.34042893      39.86468188
Si      22.99983029      38.88024747      39.83352119
Si      21.82141744      34.25227609      36.28270714
Si      21.76937819      35.46645132      38.21212603
Si      19.69485627      35.77718917      38.83616411
Si      18.52966114      37.07419989      37.39061371
Si      18.91840512      18.74769017      31.21698696
Si      21.70517027      19.27485347      28.66051039
Si      17.51770255      17.62461952      29.46163990
Si      21.62548207      21.36357483      31.74125178
Si      17.55387885      19.75327374      32.58956019
Si      16.25753613      21.43750354      31.53814128
Si      20.30126075      22.36157960      33.39154044
Si      19.10485720      24.01934092      32.26436093
Si      23.08302066      20.77929154      27.53749669
Si      24.48920912      21.85117491      29.22702529
Si      21.90085502      24.55716888      29.75212283
Si      20.27166404      20.44993990      30.12976808
Si      18.95236524      21.98261788      28.95764396
Si      17.67649030      22.97927868      30.65783941
Si      20.46743622      23.56491714      28.03554979
Si      20.44674235      25.54452925      31.40682773
Si      14.41617629      24.94469274      38.20472928
Si      11.85833107      23.38679973      35.70882042
Si      11.25114983      23.43328240      39.51518070
Si      15.24272092      24.94373773      34.30082622
Si      13.62315303      25.12971683      36.00063425
Si      13.24565011      27.34214487      32.01698518
Si      12.39554530      27.20155152      35.68068033
Si      12.89618957      25.16507567      39.68640301
Si      11.66994983      27.19303372      39.57560000
Si      11.09355317      27.15171699       3.34959123
Si      16.07763097      26.75916400      38.33680522
Si      14.97550071      28.82696382      38.08225550
Si      14.00359821      28.96649828      36.01025807
Si      13.27565093      28.96039373      39.87541721
Si       9.10802674      25.64363971      37.14038090
Si      11.39076846      27.32077128      33.77215501
Si      10.08206304      27.44463689       1.24600700
Si       9.09911452      29.39647765       0.93009530
Si      10.77482759      27.40583475      37.34762141
Si      11.08351621      31.22947545      37.52751110
Si       9.70104957      29.37771181      37.31490245
Si      12.00173555      31.24795033      33.78776407
Si      19.13922118       3.39762743      37.44561776
Si      20.77843902       7.43052455      36.48275386
Si      19.64300536       6.20535609      34.82842519
Si      16.90051253       4.00604853      37.83721132
Si      19.78293029       3.81388090      35.29348705
Si      18.55524356       2.72620856      33.79324012
Si      16.27721079       3.36285637      34.10315903
Si      11.95847779       4.99795541      23.14351244
Si      17.26203053       6.87467344      19.69892114
Si      15.85752235       7.11708938      23.98862960
Si      14.37519653       7.67771754      21.99507009
Si      14.90338008       4.04729317      20.83239287
Si      12.58325646       3.63922039      21.33698169
Si      15.13251413       6.34876438      20.17725908
Si      12.19829603       7.27983589      22.55645083
Si      15.60622069      16.50601959      38.28225689
Si      13.13296766      13.00965243      36.66999810
Si      12.81040679      13.76997844      38.95759873
Si      14.28904494      12.63254653       0.26517718
Si      11.84958430      17.30325779      37.69274009
Si      14.61959829      19.83676958      37.13743155
Si      12.47224660      19.70567147      37.83276967
Si      12.05974927      20.33585253      39.97088765
Si      10.55830548      13.43418100      39.53791311
Si      10.21474761      14.29942570       1.90636192
Si       9.51270399      17.72293480       0.57315625
Si      13.41466021      16.09899116      38.99146206
Si      13.13370155      16.88069446       1.15326197
Si      13.60704634      19.16364328       1.42180759
Si      10.77519084      16.50572767       1.88449858
Si       9.92119474      19.99582667       0.69851020
Si       4.83209424       6.86246061       6.39884056
Si       7.71578128       6.32255483       3.97324282
Si       5.69784091       9.44976805       3.82716467
Si       7.73225537       8.62407761       3.63713237
Si       6.93544680       3.52869925       6.66529904
Si       9.05148759       2.68801796       6.35004066
Si       7.02004806       5.92625693       6.12335588
Si       8.54582133       9.23128320       7.45387243
Si       8.49181120       6.98649967       7.70896200
Si      16.96044325      20.16048871      22.89691088
Si      16.09366892      24.21941168      24.24736923
Si      14.75895627      23.25157494      22.69400821
Si      10.30010233      20.08632570      23.64295923
Si      14.82269029      20.96748000      23.12774612
Si      13.44431858      19.74332315      21.33709827
Si       5.92354837      23.52059340      32.97242317
Si       5.49071617      24.02437086      28.59370931
Si       4.26391793      22.31583208      31.71895479
Si       4.83651366      21.80500792      36.18104600
Si       3.20029871      20.69163494      34.88349826
Si       2.36289292      23.58475145      31.67719296
Si       1.15081381      21.76556038      34.90705645
Si       5.12590900      22.08096009      29.55461690
Si       3.88825402      20.26298050      32.65477013
Si       0.29795574      20.35455605      31.56441013
Si       2.28953269      19.15726006      31.62333944
Si      38.04163799      39.30040831      32.43320722
Si      34.27804730       0.29339547      31.61762369
Si      36.44761526       0.99688111      32.77046066
Si      36.20378545       1.47776713      34.90367571
Si      33.60681861      38.33461443      32.77141961
Si      31.55000712      37.87374472      31.91806943
Si      32.85557873       2.02797091      31.96485905
Si      32.52096133       2.47647960      34.31183764
Si      23.22400643      39.78868355      30.69210696
Si      25.27274033      38.05166587      27.94468683
Si      24.28673310       3.32725090      31.69967741
Si      24.82257466      38.73278785      32.29881674
Si      26.85749399      38.43178545      31.42297724
Si      24.17649396       1.78979992      30.00785123
Si      26.06781782      39.99498963      27.11122334
Si      26.29745907       1.47907478      28.95853554
Si      27.55988971       0.49124203      30.67720615
Si      26.55828746      36.86951362      29.55131615
Si      11.62390507      29.50432802      19.23779698
Si      11.51485768      27.69745143      20.78690681
Si       8.53692520      29.40181672      22.43068018
Si      10.73070305      28.57244790      22.80609140
Si      16.30469937      34.02986800      23.08086321
Si      18.43174627      33.10492604      23.29288781
Si      12.81334915      33.76886898      21.16493168
Si      12.99423665      34.80497743      24.93442115
Si      12.66821861      32.53078153      17.64963743
Si      11.63880220      32.55773113      19.77353021
Si      15.01873372      32.77956187      21.50288246
Si      14.85188615      30.47938048      22.22502254
Si      33.14977030       2.36153255      22.23777107
Si      33.16826016       0.19116388      18.98255694
Si      32.82273497      39.96426615      21.31328022
Si      34.24968733      38.61375840      22.28544504
Si      35.27179661       2.93917194      21.89335997
Si      36.81186776       1.38951240      22.97453132
Si      35.46859968       0.93632886      18.53433476
Si      36.86999007      39.37940829      19.69603112
Si      34.23320133      36.62573547      19.08508739
Si      36.44131727      39.33400750      21.95094074
Si      37.96050402      37.76249489      22.95918271
Si      37.59590490      35.60509714      21.95937764
Si       0.09107523      38.47402344      22.51267263
Si      22.40580802      19.39415398       5.47987077
Si      26.05090465      20.17271989       5.25897633
Si      21.89026522      20.98505053       3.89290133
Si      23.72119292      21.29094134       2.45718379
Si      26.46855436      18.32225417       4.13688788
Si      24.58646014      17.53223980       3.07366634
Si      24.08425041      19.18494349       1.40547132
Si      25.80557517      19.49397093      39.94185444
Si      23.21536606      22.93760341       1.01622760
Si      25.66141886      21.82554599       3.61086222
Si      29.40180265      22.81438630       3.42593416
Si      27.38734985      22.08071821       2.10927388
Si      27.81145250      20.11536242       1.01406391
Si      26.89455032      23.85509544       0.62407776
Si      33.69286787      13.80121886       3.64679459
Si      31.09552432      13.61713040       6.61806696
Si      32.74395516      16.54816472       8.22983721
Si      30.68483422      17.33505622       9.01681267
Si      28.60236101      13.50958371       9.33725774
Si      30.11406554      16.46610181      11.21482948
Si      34.91013393      13.35536091       7.39402136
Si      33.58817975      11.38373376       3.56374277
Si      31.10570761      11.32570143       6.43070466
Si      33.08399018      10.55445420       5.63818055
Si      30.49720841      10.27181068       8.44309736
Si      33.04566415       8.09553416       5.54127230
Si      34.68645539      11.14822181       7.27048266
Si      34.31089882      10.11007193       9.21592477
Si      30.45170146       7.85855849       8.29725452
Si      34.51072814      17.18369990       9.97972562
Si      36.53950588      14.04884029       8.98483312
Si      32.70814320      14.33398000       8.10034994
Si      30.09533683      14.10234324      11.00629546
Si      32.19469614      13.27340680      10.21225251
Si      32.12107160      10.98910181      10.00345907
Si      33.70511815      13.91416524      11.76070993
Si      31.60424752      10.00551119      12.17154805
Si      28.39099283      11.04935716       9.18416607
Si      31.79915528      17.03319780      12.55592270
Si      19.18551505       1.59240152      16.75120011
Si      17.30781568       2.47419895      15.43911549
Si      20.56087533       0.16414602      13.25570493
Si      18.82357033       1.16467944      12.24918475
Si      19.66442950       4.68878779      13.30946618
Si      16.61553300       4.37757388      16.64076422
Si      18.35052825       5.99011146      16.67846638
Si      14.67999860       5.28162628      15.46985300
Si      19.46339164       1.52631234       9.96925111
Si      17.94311599       3.00780181      13.25451771
Si      26.65704967       3.63746989      16.09568434
Si      27.25864651       1.31710413      15.69410138
Si      23.45218504       2.62521271      17.90851491
Si      27.12512070       0.83154319      19.62475231
Si      26.21793433      39.64175268      21.33980331
Si      26.27623524       0.26969163      17.47199840
Si      29.43553796       9.30550059      34.79010810
Si      29.20510427       7.76881896      32.77951717
Si      25.45150754       7.26083601      33.45238377
Si      25.06756656       8.63074144      31.43434130
Si      27.58600870       6.09904629      33.09209552
Si      27.51569385       4.69482906      31.33886712
Si      16.50260423      17.69063596      33.12732063
Si      16.53885619      18.30249757      35.47116847
Si      18.40074282      17.10548179      36.39029029
Si      18.45794362      17.79833216      38.76909686
Si      25.58210431       0.05562322       3.29572055
Si      28.10322124       2.78055029       3.85569408
Si      23.24966850      39.46637478       3.75291672
Si      22.92764362      39.23391204       6.03968720
Si      28.55443167       4.96137945       4.89159210
Si      27.09615100       6.41186320       3.92689039
Si      25.83772017       2.15559969       4.29377289
Si      24.55100379       3.89127160       3.28880214
Si      24.81848143       5.91387652       4.38370790
Si      27.53140682       8.65264618       5.01493717
Si      37.63514538       7.26623370      14.33231288
Si       0.99832645       6.47225978      12.92900539
Si      38.84678526       6.31903263      17.94800242
Si       2.12864424       7.33431566      14.81806319
Si       2.29189312       5.51748094      16.44503580
Si      39.91001014       7.26409209      19.84009918
Si       3.38777898       6.39671795      18.41443197
Si      38.97985569       5.49816944      13.48407765
Si      39.18474977       3.93199743      15.08520529
Si      35.50911991       6.26941627      15.02249039
Si      36.79327541       5.49797969      18.42000905
Si      35.83917361       4.52639424      16.54348721
Si      37.17907365       2.87811185      15.60098488
Si       3.75933038       3.85913115      15.50248572
Si       2.72084312       3.04962786      13.50948961
Si       0.20631401       4.59763093      16.97879970
Si       2.67289141      16.78193156      10.64030102
Si       2.69053107      14.11211538      14.47455507
Si       0.71871054      13.39828431      10.33468831
Si      39.48377320      13.99160652      12.32371361
Si       0.64753353      13.24568110      14.23645234
Si       3.98515341      13.67181285      12.52411903
Si      22.12555028      11.26927868      23.50645659
Si      23.26847959      11.56859377      21.54360844
Si      22.87568325      15.28712086      21.79610861
Si      25.92949253      13.56659233      23.16465750
Si      25.55516996      11.73692296      21.81217990
Si      26.58837308      11.90464823      19.79506218
Si      19.69334741      11.42683262      18.63133980
Si      20.75843077      11.61784171      16.59994598
Si      19.42823712      15.27080587      18.94066419
Si      22.47314135      13.57773496      20.28949306
Si      25.95255312      13.94144884      18.70582881
Si      23.51367687      13.72175621      18.38555792
Si      23.14050519      11.87323707      16.91906405
Si      17.70979841      37.87241513      12.20067175
Si      16.17119421      37.93183385      10.40624782
Si      14.42343096      39.62735270      10.93044173
Si      16.61278742      37.38074596      14.26073751
Si      15.06030071      38.85357205      14.70347458
Si      12.37861696      36.92736739      12.64364136
Si      12.86837737      39.74156350       9.28680058
Si      11.26649699      36.33237158      14.82633120
Si      13.39224454      39.01723492      13.01184939
Si      12.81879358       2.79751973      13.66247824
Si      11.87578016       0.54207602      13.54418397
Si       1.37276699      16.61919311      13.54748234
Si       2.95012409      17.87771774      12.47672126
Si      39.24662621      17.06806231      12.54394458
Si      17.35877052      35.38583404      23.81164214
Si      14.08756838      35.80848237      22.02420280
Si      16.33087712      35.84385986      25.75957750
Si      12.93593546      36.42727571      23.89123187
Si      17.21877937      35.94252217      20.07316673
Si      16.21467940      36.52602232      21.91899920
Si      15.38127810      39.37927655      24.38391461
Si       9.86242764      38.17128993      35.84895943
Si      10.11927803       1.61998441      37.53075032
Si       8.00524856       1.28498207      38.47106149
Si       8.20604883       0.30465390       0.56251002
Si      13.21675144       0.91621204      34.26775758
Si      13.34203202      39.75248618      36.47721167
Si      11.49553300       3.00923608      39.07185177
Si      14.56413898       1.04982792      37.83446554
Si      14.81666094       0.14648972      39.92169055
Si      11.15738441      39.51417172      37.26696654
Si      11.18090268      38.47804706      39.36986400
Si      12.59456183      39.86266635       0.80934910
Si      21.56599012      17.86418094      34.72397259
Si      19.01885447      20.95406584      34.84026242
Si      16.64346947      23.85330354      34.98540923
Si      20.70115792      17.36109742      32.55300593
Si      21.53726743      17.64043391      39.19625387
Si      17.53774716      21.90763813      36.18610762
Si      18.93784881      20.58044985      39.40937724
Si      19.87916884      18.99774318      35.99174803
Si      10.44055287      37.31838908       8.59012027
Si      14.06843487      36.40233870       8.27704114
Si       9.88279345      36.22568358       6.53736165
Si      10.09184380      37.56370295       4.73645161
Si      13.54926034      35.06395238       6.33590035
Si      13.68460480      36.59598822       4.43454054
Si      12.58831271      38.21519736       8.45461390
Si      12.71193353      39.63457566       6.59922245
Si       8.76515461       0.91507638       3.17224135
Si      11.35544727       1.35436359       6.86775690
Si      14.98352460       0.46040450       6.50484398
Si      12.14043847      38.38752048       4.61771208
Si      12.46106456      39.85974287       2.80763711
Si      11.02907728       1.70060075       3.05186928
Si      14.70980509       0.69054012       2.61274142
Si      17.57371786      38.96707219      31.15554178
Si      37.86141932      19.01741838      16.62038881
Si       3.50620755      20.82174030      15.97778412
Si       2.95054381      22.89108008      15.17351057
Si      36.08533948      18.93232210      15.12663010
Si      35.62681340      21.05186467      14.27217692
Si      39.73026465      19.87612686      15.59597279
Si      39.38909153      22.03728779      14.87312662
Si       1.25452599      22.77971046      13.54212296
Si      37.65135671      21.95169506      13.22358585
Si       8.47701002      34.85306197      33.43886020
Si       8.69751263      36.82948471      34.53243736
Si       7.21493172      36.88221743      36.44775585
Si      10.31238533      35.60330213      38.56162910
Si       6.21989882      38.94725673      39.28880059
Si       9.05481393      33.04855504      34.80396366
Si       7.76748202      33.23636810      36.76764298
Si       3.79796776      36.56001032      37.67383312
Si       7.96240555      35.13291630      37.88606611
Si       6.79773460      37.27665046       0.85395056
Si       6.61439349      35.20736398      39.75294723
Si       4.24214966      34.87855440      39.10672190
Si       8.72709171      38.68746590      16.97334289
Si       9.79404729      38.14102551      20.62685326
Si       7.87088282      35.24774071      18.74140956
Si       8.49397278      36.28404919      16.80647289
Si       9.48693888      35.86240906      20.42188938
Si      10.49764409      35.42882286      16.16913890
Si      10.36371957      33.09827868      15.75117537
Si       8.54734884       2.27115431      19.50773196
Si      10.67034513       1.37285636      18.70942138
Si       9.45790644      39.62512759      15.01049742
Si      11.22320929       2.45113937      16.66979289
Si      11.44243094      38.74573592      22.32588009
Si      11.59163635       1.02885308      22.53052763
Si      12.29353363       1.89632104      20.37295664
Si      10.41808091      39.09424407      18.56778732
Si      12.36701165      38.20906709      17.93819906
Si       8.32187676      12.83611520      37.66351999
Si       7.06082684      12.76480018      33.98026279
Si       9.20370577      12.92792697      33.31162907
Si      11.43091200      11.04081474      36.60538625
Si       3.79567135      13.37544253      37.14784876
Si       4.89263859      11.25748470      37.04392687
Si       8.33746690      11.75975460      39.80526309
Si       6.03063344      11.43278277       0.53395535
Si       9.27493037       9.62499917      39.52662928
Si       4.89197158      10.11763690      38.87631308
Si       3.56312707      10.12431001      35.30866107
Si       7.13530319      11.55334825      36.12402829
Si       8.10492887       8.42391860      37.95734429
Si      15.19523295      12.41658003      10.08294217
Si      13.51065038      13.85094070       6.91962355
Si      15.43231122      16.87461794       9.63605202
Si      16.73800308      15.54039693       8.21340734
Si      17.24889130      13.52402475       9.52812783
Si      12.02089748      10.78437755       8.79938562
Si      15.67163544      10.45562148      11.35997101
Si      12.34503127      13.23946954       4.98918351
Si      10.38381694      12.09660584       5.59135656
Si      13.45139641      11.78551570       3.68343091
Si      10.74416805      10.12618713       6.87206589
Si      14.03373689      11.81545922       8.13320041
Si      17.21844933      11.52591688       6.23522186
Si      15.37311746      10.43498642       6.83510364
Si      14.17455285       9.88339050       4.88554241
Si      21.71870958      28.11056606       0.39712773
Si      22.23737313      24.48710920       1.34882372
Si      23.64689169      28.69696168       1.12132874
Si      18.89849038      24.97882185      38.46596806
Si      16.77809319      24.32088554      37.50655124
Si      18.56441896      25.68618405       0.73256585
Si      17.14116821      27.33827071       0.73331140
Si      21.38499325      22.69621438       2.61697124
Si      19.19437655      22.01859246       1.81299797
Si      17.88527081      23.86804177       1.93411106
Si      20.71199380      26.34148484       1.58176615
Si      17.95662418      33.02482672      36.97050471
Si      19.33718954      29.58358085      38.24787312
Si      19.58810801      32.11127911      38.32032950
Si      22.04658621      31.81089923      35.05177996
Si      21.69342637      32.52299610      37.49463646
Si       8.28583514      38.45736279       3.08712725
Si      10.94065566      36.69152697      39.84909140
Si      12.95609149      37.80680142       0.42272342
Si       8.34498714      34.32670443       1.35953606
Si       9.28119294       7.49204314      26.08206657
Si       6.53037740       8.07551111      23.35714795
Si       6.40578100       5.03264630      25.78279918
Si       7.88313792       6.12639254      27.08470077
Si       5.17152118       6.85494870      24.69698208
Si       3.83178390       8.07548093      26.09050806
Si       9.48940562      10.70848445      23.81779850
Si       9.62415607       9.83390751      29.20162143
Si      10.96380398      11.61019345      25.22832397
Si       9.60213754      12.83294311      26.81978019
Si       5.36407188       9.84365829      22.48495349
Si       8.04656178       9.30836240      24.79223968
Si       5.46826154       8.93168788      27.72246408
Si       6.83140249      10.52584797      26.48055216
Si       8.35057323      11.40209878      28.05722079
Si       5.63640179      12.16350272      25.38361958
Si      22.81561061       5.99598018       8.09589585
Si      19.88550377       4.44308720       9.82578488
Si      20.64073929       2.34697976       9.30061127
Si      23.03577724       5.30653274      11.83459431
Si      23.75322728       3.25139662      11.25361576
Si      25.47395235      22.11511334      39.28285465
Si      24.41516618      20.36283809      38.27002321
Si      23.90103736      24.55109812      36.99900263
Si      22.63304275      22.88901346      35.93694976
Si      21.01092738      21.85795985      39.25134376
Si      24.06368146      18.51644613      39.67504806
Si      20.65185602      20.00367268       0.76699992
Si      20.62774287      23.77703121      35.08380098
Si      19.29539721      24.52558346      36.93776561
Si      18.95692911      22.69433474      38.38872190
Si      22.23170206      21.10753638      37.40485867
Si      16.74917739      12.55840002      37.56570920
Si      16.51313309       9.74549796       0.27968045
Si      16.51574951      11.00805638      35.78495951
Si      20.66382830      10.03637232      34.98683044
Si      22.57428741      12.97896274       0.67123957
Si      23.36113220      12.11374914      36.98338283
Si      19.05484826      12.89013535      37.94164436
Si      18.90079689      10.21981710       0.52197551
Si      19.96460512      10.97376568      38.58090461
Si      19.78956496       9.38199840      36.94237634
Si      22.27735078      11.32012588      38.98589999
Si      23.00191934      10.37152392      35.24780507
Si      37.14163191       3.25289197      11.27364989
Si      35.64607229       0.02145783      12.63358306
Si      39.85524479       1.07767861       9.38787421
Si      38.34232784      37.96587809      11.15041031
Si       0.44986810       0.02223912       7.61563345
Si      37.17851890       1.67073964      13.00604759
Si      39.27388533       0.85892741      13.42596750
Si      38.64991207       4.94551193      11.62014986
Si       1.47273637       2.91455511       9.85257555
Si       0.78495784       4.00897912      11.83280089
Si       0.94276425       2.64232542      13.85806439
Si      38.46562779      36.40163661      12.83469451
Si      39.91612979      39.57726677      11.42255568
Si       2.13232969      38.75399656      11.74609546
Si      20.72174979      36.81929985      33.15574542
Si      19.42250572      36.26425782      31.43210743
Si      22.01068431      37.62945849      28.80545412
Si      22.20035840      33.96949151      29.97653580
Si      22.58886219      35.53378512      28.13796233
Si      21.21832635      34.76410880      26.44215738
Si      19.02815983      39.83077696      30.29783073
Si      19.63823106      37.59253750      29.53479924
Si      11.65009165       6.10960655      19.41915031
Si      11.94909405       3.62466921      19.43545094
Si       9.05792316       2.73621276      22.66045357
Si       9.92846588       9.01049826      20.88014384
Si       9.98980660       6.67011770      21.03572549
Si       8.08361304       5.62321805      20.49429294
Si       6.43269361       6.25165861      21.98622592
Si       7.34861242       3.30186423      24.29942713
Si       3.60473155      37.91682266       2.68518114
Si       0.72675827       0.73400817       4.67647405
Si       0.33838708      38.31976977       4.89307637
Si       2.58636014      37.32243524       4.88111860
Si       2.38000870      34.99470801       4.92666077
Si      34.12905733      18.20782287      34.90103271
Si      35.33951343      16.11240715      34.36644946
Si      35.43482767      16.05078573      31.91498485
Si      32.93706667      16.64410954      38.14895720
Si      33.98888235      14.52529294      37.46623529
Si      36.26667566      14.55401853      38.37416513
Si      34.02734084      14.37188415      35.16774799
Si      15.71655283       4.39173772       5.58407028
Si      17.78418294       5.88558215       8.53938062
Si      15.39823930       8.58016929       8.99715936
Si      17.40618429      10.04222865      11.93685601
Si      15.11676827       6.48725749       5.06146355
Si      16.88669939       8.09025061       5.60996456
Si      17.72432291       3.77872189       4.53779588
Si      19.82666882       5.22227586       7.46447779
Si      19.42923190       5.22453863       4.99282689
Si      18.76220762       7.48194757       4.40636914
Si      20.58260306       9.06612814       5.06379931
Si      16.16368312      10.27791737       5.04004499
Si      17.29507044       8.03334148       7.76556811
Si      19.38736456       9.56942538      10.79761974
Si      18.99102950       9.47865421       8.43252675
Si      20.90142864       9.01251962       7.25208651
Si      18.23431460      11.61565262       7.69230855
Si      33.53734339       2.34075715      13.89847644
Si      31.51109659       3.32792897      10.89104025
Si      33.07918052      39.88141348      11.18879393
Si      32.17717130       6.00162139      13.63642048
Si      31.93227060       3.70610911      13.24037172
Si      29.78249551       2.88291241      14.28109478
Si      33.21830557       0.07741487      13.48058263
Si      31.37650481      39.42218246      14.60318629
Si      33.91309612       2.71325127      16.20903816
Si      32.03616323       1.88625193      17.45186911
Si      30.23465094       3.18408402      16.62358855
Si      31.70395616      39.74037873      16.87243066
Si      31.16046969       1.16392049      10.42930650
Si      29.19220689       0.31144343      11.60652623
Si      28.03782015       4.10550175      13.67945199
Si      30.72781967      36.75532576      11.77600580
Si      28.78938743      38.14915480      11.06224930
Si      29.58587531       0.67588237      13.87429182
Si      12.83244797      15.08837066      15.62273829
Si      12.06378697      19.32201933      14.58429049
Si      15.03956292      21.25733535      12.91025912
Si      14.25363721      20.29874162      15.01362375
Si      10.73713291      21.04469546      13.85699293
Si      10.56222497      22.71840603      15.54615445
Si      11.30563136      18.52142175      16.52881139
Si      10.27158168      19.12479939      20.17836733
Si      11.04240281      20.13246606      18.11887000
Si       9.72316857      21.83865863      17.34647448
Si      12.64342841      23.66599718      15.85522567
Si       8.42131602      18.05185684      29.12522089
Si       5.26345881      18.60643763      31.36836432
Si       7.95796707      14.23373093      29.43640470
Si       7.89961868      22.19363702      31.00096791
Si       8.67889059      20.19840969      32.31321809
Si      11.32893713      16.02057900      30.50760529
Si      10.89211055      19.98303457      32.41115671
Si       7.67444232      20.41080000      34.48205018
Si       7.57530171      18.25843885      31.32669921
Si       7.19890671      14.48839246      31.62479934
Si       8.08743685      16.42088211      32.53270142
Si      10.27179203      13.94252893      29.45359228
Si       5.02154133      13.46642343      27.70422191
Si       2.78238298      13.15065756      27.73888144
Si       5.11882690      13.46990726      31.60908692
Si       2.75274600      13.14811592      31.58488104
Si       5.61596940      10.15947235      29.68015331
Si       3.29883565       9.86266764      29.63677291
Si       3.23149628       9.70760117      25.83118905
Si       0.41181135       8.23799509      27.74159983
Si       2.15068042      11.91756568      33.46199712
Si       2.18734468      11.87380603      29.66094516
Si      39.80478584      11.57217090      29.66916814
Si      39.36636719      10.21180742      27.82800324
Si      39.21953139      10.33054428      31.47329471
Si      25.61618203      25.12173517      31.31912279
Si      26.53833914      26.83475851      30.09468086
Si      26.83235652      28.84087570      31.46247336
Si      23.54024196      27.82725308      33.22740062
Si      24.72356794      29.57568896      31.98884967
Si      30.05065409      25.58059136      31.46030380
Si      30.16337944      27.63635176      32.92559882
Si      33.41923736      26.34939456      34.28532936
Si      31.24310432      27.00315809      34.91630032
Si      31.43225263      28.92551214      36.34165511
Si      31.21354134      29.31144147      31.77834206
Si      27.91795638      28.18286860      33.40548668
Si      28.10387167      30.15507003      34.81617268
Si      29.28431132      29.80208969      36.73699614
Si      29.18049004      31.91966415      33.60944604
Si      32.49372440      30.69044692      35.02104798
Si       7.21962086      20.55263254      26.70051420
Si       7.57677843      16.07820775      27.41582412
Si       5.60405385      15.78392492      28.65599021
Si       5.88105430      18.93702522      25.48645216
Si       3.86195708      18.55525648      26.70495358
Si       6.00130990      22.51006089      26.96549166
Si       4.05130965      22.21645038      28.19728950
Si       2.68662366      20.70956306      26.99176786
Si       0.79478741      20.28389384      28.19766560
Si       4.42611514      17.81637119      28.96954061
Si       2.42405513      17.33640430      30.07460953
Si      22.42579374      21.57455648      16.42585741
Si      20.97891889      19.97008561      17.05228031
Si      22.18208308      20.41956000      20.75234745
Si      18.95893237      21.08112274      17.55679632
Si      21.73605447      18.84077379      19.00233569
Si      20.26021419      17.29409984      19.65926622
Si      18.28046316      18.34918988      20.34632348
Si       0.31408303      29.39464158       3.20752735
Si      38.92509108      29.85640739      39.62388413
Si       0.81438535      25.71528070       2.61292965
Si      36.75504419      30.93430969       2.64528570
Si      36.17122929      30.58218750       4.92098888
Si      34.97090925      30.88795719       1.32241264
Si      38.34288477      29.19922239       1.84397303
Si      38.78994072      25.69794499       1.25639521
Si      37.29673813      27.15490316       2.11778809
Si      35.29970815      27.13584549       0.70124413
Si       0.19697086      25.21849150       4.81502011
Si       8.92160868      19.56286121       4.13729396
Si       7.32249258      22.71987971       2.92966677
Si       6.22816124      19.54682472       1.34715386
Si       9.41174288      25.00936939       6.37538148
Si       8.22250645      21.65043925       4.81750225
Si       7.81831866      24.82558513       8.06947876
Si       6.52908531      21.44720580       6.29488869
Si       6.90193975      18.30430604       3.17291567
Si       5.35653020      18.20996434       4.93202146
Si       4.68656490      16.69067744       8.28754296
Si       5.49813456      21.79839225       1.99973203
Si       3.81356613      21.48835891       3.76594207
Si       5.84828750      23.54570098       7.18005526
Si       4.21184662      23.37432786       8.82979220
Si       3.24156019      23.60501730       4.53907267
Si       1.49383019      23.40668605       6.00944424
Si       3.53218531      16.92619085       4.02583202
Si       2.70618489      18.20691316       2.05561886
Si       1.92971384      16.75817348       5.55387638
Si       2.01534330      20.38568261       2.85016857
Si       0.40458154      20.10975879       4.53956525
Si       4.69340511      20.32263985       5.48561958
Si       4.00905550      18.81342782       9.01729045
Si       3.07538986      19.99023889       7.32387613
Si       2.35968343      22.30374286       7.95515160
Si       1.15885127      18.84374340       6.32365827
Si      39.63492032      22.11700165       5.23454864
Si      16.05561571       3.56729573      30.64955427
Si      18.14584348       4.89270012      27.78732848
Si      18.84652438       1.66160429      32.03599027
Si      17.41913464       5.24855724      29.95640335
Si      19.39649772       5.41612899      31.29116746
Si      21.19201657       2.87308137      29.14585513
Si      20.76648734       6.93055296      30.65940439
Si      22.66053917       7.25363698      32.14397354
Si      20.43318312       3.27294570      31.30619405
Si      22.20270526       3.34087104      32.77697714
Si      23.78737545       5.05845740      31.94059986
Si      27.08819048      13.46247829      32.52607474
Si      26.35669230      12.83352445      34.69982763
Si      25.03760602      10.90732406      34.62524752
Si      29.08076082      12.18325212      29.41615724
Si      27.10543133      12.76413659      28.02897420
Si      28.79389146       8.47292187      28.33855741
Si      28.28488428      11.63977229      31.56284907
Si      26.87820443       9.79877507      31.40931586
Si      24.98974595      10.10734520      30.11568249
Si      26.86471707       8.99478545      26.95393422
Si       0.71529739      36.34678330       6.95118202
Si      36.99180109      36.06643767       7.48557450
Si      38.63796756      36.78366225       6.05112130
Si      38.48460530      39.35081420       5.93462702
Si      11.66374552      23.93929781      19.41661669
Si       6.26782725      21.21413203      22.48432397
Si      10.18659198      23.20438415      21.09576155
Si       8.13701894      24.13471487      20.88950170
Si       7.53286234      24.22715101      24.51330768
Si       7.69017547      26.62933758      24.77448202
Si       6.61104641      23.61916916      22.49014263
Si      11.82610898      26.23930312      19.57581100
Si      13.30126143      26.84709683      17.82475663
Si       9.76038064      27.33696153      19.22612832
Si       8.22148943      26.61172573      20.94950421
Si       5.43194383      37.87908557      35.57336933
Si       5.73508464      39.55447637      37.34670407
Si       3.97262226       0.74964677      37.63434111
Si       6.01729741      35.81070629      31.72985303
Si       4.03045758      37.19876748      32.14325163
Si       2.34746543      35.89403630      32.82933828
Si       4.57302975      38.95907893      33.58543301
Si       3.26523933       1.80476407      35.59400967
Si       2.81716727       0.15983730      34.17738949
Si      39.78701759      38.08587211      31.20511023
Si      20.73210266       1.78801797      35.99073339
Si      23.72150457      39.46217379      36.30942067
Si      20.35779837      38.23248636      34.63792504
Si      21.31619896      39.57000086      36.32742661
Si      20.60570284      38.93211173      38.45965856
Si      18.27999226      39.15425996      38.57562882
Si      10.53499399      38.72875429       9.12422152
Si       9.63582239      36.89323474      10.26030115
Si       7.39291274      37.26094497      10.42539581
Si      10.12238442       0.72140918      10.54889771
Si       7.71185113       1.07059825      10.72026805
Si       7.87384070      38.84345751      13.94013176
Si       9.80708110      34.71388900      13.43859120
Si       7.36347908      35.13434940      13.59247219
Si       6.99847159      36.90952384      14.84822874
Si       7.32154103       0.78770496      15.19836498
Si       6.93704676      39.21136853      11.87849409
Si       4.73973840      39.42718031      12.18482443
Si       4.18820039       1.30434453      13.36628080
Si      14.76782385      27.76124493       0.83033097
Si      14.03540552      29.92462444       0.67198050
Si      14.94509039      31.30515289       2.44280162
Si      14.51136853      30.40975036       4.58236763
Si      15.41222418      31.56498365       6.26220750
Si      14.90104064      34.42867823       0.32771359
Si      17.30457584      31.26146852       2.12251332
Si      18.28597775      32.51574631       3.84130077
Si      36.04129603      30.19757542      35.43654799
Si      32.69519792      33.21188114      34.74308046
Si      33.96735629      33.22324575      36.65982690
Si      39.06122423      31.61031679      37.04106719
Si      32.70445293      29.73953352      37.41937917
Si      34.75818233      31.13955540      37.17605038
Si      31.50275807      30.73099487      39.22568957
Si      35.95593486      31.29873922      38.96745362
Si      35.87085761      34.64586813      36.24891081
Si      37.02335284      34.76602980      38.25759284
Si       2.36298652      33.15792573      38.63403836
Si      32.61368205      34.19244371      38.27680309
Si      33.83899469      34.30035060       0.28992048
Si      35.74571906      35.64324999      39.91711064
Si      37.82603565      32.50858492      38.74217452
Si      32.60481798      12.34538804      16.71064106
Si      31.21501093       8.95419345      14.35843979
Si      33.01131808       8.53846082      12.88048445
Si      35.47119256       9.90023463      15.57800735
Si      33.85711879       6.40650358      13.22613018
Si      36.30923108       7.70829025      16.15448236
Si      34.68886101      10.14678044      13.48998433
Si      36.51187530       9.86662403      11.99157468
Si      37.06842352      11.57215092      16.21402241
Si      39.70928991       9.05720984      14.94213011
Si      38.87856380      11.18342930      14.80446794
Si      37.42324241       7.66106764      12.37094443
Si      17.56601282       1.78400176      29.07138167
Si      18.03800896       1.03324330      25.34061541
Si      18.18168733       0.21391451      27.43166680
Si       2.66326359      14.82415383      16.00165877
Si       2.40202974      10.28624195      12.98239983
Si       3.44962931      12.74932724      16.74511044
Si       1.64980662      11.12169946      16.63288285
Si      39.23352559      13.94703916      17.58472048
Si       0.82802743      11.06967368      14.52634107
Si       0.99942229      12.02642696      20.47650757
Si       2.40506539       8.98876415      17.30836848
Si       3.41215311       9.15691628      19.35571752
Si       1.70197997       9.71918448      20.92026279
Si      37.59673813      14.56150927      19.13122486
Si       0.16553752      11.93102927      18.23703604
Si      38.23232684      10.24236479      18.27741627
Si      38.94739386       8.27954978      18.75837431
Si      10.76245272      34.39714377      23.23548243
Si      10.71460590      32.78738172      21.19555851
Si       8.45866089      32.44188764      20.90146852
Si       9.78468163      33.65545395      24.79237717
Si       7.36334170      33.11251518      24.48975315
Si       7.70801475      35.79020539      21.96140439
Si       7.46312809      34.40713891      20.14301422
Si       6.63785891      35.15478526      23.66361452
Si       4.24225940      34.87792548      23.24240333
Si       8.27470751      30.70216306      19.04760608
Si       7.35502733      31.59732662      22.77676764
Si       4.03221277      33.29161143      21.64728902
Si       4.97574257      31.32409116      22.23627053
Si      19.36418224      23.97255513      19.05257737
Si      20.96552170      25.55482310      19.03500692
Si      23.74407506      22.98725764      18.58596836
Si      25.75010265      22.00319160      19.26983869
Si      27.44575359      23.68597820      19.43848403
Si      24.13044889      23.64778481      16.33307515
Si      25.75923923      25.32599339      16.08644293
Si      23.02767502      24.74155415      19.83922126
Si      24.77682966      26.34937562      19.81435076
Si      25.01450870      27.12558377      17.57574906
Si      27.68864092      24.41730191      16.99123240
Si      28.97214213      26.88349995      13.43408216
Si      23.19247384      23.69104533      12.89432419
Si      27.36357833      22.66358712      14.09319574
Si      27.02282891      23.94686649      12.23390260
Si      24.87532640      20.94709570      10.86085901
Si      25.22588546      26.76466014      14.26064291
Si      26.98505865      28.04597306      13.69994652
Si      25.04006708      25.26831801      12.37194180
Si      24.58470353      26.26075750      10.39390591
Si      22.83791497      22.33496385      11.24482687
Si      22.46194085      23.34625551       9.08892897
Si      20.78047044      26.18821371      11.22454483
Si      22.59569032      27.58332114      10.74095675
Si      20.50312416      24.61693643       9.35572772
Si      26.79282211      22.37463578      10.43183039
Si      26.15370641      23.58056600       8.46818350
Si      28.70270419      25.44809023      11.79798084
Si      28.19682112      26.40598046       9.68902453
Si      22.20393472      21.88230926       7.42291929
Si      24.29394784      24.83004998       8.72687821
Si       2.89024642      15.50000099      34.64025460
Si       4.34883703      17.31000133      34.41654588
Si       6.89586216      15.36785172      36.62021485
Si       5.60083811      17.48143712      36.41458027
Si       7.07661986      19.18217790      36.24786074
Si       8.48574955      19.28882298      38.23027540
Si       1.66976338      37.52071483       0.12807653
Si      39.07968618      39.96136857      38.48966026
Si       3.21710553      38.08175479      38.22545184
Si       0.60928524       0.52799197      36.85971327
Si       0.25053493      39.05702136      34.94692433
Si      37.88818410      37.22277603       0.83937133
Si       2.02998864      35.28340015       0.72763919
Si      36.95835723       0.19937233      37.75643001
Si      36.55429100      38.79035728      35.89710039
Si      35.77691652      37.52912340       0.17937524
Si      39.45680512      37.79502833      39.16863199
Si      39.19625565      36.37627960      37.47564556
Si      36.89543608      36.56302765      36.57106576
Si      38.13239622      39.34934748      34.22214585
Si       6.65373486       2.68393504      15.85639033
Si       5.97547420       6.49455544      15.54055077
Si      10.33242234       5.25151772      15.81282381
Si       9.57324042       7.02833299      16.91844052
Si       7.03662988       5.06061456      18.95053088
Si       3.84736932       6.20275344      16.04965932
Si       4.85833726       4.69933954      19.48558992
Si       4.00846702       6.62530146      20.50603071
Si       7.32938389       6.96171408      17.46387319
Si       6.60641135       8.90728361      18.56115185
Si      29.26370035       4.91590841      29.54681779
Si      32.46969324       5.45345127      27.42319119
Si      29.02938264       7.06706887      26.33672294
Si      31.12859682       6.00040344      25.55687608
Si      30.51892282       4.05716817      24.42183151
Si      31.24776201       3.78359093      28.86944982
Si      29.47588015       0.47822391      28.99683746
Si      30.68827712       2.02217738      27.65694730
Si      29.51205704       2.55260671      25.70510355
Si      14.53417387       8.83601341       0.25501509
Si      14.08175067      11.01964267      37.10427037
Si      16.25583318       7.73054471      39.20286237
Si      15.91418957       3.62260203       1.15129492
Si      15.44821034       5.84933333      38.00060344
Si      14.83427857       8.02141177      34.94956049
Si      16.72041606       6.89986665      33.84413318
Si      15.90169451       4.95806737      32.67768178
Si      13.07235763       9.43047047      38.71612542
Si      12.08560341       7.73444948      37.54027703
Si      14.48749617       4.35302085      39.47314916
Si      11.00990654       6.19291381      38.98260597
Si      10.28972026       4.35150964      37.80266459
Si      13.33376534       8.59023941      33.30732968
Si      12.54306837       6.84894054      32.05056178
Si      10.46543491       8.43585739      35.87180205
Si      13.90476084       6.63726171      36.45093272
Si      13.01412007       4.63880285      35.20425838
Si      11.48746560       5.38825125      33.83745993
Si      14.28289162       5.69211317      30.98916997
Si      29.30054153      35.56081066       4.45876536
Si      25.56097242      36.16808766       4.56870822
Si      27.97319066      38.26898605       7.72378648
Si      23.61241191      35.68097006       5.79306598
Si      23.70523694      36.57605218       8.12203550
Si      27.34503342      35.24997930       5.64885332
Si      23.44431304      32.14308968      13.44382492
Si      20.64686619      34.19442677      11.74604488
Si      18.32157107      36.38769582      13.77916642
Si      17.97310231      36.31629541       9.86233268
Si      19.58080565      34.51060064      13.71215190
Si      18.02828419      32.63784414      13.97509166
Si      19.20347526      34.23266810       9.95251653
Si      17.64895624      32.38279178      10.19331764
Si      21.90477420      32.20819955      11.67113698
Si      20.41303145      30.36837328      11.94512135
Si      19.32146546      30.70583890      14.09743070
Si      18.88144899      30.28382820      10.12417619
Si      17.38318540      28.53920297      10.40033679
Si      16.88374501      36.37165896      11.84002382
Si      15.37495927      34.59963876      12.23487590
Si      16.87354332      32.88740062      15.91403557
Si      14.12489339      34.85664055      14.25863664
Si      12.61741722      33.08801076      14.56090451
Si      16.15677012      32.41132327       8.32531808
Si      14.88922990      34.45506958       8.43075502
Si      14.54136489      30.51368861       8.74674447
Si      13.69627420      34.59796782      10.32790018
Si      12.30410990      32.83761286      10.75523062
Si      16.55152057      32.51597116      12.14459607
Si      16.22895772      28.77082118      12.46756856
Si      14.96517336      30.84305240      12.54964899
Si      13.78403554      30.99789779      14.50815577
Si      13.52259458      30.79641786      10.71396409
Si      11.94820637      28.94210523      10.99679882
Si      15.92340230      28.69446139       8.74102159
Si      13.22386980      26.93937135      10.97259990
Si      11.06242870      33.01470582      12.78279878
Si      35.91474221      29.04450603      27.56424111
Si      35.71017081      30.96409894      30.96381549
Si      36.29488385      31.10267911      28.64279822
Si      38.62494706      31.55518032      28.38016755
Si      39.77720336      30.04314406      29.51285620
Si       2.39691557      28.52497970      26.19021835
Si      38.00243179      33.25177249      25.12370821
Si      38.59650587      33.45857027      22.84999158
Si       0.85323568      33.93069876      22.73066934
Si      39.06364853      33.72553978      29.53428537
Si      37.77500133      35.45397492      28.36472227
Si       1.34910977      34.21014061      29.34775735
Si      38.40193665      35.39271704      26.05131777
Si       0.69198517      35.90724190      25.95252513
Si      39.26420355      31.69448105      26.27410304
Si       1.49046017      32.11224265      25.96533931
Si       2.07747473      32.28636376      23.74900409
Si       2.00566559      34.31149486      27.06942801
Si       1.29438757      35.97111040      23.71149131
Si      30.12975968      37.37719288      16.89494666
Si      26.38437031      36.60192535      16.17605168
Si      30.73826536      36.66703092      14.70232202
Si      31.10794746      34.48904899      14.61316623
Si      27.46280597      33.66242003      13.70845196
Si      27.56777832      36.58922748      19.85828529
Si      31.85896457      36.78032898      18.32944241
Si      32.34382171      34.48705782      18.22975102
Si      28.09376329      36.15534994      17.57831333
Si      29.17343804      33.12674371      15.21363310
Si      28.63585682      33.85153494      17.50919837
Si      29.69767393      30.95539290      15.04492849
Si      32.84145974      33.90600592      16.02606478
Si      25.38110213      32.62935405      14.49362523
Si      37.83111594      30.82709384      19.65559426
Si       1.64642004      30.21805909      20.04853505
Si      38.14503021      30.17627699      17.33576277
Si       0.22534772      30.83778378      16.48288982
Si       1.88372055      32.58813727      20.41057691
Si       4.09630618      33.21380895      19.73017753
Si       2.68672612      33.71655788      16.15192786
Si       1.57870271      27.33018193      17.61230692
Si       2.55235062      30.90231909      13.67968466
Si       1.80515597      26.72219715      15.34192645
Si       1.81871058      29.70457212      17.87905616
Si       4.38702931      32.53457120      17.51295386
Si       3.97879727      30.26477989      17.20145407
Si       6.49395780      33.26182294      16.59965875
Si       4.24126222      29.71374436      14.83284631
Si      31.28204369      39.14924059      27.91040838
Si      32.39025641      36.35496860      30.16254734
Si      30.83474959      38.03048248      29.88395837
Si      28.61903742      37.29496737      30.01251558
Si      31.44614156      38.84522144      24.22130192
Si      29.89825074       0.54159375      23.88877140
Si      30.92923513      37.57260199      26.14833874
Si      28.89294699      36.80456145      26.14033580
Si      27.26380242      38.65751699      25.97094103
Si      17.53807694       2.95952989       0.10653380
Si      18.51712971       6.03102857       2.33761186
Si      18.85691488       3.64649494       2.06488517
Si      20.96764386       3.13202157       1.71124184
Si      21.18274159       0.66770479       1.47226894
Si      19.31698907       6.93593075       0.14194652
Si      21.55054223       6.46520369      39.98739930
Si      22.65243013       9.59930523       1.89949148
Si      22.38558603       7.47605292      37.98492923
Si      22.24103182       3.74806284       3.58446067
Si      22.09393264       6.13818837       3.87646408
Si      22.73213156       7.15745279       1.85132310
Si      21.80028830       4.07306785      39.71273248
Si      24.29474630       1.10622817      39.24002754
Si      24.07585425       3.42209679      39.44805554
Si      20.51005098      30.18497135       8.07071431
Si      16.62457112      29.49746623       7.52633528
Si      18.85916990      28.53129212       7.54340139
Si      19.33936479      27.65399410       5.41286926
Si      20.42668464      31.88752209       6.40297722
Si      20.91167552      30.95723884       4.38762251
Si      19.36036748      29.24587090       3.79614322
Si      30.36656346      19.43010216      29.92835879
Si      28.67549975      21.53889736      27.34747502
Si      30.76854246      17.85239545      28.25536463
Si      30.99036275      18.89291259      26.19218850
Si      34.90069876      19.32312368      26.62865749
Si      32.78244399      20.42036303      26.36064004
Si      32.95912940      21.47694545      24.13601643
Si      29.66487717      15.76805435      24.37604736
Si      31.47697312      17.21239801      24.40653113
Si      29.08366988      19.99804504      25.70287394
Si      29.08256225      20.94524554      23.64353515
Si      30.96516994      22.67280807      23.58516244
Si      30.99302266      23.70470646      21.52584257
Si      33.37767349      19.86088989      22.39628054
Si      14.80787870       5.76500665      28.05253786
Si      10.12855724       4.90138945      25.39165346
Si      13.84525271       5.79811146      24.47980994
Si      12.65157915       6.72485041      28.49942087
Si      12.70608015       8.09552987      30.51010765
Si      11.81532523       7.92769787      26.70827004
Si      16.18954166       7.44003892      27.67769318
Si      15.42342930       8.85582010      25.81378082
Si      13.31156546       9.66408636      26.42949702
Si      11.68566064       6.61224404      24.85190089
Si       1.85180753      13.51350151      35.37707854
Si      38.87758486      13.51827830      32.78668647
Si      36.43745183      14.42329482      35.60970648
Si       0.29777859      12.72532148      37.10604908
Si      38.78095363      11.26681321      35.92255520
Si      39.83258416       9.66399482      34.78802451
Si      37.24959486      10.32474201      37.63538739
Si      37.57870558      12.64434286      34.51848971
Si      35.76593605      11.33832317      33.37087633
Si      36.97553840       9.57311628      32.19302352
Si       6.87092784      24.09401889       2.02588808
Si       9.01544195      21.66666768      39.81183654
Si       8.07542238      25.82443020       1.04750813
Si       7.06196987      26.59801506      38.93763753
Si       6.69340305      22.26059397       0.43904713
Si       5.73560629      23.05889563      38.37645553
Si       3.61851493      25.41315089       0.43691385
Si       4.75445957      27.30668956      39.46211724
Si       3.51825468      23.61300392      38.86687002
Si       9.21026219      24.22044977      37.01112484
Si       9.08401290      22.29772810      35.39938195
Si       8.17396369      23.03432564      33.53944460
Si       6.96377502      24.68077318      37.42099307
Si       3.70531575      26.14686532      35.96792560
Si       5.80057585      25.53263320      35.50997166
Si       9.12580780      24.78871637      32.51010352
Si      29.86194334      38.91195307      23.07201210
Si      32.07793699      36.54868833      21.09388582
Si      28.95259636      39.94714024      21.14915543
Si      30.70607142      39.80295409      19.42082747
Si      32.70863823      34.28078887      20.71927417
Si      30.44882361      36.76242627      22.77220185
Si      28.51768625      35.50306398      22.20294888
Si       2.52665061      28.45560545      28.83455757
Si       3.88385090      25.23046932      27.36946134
Si       2.66258596      25.31207978      31.14778236
Si       2.66021638      26.97254255      27.01392227
Si       0.51182916      26.24847926      26.12482780
Si       1.32690740      27.27563208      30.43985146
Si      39.30446054      26.46783022      29.86880241
Si      37.86492413      28.25953297      29.25210337
Si      35.83736154      27.56782607      28.46922734
Si       3.07655668      23.97052655      29.22740293
Si       1.00749451      23.19814722      28.49377986
Si       4.33188598      23.72616480      25.63737818
Si       0.83883431      24.79879657      24.40861223
Si       2.12243403      22.99963339      24.91622245
Si       1.09875403      22.05366117      26.61036082
Si      39.00010303      21.09467546      25.97301820
Si      38.18235535      25.22855093      31.58192913
Si      39.58614247      23.34928435      32.14847475
Si      36.14869358      24.54145989      30.89460389
Si      39.88751527      22.07982589      30.27710892
Si      37.67148311      21.21963715      29.52902511
Si      39.54020876      25.02904404      27.99890524
Si      36.09896508      26.15600794      26.64370117
Si      37.40558373      24.12665218      27.27135174
Si      36.35034271      23.11918448      29.03707688
Si      35.12612605      23.27724340      32.63983730
Si      34.82538498      26.34302866      30.34747040
Si      37.98465574      20.04578035      27.59916581
Si      18.93496864      32.75179460       7.10487198
Si      22.27449384      34.68673549       7.49793842
Si      22.89820135      33.91084935       5.40100161
Si      22.27909169      35.32384203       3.75851242
Si      23.21522085      37.54486776       4.21017142
Si      20.03064130      35.59088251       3.64905131
Si      19.37432085      37.10841438       2.01748654
Si      11.59608068       3.43982712      26.69166982
Si      14.63227757       1.61061323      28.17653568
Si      13.11679765       4.51193517      29.94725822
Si      11.00104794       4.22220308      28.91112711
Si      14.17621838       2.40648272      30.35752317
Si      14.49188071       2.02729836      23.61954741
Si      13.06366580       0.52887226      24.77871561
Si       9.63441781       3.21508990      25.65964102
Si       9.55150181      38.81095956      24.65260315
Si      14.08438815      38.44916292      24.96132078
Si      12.66601776      36.76775021      26.18458185
Si      12.65764099       1.38647299      26.86604757
Si      11.15693996      39.80067421      28.00437273
Si       9.18500437      39.63462005      26.79842309
Si      10.62966609      36.56732587      24.91417891
Si      38.59581242      23.34214860       5.73430233
Si      37.56001997      23.19519013       9.47449167
Si      37.84929182      25.46952593       5.69632897
Si      37.03696103      25.38779779       9.36220288
Si      34.67150621      25.49144701       8.80420957
Si      35.03344828      22.34523048       6.59909736
Si      38.34637874      22.31152495       3.59355035
Si      33.42869089      24.42036738      10.28413928
Si      34.11364483      22.06053300      10.44002480
Si      31.17656889      24.59423959       9.86761305
Si      33.69666581      21.17273242       8.45151389
Si      30.53328433      21.15426982      11.54130997
Si      34.34119728      24.62948993       6.65585894
Si      32.08264159      24.80934159       6.08525892
Si      30.85125857      23.64012295       7.59049851
Si      30.34271943      26.71536119       9.70104814
Si       1.34975358      23.70617543      23.01700887
Si      39.62274330      20.65974236      21.09864911
Si      39.94211656      25.12446881      21.96041877
Si      37.83456980      24.03419896      21.59055665
Si      38.48813152      21.74223773      24.60868813
Si      36.68874118      18.83148477      22.83511847
Si      36.98827137      23.30222354      23.81121796
Si      34.93303699      22.25547506      23.28301776
Si      35.77524123      18.12116003      24.78342380
Si      36.33603713      25.59741122      20.54657280
Si      34.35471084      24.51032713      20.21307538
Si      38.04306185      22.20398124      20.13866926
Si      36.04817920      21.15282137      19.84273239
Si      35.25948071      20.53812365      21.83024816
Si      34.54306456      22.84934655      18.78235018
Si      32.44731733      21.66921871      18.27049786
Si      33.53832926      23.80642696      22.19199706
Si      27.07092764      28.42906018      19.20162602
Si      24.31173913      29.45608244      16.81447959
Si      28.31061240      28.26756511      14.92492311
Si      26.42510317      30.12203481      17.76153186
Si      26.19437804      32.07887395      18.88709416
Si      28.14219836      32.68379765      20.00223552
Si      27.08251938      30.80210410      23.02236228
Si      22.45009299      31.21828958      19.59376545
Si      23.64002277      31.30023664      15.20803069
Si      23.29928636      33.14426085      16.44137812
Si      21.75444202      32.78717305      18.07868615
Si      24.41098328      31.84564342      20.57485855
Si      24.24541506      33.88635015      21.64779322
Si       6.39202981      37.61530424       2.65033095
Si       6.20013004      36.74541934       7.09979285
Si       4.15652117      33.59935239       8.04996343
Si       4.36707915      37.51961329       6.06762773
Si      17.91768789      13.54188679      19.51243759
Si      19.63514261      13.91152060      21.05434450
Si      15.65817006      12.04030988      22.32844226
Si      17.49983863      12.42481734      23.85587457
Si      18.75516053      10.51163174      24.03658805
Si      17.27022473      16.08372714      23.09003093
Si      18.73193338      14.21285271      23.12300096
Si      21.79707998      12.62382487      24.88560768
Si      20.42764279      14.55574337      24.77148609
Si       4.18667009      33.73097807      25.48185882
Si       5.83984624      34.53290165      27.01246842
Si       5.76314890      33.07088019      28.88883195
Si       8.65718947      30.96258363      27.43909062
Si       9.45864331      35.42720707      27.62335155
Si       9.56024424      34.02763055      29.52372213
Si       7.27169992      33.94925416      30.36789672
Si      10.10206835      31.80143768      28.83354346
Si       7.33633277      32.57694889      32.40717208
Si       9.97289742      30.38186471      30.84852466
Si       4.74983691      30.12073245      26.70263908
Si       3.72690283      33.15841555      29.86237739
Si       3.60583198      31.77110822      31.78895226
Si       2.77647649      29.99883452      27.70416965
Si       9.10140538      27.53084809      28.70053021
Si       5.46704129      27.94506158      26.10488875
Si       5.39688499      26.54681647      28.13153172
Si       6.36092975      30.95330037      28.33864457
Si       7.96344117      30.45708215      31.73250101
Si       6.26616152      29.63247379      30.17930084
Si       4.39452950      29.61664548      31.20904790
Si       6.90177079      27.51625650      29.59108142
Si       3.47305317       0.89571685       3.66377411
Si       6.11604239       3.19440237       5.21915612
Si       5.17014413       0.02970833       2.29192156
Si       7.91056552       2.26091336       3.88119653
Si       5.38383628       1.13047452       0.21602223
Si       2.28365499       2.79522658       7.42712018
Si       2.37738054       4.00725461       5.51727298
Si       0.31846814       3.98026169       4.30378952
Si       2.81091600       6.32532379       5.86899944
Si       3.99028557       3.24826400       4.10606828
Si       4.15011778       4.32064144       2.14126114
Si      25.61193080      38.07586255      21.50714854
Si      25.00019915      35.91001485      20.72168923
Si      26.00869156      34.30653960      21.88493447
Si      23.14230895      34.33708159      24.39814369
Si      24.97316079      38.11323996      23.90221739
Si      26.09467425      36.61503603      24.97622212
Si      23.64736304      32.70837159      27.95574805
Si      25.45050243      34.42681715      24.19275090
Si      26.48164050      32.69823708      25.50654166
Si       2.28776474      25.42364619      10.11162237
Si       1.80426157      29.34283821      12.57425378
Si       0.29486560      27.46100912      13.02489824
Si       0.23116793      26.21474331      10.97610168
Si      38.80410249      24.32568718      11.38122309
Si      38.57066579      29.32433733      15.66796143
Si      35.53631322      31.42336324      14.75562212
Si      36.45263198      30.08815411      16.21805451
Si      35.06140320      28.25186188      16.82251213
Si      38.33619065      28.10098972      13.64974575
Si      36.74423590      25.12540971      12.09092245
Si      36.91795856      26.22170365      14.07615963
Si      34.86685989      26.94256606      14.89355817
Si      33.40567527      25.04554741      15.29025201
Si      33.30572913      23.72871614      13.44820050
Si      17.18238924      34.61600813      33.77593852
Si      18.54956987      34.06512075      30.31016890
Si      14.83062741      32.06216009      31.04969381
Si      13.18329294      30.35546053      30.91143523
Si      16.70337086      31.28311712      32.01418856
Si      16.14103377      30.23164861      34.04902387
Si      19.72099846      32.63867066      28.88046018
Si      21.65951722      31.66363124      30.01573616
Si      17.76232443      29.69295200      30.52415005
Si      19.62983559      28.73386690      31.44948409
Si      18.13214494      33.03699257      32.44834935
Si      20.10749138      32.12372236      33.42589022
Si      21.18285181      30.72973633      31.82929111
Si      15.71373777      26.74930439      32.14501890
Si      20.61918384      27.41737378      29.99161709
Si      33.42516977      24.36704729      24.47556860
Si      33.83285062      21.91366596      27.35378479
Si      34.25956072      25.74218751      27.90503413
Si      32.48887047      22.32557066      25.42191503
Si      30.41160517      22.61173505      25.85081071
Si      33.12898531      26.14661187      25.92166170
Si      30.85727853      26.36526473      26.41803369
Si      29.84866866      25.21874022      22.86294242
Si      29.64699286      26.89562882      24.47736895
Si      33.43509770      23.72350081      28.97986448
Si      34.59925995      23.24884854      30.88430671
Si      31.17919389      24.00755096      29.30226609
Si      33.85912899      21.26959319      31.82408607
Si      31.53331121      21.55964770      32.42584870
Si      30.31830672      21.93873289      30.35106631
Si      28.05248764      22.34290993      30.84699716
Si      34.01296128      27.48122183      29.49029789
Si      31.77440405      27.73686802      29.84788513
Si      30.04723705      24.38461664      27.44965467
Si      27.65787422      24.70601424      27.85695360
Si      26.96373616      22.82118313      28.85387979
Si       2.61427922       4.38470887      10.24586459
Si       4.14825809       2.65230951      10.82865594
Si       5.57290242       3.33826906      12.50167227
Si       3.80243765       6.30810016       9.62530658
Si       5.20400766       7.02633107      11.31316753
Si       3.85992409       7.60403614      13.16591477
Si       8.13914292       4.80780963      10.13096512
Si       8.58674328       2.48387203      14.86036393
Si       9.54801915       3.14425899      10.53884782
Si      11.06328348       3.86977916      12.16131715
Si       6.40512579       8.87998048      10.58486709
Si       9.23653876       6.62488966       9.25572989
Si       6.80578207       5.34866604      11.80639741
Si       8.13290348       6.03575684      13.57719137
Si       9.65977418       4.35257770      14.05597215
Si       6.38585597      28.96603251      19.92034409
Si       4.14904003      27.62803592      22.65323069
Si       3.94106484      29.76349154      23.68007442
Si       2.17141554      31.14677500      22.61220736
Si       4.65074476      25.67726296      19.35234461
Si       3.83742309      23.27024563      23.21769841
Si       2.61573157      24.66083623      19.82919957
Si       4.47155183      27.97079994      20.32262885
Si      21.65937206      20.06244504      15.00190481
Si      23.37793646      20.73938088      13.43959217
Si      25.60382939      21.54370181      16.55048779
Si      24.10007619      13.86226816      15.03640227
Si      24.06332377      17.49784336      16.49024352
Si      25.84277033      18.20533561      14.99562851
Si      27.13680994      16.20529569      14.52504323
Si      24.58110193      22.44034202      14.64373472
Si      15.14127269       1.54437005      17.75686312
Si      15.69617511       1.51060650      20.00262081
Si      17.82291301      39.01828749      16.89775922
Si      18.52663068      39.00603735      19.15178361
Si      19.17455471       2.76709354      18.96695662
Si      17.29592994       3.13358061      20.40624762
Si      20.17970883       0.56575636      19.45095865
Si      13.93615842       1.99895462      21.34406116
Si      16.51300677      39.45332478      20.56163584
Si      21.99502954       3.43187055      27.25095583
Si      24.11251260       0.42052730      24.78177422
Si      23.53544842      39.82283578      27.08505292
Si      22.96066543      37.56639019      27.19594224
Si      21.50271795       1.04434686      27.46321318
Si      20.90068334       0.64453182      29.71151036
Si      23.27506611       4.62101770      37.07001771
Si      23.19174893       7.36683811      34.33282902
Si      23.36413033       3.00346204      35.55065184
Si      25.62217537       2.56881598      34.92932333
Si      26.79432899       1.80634162      36.98806740
Si      14.81962130      26.87886685      22.69100770
Si      12.42400992      26.73431091      22.07786345
Si      11.61049714      27.27861230      26.01249247
Si      11.78357753      24.44148479      22.40977161
Si      10.97635932      24.98756597      26.05493134
Si       8.54245443      24.80828441      25.56996382
Si      10.89342932      30.91512494      27.30336370
Si      10.24104009      28.48153414      27.52164405
Si      34.71540870      29.41104200      33.06136962
Si      35.98216421      31.33955580      33.07236595
Si      38.24714161      30.56994734      32.85448688
Si      39.65934086      32.45513929      32.99316512
Si       2.49874119      30.37714186      34.45523581
Si       1.97948966      31.81398957      32.75921395
Si       2.10525881      31.41683807      36.60722673
Si       3.27844583      33.66363274      32.82619419
Si       3.57338678      33.25416378      36.66997115
Si      35.69558978      32.38590749      35.15225363
Si      37.19062795      34.26101393      35.35136015
Si      33.08825162      34.48651437      33.63176307
Si      34.41035593      36.47669286      33.81723027
Si      35.55169318      32.80466040      31.30895866
Si      39.21713327      33.99861505      31.25518986
Si      36.83109069      34.70501780      31.50558968
Si       0.55638806      35.80262891      31.43114257
Si      36.57774990      35.77692289      33.61898091
Si      37.99140614      37.61037665      33.68448557
Si      39.45671212      33.64558849      34.98530492
Si       3.08516594      34.79511771      34.83703403
Si       0.73768576      35.44910333      35.18597587
Si       0.36798468      36.98375880      33.47639004
Si       4.51051530      31.55021834      37.80191649
Si       5.15827601      29.35858714      36.97306113
Si       6.46593981      28.47706667       0.39274112
Si       7.56313508      30.96320839      34.35026655
Si       3.82415214      30.18383958      33.38339753
Si       6.09259581      30.34950505      32.68785716
Si       6.77554019      28.25497393      31.86138505
Si       9.74610189      31.11096939      33.69137093
Si      10.31408682      29.00833626      32.74561174
Si       7.38307082      29.56464928      36.27994602
Si       7.96283582      27.38791824      35.43276044
Si       6.60337154      26.71352533      33.65276774
Si      37.34997927      30.22400839       6.58308096
Si       0.50086084      27.22696783       7.58365740
Si       0.95869056      29.31753059       7.03938986
Si       2.76345169      29.84054657      10.50638659
Si      39.49223251      30.80099933       7.66478054
Si       0.04370134      33.05558892       7.16712942
Si       1.91268729      33.61995320       8.28505779
Si      22.52233798       2.49581603      25.42216028
Si      18.39716881       3.86869981      26.54492379
Si      18.21257749       5.91744877      25.24491740
Si      20.95949090       0.47898564      22.40931864
Si      24.88775646       0.98933834      22.74436143
Si      23.03297544       0.75653255      21.22122528
Si      22.84724076       2.71508270      19.89626820
Si      16.84870520       1.80768745      23.55811382
Si      16.71718129       3.73168714      22.32819740
Si      20.72314895       2.29333756      23.85204966
Si      20.22298892       6.08554122      24.11789444
Si      20.55332337       4.33595646      22.65243528
Si      18.77328432       4.15067291      21.12396082
Si       3.71155220      14.23548511      23.54562168
Si       2.90277424      16.46749645      26.61009960
Si       0.10607700      15.89523475      23.98771567
Si      39.49073899      18.02230789      27.01669698
Si      39.12440587      17.86611434      24.72491599
Si      39.71050907      19.67810948      23.44024891
Si       2.52086884      16.13369737      24.30695386
Si       5.49825028      18.37141232      23.43925162
Si       3.18946130      18.13180031      23.04818492
Si       2.15234191      19.89724079      23.76350558
Si      29.46106422       0.28446902       7.97747813
Si      32.97054736       2.29834694       4.43683091
Si      29.70549125       2.54487223       7.38187456
Si      29.18618638       2.77574078       5.08820257
Si      31.39457804       5.83492131       5.06042634
Si      33.07600617       4.69590249       3.89581382
Si      29.00286305       5.37231167       2.21570030
Si      30.93984725      39.00790243       6.84439853
Si      30.67593870      39.26805254       4.50982453
Si      34.47586560       1.15714680       3.23776694
Si      34.41345636      38.88818259       3.69361403
Si      32.23358778      38.04350468       3.23528766
Si      28.46117761      38.49791576       3.99193068
Si      30.73916680       1.51952191       3.93124005
Si      30.40255705       1.87535969       1.71657090
Si      28.10904979       1.07692273       1.12201396
Si       3.28372646       8.42465050      37.60978511
Si       2.82181647       6.47622562      38.94342169
Si       5.58079104       9.60529778       0.51194737
Si       5.06045124       7.84671478       1.68685328
Si       1.52212966       8.71580480       1.80498377
Si       1.09216279       6.80741240       0.23789577
Si       3.25169177       8.12696525       3.09031728
Si       6.51120709       5.61799984      38.95603610
Si       2.41466496       4.76876396      37.55535211
Si       5.57952476       1.68209046      38.83552138
Si       8.31533235       4.93968183       0.29566037
Si       4.65530149       5.96937721       0.29739038
Si      15.50866603      19.37978161       1.66769674
Si      14.66291061      18.39353274       3.58451596
Si      16.26993601      16.74020677       4.18526280
Si      17.35952613      16.30244391       0.54357484
Si      19.15069009      18.79521251       2.67474478
Si      14.32308275      14.12956457       1.82229913
Si      15.50764834      15.51861323       5.97241885
Si      16.55813324      15.21579879       2.27412229
Si      18.08497860      13.45374169       2.90900166
Si      17.21408431      12.22275571       4.72672052
Si      15.51765536       9.74636921       2.54033381
Si      35.90749148      31.06090889      19.90735470
Si      34.08223298      33.29159838      17.18147136
Si      33.77532654      32.27610490      19.35355462
Si      32.51109351      29.76229725      15.68813655
Si      32.19818291      30.75131938      19.34523434
Si      31.42605260      31.62951371      23.00734751
Si      30.11242720      31.87960079      18.85873118
Si      29.63084645      32.79181291      22.52403369
Si      33.76445663      28.56913478      22.22157088
Si      32.40680755      29.05710027      17.77874253
Si      34.34143662      27.71333789      18.36917283
Si      30.52639944      27.49852947      17.97641598
Si      34.13045885      26.97803636      20.63697415
Si      32.35690784      25.47423123      20.67322890
Si      30.89862708      25.64804474      16.33180354
Si      33.11653652      29.44131810      25.83408594
Si      33.61674703      27.74217982      24.31752940
Si      31.83859481      29.90942815      21.55629106
Si      28.06206576      29.53035441      21.06653243
Si      29.95215440      28.46333302      21.53875727
Si      30.32153572      26.72932146      20.11183816
Si      28.71914503      28.68264637      17.35338147
Si       5.00230556      35.73114630      10.04971490
Si       7.31609423      35.24029153      11.00183278
Si       6.87620843      33.49508104      12.54756332
Si       1.51202274      36.86990044      10.36039466
Si       2.76324792      38.86777424      14.41758401
Si       4.03494022      32.02897824      10.28457167
Si       3.58090585      36.25906661      11.68123919
Si       5.26124990      34.00539419      14.21417656
Si       3.15817930      34.63590462      13.22417442
Si       1.70069365      35.15154577      14.68315396
Si       6.06459878      31.48162109      11.38455076
Si      19.83160331      23.31717530      11.99696646
Si      16.29020553      24.70376118      12.45406791
Si      17.44854627      21.87677324      14.55544618
Si      18.57045243      25.25170729      11.95286678
Si      19.46725904      26.79746921      13.48379616
Si      19.79006288      22.35471972      14.06274313
Si      20.60786633      23.87328868      15.75233996
Si      22.94816999      25.43518333      13.11536960
Si      21.67145636      27.33586531      13.17384945
Si      22.81367069      24.38262255      15.28031994
Si      22.36805975      28.85185789      14.72616353
Si      24.74268925      29.41943638      14.30234226
Si      16.15345009      23.85056303      14.67626378
Si      17.01699937      25.27039169      16.16469525
Si      15.20260642      26.61909054      12.40154140
Si      18.03311840      28.74946346      13.48471850
Si      15.80635143      28.28995616      13.87943338
Si      15.66653918      27.33418715      16.18428785
Si      19.32342950      25.86643800      15.67865406
Si      22.35080976      27.87545541      16.83279394
Si      20.12837916      27.41803460      17.20305647
Si      21.10702723      30.68841762      14.70086385
Si      18.27210229      21.58707653       8.97543818
Si      15.96650219      19.60488625       6.68328596
Si      14.56791743      22.05673654       9.31377630
Si      17.99832735      20.70706236       6.87105138
Si      18.11546478      22.46071349       5.27410171
Si      16.53267712      23.17763004       9.40377822
Si      16.52201392      24.85831813       7.80046032
Si      20.09406771      23.57025419       5.37729472
Si      18.61482196      26.00544888       7.97806771
Si      14.23209128      21.06336750       7.12708313
Si      14.24262931      22.75561350       5.47988360
Si      11.95280395      20.74424211       3.21882130
Si      10.43464769      23.11133506       5.78306897
Si      17.83329080      21.49794175       3.02032034
Si      15.72410712      20.31745605       3.00898221
Si      14.09343047      21.85055501       3.27873599
Si      14.06308456      23.54369127       1.70100617
Si      12.58213665      23.49767898       9.67014834
Si      14.78514492      26.43366660       8.15285720
Si      12.70015231      25.21805860       8.13532104
Si      14.87342743      27.98945377       6.75621406
Si      12.35139190      24.28708941       5.96183903
Si      11.13214708      26.67227253       8.57754678
Si      12.59526862      26.00577599       4.36647882
Si      16.28207131      23.95549365       5.65873237
Si      16.31864714      25.69796164       4.05631182
Si      15.99984533      24.64515834       1.87866664
Si      14.69883446      27.20477012       4.43996275
Si      13.03739349      29.62046042       7.04572351
Si      12.38912794      25.19048790       2.07182119
Si      21.12368608      16.08778270      14.71484098
Si      21.45578993      12.55195390      11.99231152
Si      19.48033679      13.60263578      12.37455023
Si      19.72636330      12.82894044      16.22185696
Si      19.92290729      15.10070373      16.62878622
Si      18.39148414      12.53239377      14.19873378
Si      17.94718488      16.23370692      16.74975271
Si      16.20068433      13.65067029      14.52458314
Si      20.88560559      16.83375251      10.91067212
Si      21.26813435      19.03681257      11.35566726
Si      19.19582233      20.21486019      11.65616041
Si      17.49078222      17.55503974       9.37634049
Si      19.83038514      15.80409439      12.80427314
Si      16.64932234      15.86340546      14.86003172
Si      17.69365888      16.97283570      13.20067051
Si      18.13924930      19.23253315      13.47627061
Si      16.37839384      16.60650633      11.11588097
Si      17.80859345      19.97150778       9.79892755
Si       5.88731680      15.97792006      19.79257245
Si       6.69372127      12.91468601      22.09791013
Si       4.50005132      14.48510004      18.33824479
Si       5.26806086      11.46127315      20.71357832
Si       5.90750983      13.55231970      16.74266607
Si       7.47107842      16.74129073      23.88555426
Si       8.75192182      16.01877803      22.15647705
Si       6.75012206      19.91810742      21.55651421
Si      10.60338378      14.80326104      23.09536606
Si       7.57612260      14.51770492      20.85002000
Si       7.64068135      12.13669215      17.79245086
Si       8.91891797      13.55982517      19.03934220
Si      17.24906472      17.65612915       7.22956976
Si      19.59132093      19.20019969       4.73028384
Si      18.38008220      14.03579042       6.09408847
Si      19.44172653      18.35363656       6.92307735
Si      21.02309873      16.66599117       7.35247560
Si      18.31081142      13.22282768       8.18264013
Si      20.86579007      15.64614164       3.67717508
Si      19.53788251      10.53731127       4.86265811
Si      20.57946888      14.11359832       1.98177685
Si      22.07550681      12.33576769       2.54379454
Si      23.29069672      17.44485288       7.11506740
Si      23.08572235      16.54311340       3.32111123
Si      24.59454508      14.75857845       3.72265772
Si      20.61875596      14.89720948       5.85501860
Si      21.81439732      12.29843865       8.32407940
Si      22.14308689      13.09857390       6.12362373
Si      21.71447621      11.41695182       4.52850388
Si      24.38717921      13.88080221       5.95974919
Si      23.25175959       9.65237292       4.83887988
Si      24.19395533      13.13518074       2.15693309
Si      25.76153530      11.33195133       2.41193874
Si      30.69187593       3.78259130      33.51700588
Si      33.53256776       6.60721837      31.56637236
Si      33.66129806       4.28099257      31.27392927
Si      28.65052470       0.69188520      33.55740239
Si      31.42562421       3.25366744      31.34995557
Si      29.47765963       0.00082897      31.35169151
Si      21.16534887      15.53968429       0.47084658
Si      18.94716996      15.61259615       0.82213529
Si      18.19431928      11.28860298       1.68349855
Si      17.67713532      14.27096218      39.29495762
Si      15.49906411      14.33049201      39.62927786
Si       1.81633563       6.11851620      35.13818698
Si      38.28699771       7.21050018      36.42874675
Si       1.57000256       7.52313728      33.13961491
Si       0.57900252       6.34153368      31.48511631
Si      38.08260386       8.65734935      34.46199241
Si      37.06095173       7.43657425      32.70209022
Si       0.23074378       7.60135260      29.58393676
Si      39.56143651       5.38169136      35.79004556
Si      38.62291241       4.10730992      33.92321465
Si      39.86075631       2.37509650      33.26941442
Si      38.74502624       1.10418886      31.65283241
Si      34.87345950       6.67148796      33.43009508
Si      35.21978624       5.42044208      35.24179481
Si      36.60123310       3.53904442      34.68062639
Si      38.40324436       5.39635798      32.03797525
Si      14.23893354      34.91078632      27.46923874
Si      18.00031289      35.13572722      28.01563212
Si      15.64064271      36.45275127      30.66456403
Si      17.64939819      36.81799428      29.68446762
Si      22.58228672      16.28331048      24.49709143
Si      19.43701491      17.69901694      22.97111438
Si      22.78457495      17.87183626      25.98477948
Si      21.80387960      19.91487521      25.10616404
Si      23.04850044      20.51302709      23.13979273
Si      18.43498874      18.76537017      26.51008260
Si      21.78222803      21.55785256      26.75300188
Si      20.91239241      23.52259500      25.82307308
Si      17.46309765      22.45560470      27.17440378
Si      19.54210153      19.41059261      24.53043980
Si      19.76793682      21.98675273      21.68899690
Si      18.63604059      21.32475436      23.65523467
Si      18.63468716      23.07330042      25.26953924
Si       7.25885868       1.77902085      36.33232010
Si       3.78361863       3.54351527      36.02201979
Si       7.40613073       1.35853092      32.49970929
Si       6.21297370       3.88607303      36.17044080
Si       6.90089391       4.86184980      34.02882987
Si      10.32032273       3.03975495      34.34337287
Si       3.83644263       3.11806032      32.20666339
Si       3.48957829       6.56057849      33.79766910
Si       6.27168285       3.38357350      32.28842272
Si       9.23247267       4.68929889      30.24870385
Si       7.02332632       4.34920011      30.28983772
Si      32.80328978      30.45794124      30.73713434
Si      31.19636692      33.70264308      32.04833888
Si      31.09249366      31.35491008      32.16631023
Si      29.12081343      30.55081877      31.41981692
Si      32.64558907      31.23640413      28.65755241
Si      30.51867421      30.41376268      27.81592297
Si      32.84961974      28.21440052      31.04053058
Si      28.88863185      33.54972031      29.01439248
Si      27.03776368      34.36036316      30.36859297
Si      24.98659014      33.66928549      29.46206254
Si      28.90300052      31.22457880      29.14855833
Si      26.67901257      28.11416637      28.46067858
Si      26.71822008      30.38775058      28.34231171
Si      24.86675078      31.25839128      29.67189096
Si      26.44187023      30.94593624      26.10292840
Si      37.27323273      36.84971988      10.38288361
Si      33.28165212      37.07251309       8.27311980
Si      33.58849984      35.82285268      10.26141609
Si      34.53819896      39.11344491      11.94701062
Si      33.10773802      37.38389027      11.97087977
Si      33.32353300      36.18629408      14.08160389
Si      32.40989636      32.50718561       8.54516275
Si      32.02348031      34.04124809      10.25001076
Si      32.30123743      32.88109139      12.37324522
Si      35.75096835      34.99992798      10.41721199
Si      36.01022697      33.89132418      12.41680452
Si      35.57698115      35.42578807      14.10866382
Si      34.38346952      32.12877398      12.56546058
Si      18.20832372      36.83389778      17.77203260
Si      19.54576959      37.35333728      15.87929832
Si      19.71191907      36.49502869      19.58631192
Si      31.28523557      19.45348161       8.77769367
Si      34.63084001      18.72819004       6.82633920
Si      31.87093667      20.81622539       5.21341857
Si      35.65245683      20.73440665       7.76127374
Si      36.33499984      17.22471305       6.38207821
Si      37.92328617      18.03283155       4.87773522
Si      34.12758567      15.83855706       3.35293722
Si      33.58880189      19.31795216       4.81829585
Si      36.17162095      22.00554314       4.29029960
Si      35.11753343      20.27877643       3.28183746
Si      36.76645595      18.60581777       2.91540628
Si      25.14525605      20.45645331      26.39427074
Si      24.23490597      21.57920483      24.45081359
Si      28.31849949      20.16989080      29.53036263
Si      28.03582782      18.53554057      27.76675498
Si      23.73222360      18.73621545      27.20525590
Si      26.84604673      16.84577911      28.58697359
Si      26.52425022      15.13669567      26.73560012
Si      27.27356206      19.64970603      25.87327691
Si      26.26636556      19.03408402      22.19817004
Si      27.11918780      18.01280158      24.09970322
Si      25.61978267      16.26457582      24.89972299
Si      24.64704323      38.15542788       8.59797896
Si      26.69706285      39.23706739       8.73378278
Si      26.78407361       1.20781457       7.51202317
Si      25.65990394       3.01197467      10.76248756
Si      29.42203113       2.68273537       9.80898158
Si      27.80746764       4.19456772      10.82308942
Si      27.81420081       6.17323827       9.56353808
Si      23.05245524      39.51837623       9.56207758
Si      23.05008399       1.65982893       8.35206520
Si      22.44632715       1.16460843       6.15882697
Si      25.10956427       2.61970819       8.50117223
Si      27.22199532       5.66101117       7.38593438
Si      24.93212904       4.70915157       7.14778555
Si      26.18404104      12.10761736       9.44635974
Si      21.70897621      12.77724365       9.95876744
Si      21.84039212      14.94921037      10.81583661
Si      24.92880610      13.47665128       8.03163035
Si      25.08242402      15.67686097       8.62420225
Si      23.82931618      19.25179074       8.09347633
Si      25.28798609      12.28731774      11.63157888
Si      25.20940563      14.43889739      12.38765832
Si      28.53514886      13.93679873      13.92824837
Si      27.24389548      16.41981976       8.81144091
Si      28.39421936      15.11936016      10.42686087
Si      27.17275668      18.81690115       9.75568106
Si      27.41422414      15.27091225      12.43272751
Si      27.45704041      17.38639778      13.25869607
Si      24.03415854      15.82312850      10.91481840
Si      22.77116090      19.30738168      10.19631970
Si      23.95316964      18.02887968      11.71004815
Si      26.30865392      18.84457788      11.81789193
Si      37.76602863       2.81631961      24.55274234
Si       1.31309912       1.33161690      27.10796677
Si       1.58572560       2.70825636      25.15770961
Si       1.94964923       1.38313165      23.24901833
Si      39.44717203       5.47663205      26.77511242
Si       3.54572766       4.07067087      25.61560711
Si       3.89524979       5.52049481      23.71231617
Si       1.68912041       8.19004906      25.32640078
Si      39.62958923       4.08078711      24.95501490
Si       0.12409036       5.58316614      22.99064105
Si      38.21228068       6.94300619      22.71119961
Si       2.00457865       6.80449452      23.40984203
Si      27.08794773       1.36031842      12.33243879
Si      22.73908750      37.30118026       9.40000635
Si      22.74855386       0.67744382      12.40598242
Si      24.15614549      38.86735085      12.60854097
Si      24.61151633      38.05892208      10.45259774
Si      26.17069277      39.57436600      13.53084670
Si      27.72008855      37.75201269      13.75738342
Si      15.96502272       7.84537552      16.75994543
Si      25.13141147      38.62070885      25.60954909
Si      26.78748548      37.57525753      18.24097914
Si      36.98408837      28.16736219      16.52606725
Si      11.01815776      15.66633776      19.05766284
Si       2.52290918      27.86609390       2.73526119
Si       9.70236340      28.69573225       5.67983428
Si      31.17114544      37.46357618       5.67961958
Si      13.27864045      32.40817561      12.85263118
Si      10.17293319      25.36930532       3.35577957
Si       5.39856017       1.20367207       3.86577347
Si      22.94900557      11.07863066      29.11845657
Si      14.60854653      33.58991420      36.43973468
Si      29.33295567      19.71900758      22.04567315
Si      29.05442880       5.37025006      18.20236183
Si      11.85401982      22.01839194      11.70711321
Si      35.02988245      36.75370825      10.04692771
Si      28.10711681      34.51703517      12.20744460
Si      19.37765595       4.19107899      16.12417988
Si      19.91180499      35.17446350      16.12199461
Si      32.50342051       5.75862978      36.96500452
Si      38.46974033       5.18980400       6.55314678
Si      30.03494319       9.18446028      32.24286824
Si      37.56747195      36.09992309      15.29595597
Si      17.92205259      17.79091539      24.62330108
Si      23.40165444      15.51897102       6.93494843
Si       7.84766021      18.20154093       8.46002978
Si       7.79321647      39.66391384       8.52084250
Si      19.45409081      26.74789913      38.59516441
Si      39.99326400      33.20395309      38.42772381
Si      10.55162065      10.46262554      11.60168798
Si      33.83514114      37.74542662      26.39137302
Si      28.89988731       7.42934559       1.51810662
Si      21.89867116       1.18413632      19.00587111
Si      34.50046725      31.54258720      34.22127286
Si       5.63403014      25.09725748      23.06995233
Si      16.99228020      30.33046442      26.99886458
Si      33.73471329      18.80326369      19.02687574
Si       1.96430202       0.46999632      14.74451811
Si      36.45842394      38.05225686       8.18169895
Si      37.27740850       6.91049424      30.08685187
Si       6.57449763      26.97520196      17.63817559
Si      12.74752410       9.91930685      18.84281473
Si      34.17899161       3.35352692       2.85864118
Si      24.58440775      10.00646419       0.54768591
Si      37.31617983      21.08726726      33.45617669
Si      10.24635183      39.48476484       5.01731595
Si      16.78177945      38.53642217       7.93732105
Si      10.63462891      31.01352883      10.87055870
Si      13.35233258      21.87132018      19.48818264
Si      11.77828256      29.31709960      31.83395923
Si      20.74001357       0.60455271       8.50656046
Si      31.68671170      12.83701734      27.28727851
Si       3.52312287      30.65759605      19.78759987
Si      24.63955827      12.50383996      20.13839345
Si      33.16035656      26.11821683      31.05467825
Si      17.84148529       7.44509669      10.85171687
Si       4.13178404      13.50066229      25.95671103
Si       7.70384129      30.08290140      10.69126677
Si      35.39887714       5.33844100      30.17646117
Si      35.57078784      20.51687198      23.75110952
Si      33.05392650      28.22962748      39.56573860
Si      28.90861664      24.99868750      33.09433664
Si       8.57829377       8.68187153       5.53695086
Si      15.47322970      11.43432104      29.79217483
Si      18.40475198      15.20243564      31.01480028
Si      13.05928340       2.59567542       9.34776971
Si      32.44082716      25.64877610       7.94654435
Si       9.46431120       1.50898560      33.25146836
Si      14.15717653      18.21131712      14.48500083
Si       1.49985508      13.85223342      25.34619985
Si      23.05006238      17.58947761      14.52379530
Si      32.29986924      36.26674824      27.20475578
Si       3.56639660      34.42038387      11.33757634
Si      13.39775286      21.55594778      25.22308850
Si      29.79901164      33.90591391      34.01877925
Si      23.57432847       1.75019929      36.87106225
Si      29.73813520      23.75245775      13.74819544
Si      14.75724200      20.15689253       4.94031224
Si       3.74105967      36.83098642      13.42210230
Si      29.45525485      17.84150167       1.48756701
Si      37.93732761       1.81141753       5.74937561
Si      27.55063110      26.49465352      15.34602586
Si      21.76461569      29.51578494       9.14687670
Si      30.82887492       5.72965101       7.34236684
Si       0.45445918       9.00153220      11.99757802
Si       6.05762342      12.83630245      18.76103433
Si      36.14928413      38.47277787       4.25200123
Si      34.50711950      14.79403469       5.58271168
Si       6.29640517      33.08720025      21.99170451
Si       7.72589241      38.96236394      36.94241290
Si       9.64309927       5.94992359      28.87132099
Si      13.83231011       4.41259072      18.62441705
Si       6.91176307      29.71526529      26.27553465
Si       2.50106116      30.08895945      15.87707937
Si      26.47426264      34.55618673      11.85919314
Si       4.85150339      31.89875303       3.86631083
Si      22.28784852      36.91954585      12.61723121
Si      27.63400302      19.47498574      20.45830361
Si       3.06943452       4.83966098      33.51333131
Si      25.79272992       2.23912895      39.24374874
Si      28.86427734      29.12892831      10.45076479
Si      32.96592128       4.30273713      34.93503543
Si       4.57128549      14.15553176       2.21811202
Si      26.56850561      15.44213844      20.44760738
Si       6.47701666      39.39490413      33.54645165
Si      20.03237156      18.14861136      16.30043929
Si      15.69880987      26.35813240       6.20625492
Si      27.70362237      22.37607722       5.04006599
Si      28.40800904      15.64634672      20.13074035
Si      12.59880964      28.72955929      26.52169630
Si      10.54951430      39.53509761      33.90720518
Si       3.32122568      11.18513482      27.21186737
Si      16.15906137       1.36160452      36.21297146
Si      14.22645691      24.57531262      14.67738551
Si       1.84786192      30.64418298       8.73371046
Si       1.85322641      26.42782892       4.46168266
Si      23.94627280      25.58866257      39.72127753
Si       7.05820105      25.09886222      12.62273694
Si       9.47167329      19.43685551      30.52613376
Si      35.35137725      33.63416814      19.85478804
Si      26.87820654      14.64575811      31.05861767
Si      22.03295452      13.35061166      15.26363445
Si      15.29350783       8.69348548      11.18653958
Si      26.61816715      23.18300021      16.08970814
Si      12.36183987      37.93303655      36.46579848
Si      35.00486012       2.19361832      33.30911345
Si      25.91003518      13.37194906      13.87197618
Si      32.41847204      12.66167709      34.27155194
Si      32.49860939      24.61114898      39.23616877
Si      29.94969486       0.36438521       6.01653046
Si      30.52868478      29.03336332      15.24214515
Si      21.75960424      32.63971063       8.73560113
Si      25.55980830      36.65106218       6.68139635
Si       7.69688015      14.96951442      33.62041235
Si       3.54766079      38.32955334      16.03187855
Si      17.73875642      28.86728123      39.50161521
Si      33.39751501       0.29699017      36.60930860
Si       0.18898743      20.77887560      12.89143511
Si      28.74477682      24.80842198      25.50480257
Si      13.66846947      36.09649806      31.60622703
Si      21.48122915      25.47362814      36.77017516
Si      32.88525923      27.15697208      28.12406966
Si      29.55691739      30.44378414      20.06139170
Si      25.28229108      30.44673330      23.90399588
Si       6.93501021      18.33466896      13.58961189
Si       7.43299458      25.58761107      32.31356026
Si       5.28275826      15.84851069      24.31638721
Si      36.67581068      32.96733404      18.03212313
Si      12.21238614      31.93513268      30.68674679
Si       5.14964546       2.95946558      17.38032330
Si      12.30807278      22.74560303      30.39828165
Si       5.19084313      34.81118585       6.20833442
Si      27.06895812      26.90539264      12.08863321
Si      30.04705118       4.78707509      10.01643423
Si       8.50677442      18.02796434      20.44569901
Si       1.51658190       7.29286665      36.49166493
Si       1.73901038      25.18449535      39.08655301
Si      28.21702758       4.92101365      27.01976340
Si      13.77244758       2.98089760      32.66129899
Si      12.56031369      31.73682362       7.25327640
Si      30.79957150       4.03349783      35.96463984
Si      12.72067444      13.69483497      28.15901926
Si       9.83719285      23.67415424      11.25604662
Si      18.16263739       7.84293315      25.28972340
Si      30.46462103       8.80623527      16.23601243
Si      16.68864221      36.02432645      35.82189645
Si      24.88464452       4.67971225       9.25141676
Si      36.46957687      18.76449760      20.49610918
Si      32.59208660      27.37575670      10.59373064
Si       6.27969063      28.69646313       8.67326177
Si      21.90103626       8.15050318      22.48658796
Si       1.55853357       5.30734686      18.94404999
Si      23.89873416       6.59946529      21.86124977
Si       9.64879921      25.15612409      23.41181052
Si      10.81756036      19.79883824      27.97765739
Si      30.16568080      13.04919867       8.25776622
Si      25.15940021       5.63477294      36.15469409
Si       1.68229085      22.62739895      11.85007872
Si      31.60096357      32.71067032      19.66918799
Si      25.13541230      18.32342306      26.05357013
Si       5.87879144      25.78577948      30.41258804
Si      11.46092953      29.80608697       1.35818308
Si      31.99913146      21.71621161      22.29489357
Si      32.70778683      21.50183626      37.26029433
Si      13.98868184      10.05213192      14.81589306
Si       3.26596444       6.24284576       3.50340276
Si      34.84068885      22.70333043      25.96929324
Si       9.42479416      37.73072046      37.66481326
Si       7.63425910      14.42331914      24.59442124
Si       8.31039767      29.11126802      24.81066551
Si      24.46798591       6.49368952      10.68190750
Si      25.48032069      39.57208565      29.21804721
Si      28.40969831      20.06386683      12.80609750
Si      23.75677666      18.10154766      21.03600340
Si      12.53677546       4.13231417      16.07509649
Si       0.28760056      27.54109908      16.15686118
Si      39.53308807       2.65788529      38.33863413
Si      20.55113204      36.04781344      11.17392416
Si      27.87194304       1.12725282      24.76585784
Si      37.08997948      12.87673510      19.86034295
Si      15.64040129      25.58816780      17.44891966
Si       4.28011439      15.48336899      38.44788461
Si      21.85972139      21.58705867      18.71345954
Si      26.23576931      23.56823600      33.13159335
Si       0.72952309      36.34049712      12.16513537
Si       2.38555204      11.81928487      35.72853353
Si      11.90014295      36.08829599       7.12124592
Si      28.67554966       6.77013044      34.80595422
Si      38.11750312      36.92969101      30.71967955
Si      14.09103252      16.34867950      35.63428331
Si       8.75408601      24.29506015       4.21302548
Si      17.68831696      35.03386641      39.45858105
Si      38.11579838      10.44781517      33.40856254
Si       2.08438032      21.44390680      28.50427068
Si      11.35043988      36.82237114      17.55678037
Si       3.83829541      27.47650617      11.12465870
Si       9.86090190       9.70906398      15.84409565
Si      17.54300604       0.43530567      21.95400776
Si      12.39618420      30.05656713      38.53849698
Si      13.77819227       3.74283743       2.51359683
Si      13.08976158      38.41472725      10.80402793
Si       3.60433511       3.19861060       9.01585921
Si      17.63139929       9.40134013      14.96264954
Si      35.50726794      21.50734716      31.18491553
Si      39.88021239      31.32235868      12.79663630
Si      19.38485991       1.38488882      37.12788529
Si      25.88108271      19.36542240      28.89892189
Si       4.40934280      31.78448151      24.35844943
Si      19.22294501       1.52166243      22.78371769
Si      26.44361778      22.10684367      26.21022793
Si      17.10486317       4.36987803       7.61448966
Si       2.96788737      21.37533418      13.71097580
Si       9.03666292      38.05291865      11.74883732
Si      26.81944182      27.78909343      26.08595034
Si      17.88906827      12.12858323      39.44822292
3068
Lattice="40.0 0.0 0.0 0.0 40.0 0.0 0.0 0.0 40.0" Properties=species:S:1:pos:R:3 relative_density=0.96 cell_dim_angstroms="_JSON [40.0, 40.0, 40.0]" n_grains=239 grain_size=8.0 crystalline_fraction=1.0 grain_radius=8.440649961279794 pbc="T T T"
Si       7.82747537       9.03989634       5.33261862
Si       9.51445559       6.47320027       3.17279006
Si      11.32974297       3.88022920       1.08136434
Si       7.54961918       4.31302698       0.70688374
Si       7.48016361       6.93295255       4.35087559
Si      11.11858276       1.83609207      39.97898568
Si       9.35374315       1.74307380      38.47451740
Si      10.74921002       0.08236203       1.69374139
Si       7.34447832       2.27777898      39.74907504
Si       9.33340993       4.40514742       2.21034560
Si      10.84031309       2.80369006       5.22849700
Si       9.04840691       2.69018044       3.90117484
Si       8.80301692       0.76814840       2.78751279
Si      12.21343028      27.83321487      20.53155421
Si      11.58998459      25.94412871      21.81039265
Si      11.62036660      26.62705533      24.12769042
Si       7.93816647      27.78077243      23.84849683
Si      11.23368289      31.34511837      19.45621953
Si      15.11290175      29.69096787      17.40985835
Si      14.40683335      28.45348875      21.09474747
Si      14.98255147      30.34503650      19.77129731
Si      14.43647334      29.11509823      23.30819009
Si      13.49932992      32.02855423      19.93828214
Si      10.62021455      29.37093168      20.83111001
Si      10.14999506      28.40859774      24.39167977
Si      10.77335636      30.27784516      23.03062526
Si       9.95668728      29.04466289      26.61831328
Si      12.85123581      30.82648825      23.64915538
Si       7.14553056       1.45811530      19.42061986
Si       7.05963768       2.72518196      21.54405131
Si       4.86709433       3.44298413      21.81153046
Si       6.41086247      39.50189475      23.41318964
Si       4.24780317       0.19454388      23.85699496
Si       4.01247685       1.45280023      25.80434117
Si       5.75188881      39.55399387      19.74814007
Si       3.58671493       0.20447567      20.14265761
Si       2.84808717      38.36482055      23.96898995
Si       3.47873391       1.57183132      22.13128915
Si      13.50264375      19.37964712      10.16098127
Si      13.72865384      18.36679555      13.73606921
Si      11.59930987      18.12624531       9.92434653
Si       9.70161728      19.55886567      10.55678786
Si      11.89604970      21.40125527      13.02109518
Si       9.67258298      21.30405501       9.10317447
Si      11.77113211      23.30615946      11.38526258
Si      10.00536551      24.74335015      12.09737605
Si      11.66742304      16.97646155      13.69932570
Si      11.92654964      15.26334097      15.04573179
Si       9.99226653      18.29137453      14.13620514
Si       9.60049768      14.95933813      11.29113900
Si       7.64083153      16.32860997      11.78016925
Si       5.83019837      19.62104583      10.87705513
Si       8.01745635      17.09488284      13.89514794
Si       6.25800533      18.36310600      14.56552585
Si      10.09537808      19.07492255      16.37495642
Si       9.87890085      20.17567921      12.65259090
Si       7.87410062      23.42071507      11.83451917
Si       8.08380217      21.53505002      13.25963826
Si       6.03272914      20.31613555      13.03460040
Si      18.49662994       4.51358486      22.38046295
Si      18.69323589       6.68001482      21.44132806
Si      22.44007504       6.73032310      22.28352629
Si      19.70745672       5.83913467      25.81016995
Si      19.84386606       7.94533053      24.89920058
Si      20.33270816       7.90925553      22.59212552
Si      20.49792198       9.98364915      21.57850981
Si      26.18132800      20.31711491      28.35405884
Si      24.09689480      20.72770770      27.07742756
Si      24.42007082      21.91338446      25.08809047
Si      27.57279956      23.66902817      26.90551938
Si      23.99565701      25.21745398      26.92434654
Si      22.66381425      22.11868876      23.93738910
Si      21.99765553      25.44967786      25.69198083
Si      22.38411309      26.66063714      23.81818376
Si      25.59053265      23.90104685      25.65906156
Si      26.05815538      24.98527474      23.61798427
Si      23.97535983      25.40382360      22.41457121
Si      26.91967594      27.13998748      24.22453292
Si      27.23863812      28.47015664      22.27497283
Si       4.81833412      24.10088596      33.54904775
Si       3.17354333      22.54970900      34.65790862
Si       2.53237396      23.59234267      36.75688041
Si       4.24509997      20.52417531      34.93137240
Si      35.32464071       8.98744069      35.21640966
Si      35.94844442       5.32602231      35.75630747
Si      36.63100477       5.79520361      37.92753677
Si      34.87135594       5.74661309      39.53296104
Si      35.79297014       6.35328811       1.69936656
Si      33.84606483       6.33228017       3.24425715
Si      34.34859430       6.86844832      35.20481790
Si      32.45939434       6.77087876      36.76123911
Si      30.84232918       8.34288295      35.98347106
Si      33.24375266       7.29349746      38.85785120
Si      32.28468768       7.89943291       2.45041179
Si      31.44913315       7.31740737       0.31682959
Si      36.18154522      35.08223707      16.12833556
Si      37.18485641      37.45151869      19.71429039
Si      38.09495646      36.01428278      16.17152080
Si      39.73429410      34.62688045      17.37682450
Si      35.24848641      34.41655860      18.14643376
Si      33.18860751      33.37141440      17.99022689
Si      36.81486042      32.96929982      19.27726131
Si      35.67403719      34.45284664      22.72145123
Si      35.93871305      32.38296363      21.40744426
Si      37.39171091      30.83269706      22.46576798
Si      36.39167756      33.00941614      14.80557734
Si      39.90539816      32.61310883      15.97338585
Si      37.89032435      31.57328303      15.82027733
Si      36.96947395      31.04038993      17.98646786
Si      38.76664904      34.07783198      19.42122799
Si       0.48381170      32.58065242      20.51088816
Si      39.55066573      31.93365217      22.68181405
Si       0.69663319      30.63318713      19.13414043
Si      36.94107433      19.52174705      19.14204752
Si      39.89833562      21.79583041      19.35420726
Si       0.95029479      20.43043948      21.14614939
Si      39.03069549      16.42800432      20.14461651
Si      37.85350848      21.56613773      16.22038649
Si      35.61362706      18.02281371      17.83122516
Si      39.72911606      22.52581959      14.96287124
Si      38.76431196      20.32757295      18.03731220
Si       0.88640976      17.14412453      18.93107159
Si       0.00847107      18.51453681      17.13708446
Si      38.68955602      17.22005752      15.86342852
Si       1.83938985      19.27176112      16.01250407
Si       5.04246108      21.20769220       4.04631761
Si       3.73049867      25.37649512       2.67458232
Si       4.47619745      23.78424277       1.22034792
Si       1.65019219      21.38762166       2.30017675
Si       6.09017634      22.28605016       2.20787540
Si       6.67251917      20.75701498       0.71297735
Si      15.70154359      31.07282832      25.89490619
Si      17.00323593      34.11245160      28.63951382
Si      18.54740462      33.29399618      24.49607712
Si      17.17793650      35.26278198      25.05403606
Si      15.66515116      34.76712045      26.73602370
Si      14.31843106      36.61864255      27.19540627
Si      19.65499600      35.59613774      31.09704804
Si      15.53475512      33.78207905      30.45708343
Si      14.09024246      35.54015699      30.97269162
Si      18.32337575      36.06868676      29.24932670
Si      16.92980764      38.02326675      29.56739774
Si      15.52174386      37.57050855      31.38422322
Si      18.45755257      39.86700251      30.22405442
Si      27.86417892      19.99408260      24.10719216
Si      26.25946243      17.43232246      21.65531260
Si      30.34951341      16.22114846      20.44246064
Si      28.17331741      18.87505043      22.21934874
Si      28.49554063      20.32578501      20.23355289
Si      17.41092560      14.58777926      14.11511705
Si      14.05692384      12.09361166      12.44486689
Si      14.13490130      14.50294441      16.14779214
Si      15.23124372      11.41004844      14.27269964
Si      16.36278927      15.29933158      16.06087850
Si      17.63378085      14.65572743      17.90086538
Si      21.94739073      11.56695826      13.97055846
Si      17.47506275      12.18190638      14.05263134
Si      18.63007091      11.47966145      16.03247325
Si      20.76922072      14.71942556      15.92542523
Si      19.75924775      15.52319723      17.74722224
Si      20.87826859      12.20458477      15.84907228
Si      14.06074509      12.18298419      16.21606116
Si      15.33020543      11.37653111      18.12368357
Si      13.16399962      15.26165863      18.11826412
Si      16.60928446      15.37302465      19.86946114
Si      14.38971831      14.62540000      20.03888957
Si      14.40394071      12.21039904      19.91334650
Si      18.77258921       9.06399812      15.94899326
Si      17.68481770      12.26832786      17.99188700
Si      21.04228798      12.37497248      19.73823768
Si      18.86775513      11.51851685      19.75819211
Si      29.78780707       9.72668861      37.06669268
Si      30.68006352      10.96871741      38.89468903
Si      32.23379873      11.57344879      34.79377653
Si      33.06865623      12.73806609      36.55548230
Si      29.26889682      12.89486421      39.29371341
Si      31.75437837      14.83019421      36.85764132
Si      30.32875799      14.00780968       1.16223918
Si      34.16350529       9.49536592      38.17416565
Si      30.59897317       9.64896493       0.81797484
Si      35.71534773      10.12654225      34.12477413
Si      35.32505826      13.37889133      36.07237780
Si      32.89265666      11.30511145      38.60382620
Si      32.55149952      14.71986284       0.54487335
Si      33.81648714      12.69267347       0.34679220
Si      18.89686264       7.56239581      36.10687187
Si      17.65203042      10.84375958      37.77590238
Si      21.05045635       8.37550311      36.57790207
Si      19.85143047      11.66467022      38.27619905
Si      17.55779233       9.47876543      35.77275595
Si      18.30967710      10.88918498      33.99253116
Si      19.30287091      14.71218910      35.95935125
Si       8.45028847      21.72149432      30.53925147
Si       9.23103441      23.06883672      32.32615113
Si       9.75910318      18.53691600      32.45231332
Si      10.43708928      19.87399662      34.23868150
Si       7.61866907      23.34833170      34.04901603
Si      14.58298977      20.55556944      32.89811450
Si      11.33313621      21.95050488      33.47653934
Si       8.80684565      11.95470855       4.91207085
Si      12.53062581      11.58704626       4.09604861
Si      12.91879558      15.23880766       4.29795582
Si      12.96912826      17.35944841       3.06742661
Si      13.34922526      19.16580491       4.45643795
Si      10.91520321      11.70543554       5.73212654
Si      11.34786352      13.44201827       7.31597643
Si       9.74812865      13.40240459       8.99012265
Si      13.59352104      13.09589768       8.24052412
Si      13.83892040      14.98933860       9.61662552
Si      11.23126070      15.46749523       6.00395416
Si      11.66140801      19.28750982       6.20256643
Si      11.66853587      17.26380121       7.42909300
Si      10.10214173      17.42387291       9.10570998
Si      13.90327961      17.05127682       8.41656630
Si      12.41353672      15.09745544      11.30475032
Si      15.39882239      16.14717216      25.13888445
Si      17.13366350      16.32726998      23.60471329
Si      17.50257642      14.42030035      22.48947903
Si      19.24764954      14.61373583      20.78189005
Si      16.32216231      12.47212314      25.64571264
Si      17.28258404       8.84347326      25.97182833
Si      13.47459645      15.47324464      24.05986659
Si      15.41592343      13.83378726      21.46603430
Si      13.73270607      13.50193882      22.98283072
Si      14.47901574      11.84154586      24.50479958
Si      18.14156554      12.67401278      24.12738018
Si      18.41011340      10.65684250      22.92484900
Si      16.46151641       9.99930460      21.80092408
Si       4.98832158      32.42534845      32.22050391
Si       5.49946279      35.84673216      33.75314336
Si       8.14992201      33.30283203      34.20937630
Si       7.33798537      31.95311311      32.44852238
Si       7.78731697      35.45339374      33.89207318
Si       8.91169362      36.14706335      31.98326388
Si       1.24049995      34.43715777      33.62471294
Si       2.29789419      35.13497756      31.65015579
Si       4.18725044      31.28799608      30.37291201
Si       5.29916609      32.00158139      28.32684537
Si       4.54135032      34.74316099      31.79990451
Si       8.11229353      34.95913894      30.14089366
Si       5.87884704      35.42895452      30.00142588
Si       9.07842075      35.82492114      28.11475175
Si       5.08844874      34.20488490      28.06210228
Si       7.64334200      31.56427196      28.63994889
Si      14.38782881       1.80188212      33.62086778
Si      15.51047467       2.31660093      38.03190549
Si      16.15642659       0.40282707      36.78428980
Si      12.49308500      39.49739953      36.14192284
Si      14.63115708      38.87925282      36.86388292
Si      18.17806926       2.55818979      34.16301689
Si      19.27730802       3.14089918      38.53374047
Si      19.87298755       1.25619166      37.39831098
Si      16.44520256       0.92081124      34.42284899
Si      15.44478964      37.37820358      33.51583436
Si      17.09503226      38.91076202      33.28238342
Si       6.82348717       9.83465880      26.80041313
Si       6.95690055       7.64006733      22.93834508
Si       8.29636543       9.59098656      23.45063276
Si       7.31862740      11.49079686      22.73905423
Si       8.51118271       5.84755318      26.13007575
Si       9.87302554       7.75484646      26.47688611
Si       8.71407300       9.57372736      25.72040323
Si       9.03926205      13.43976463      25.45954994
Si      10.06347848      11.49589067      26.10580774
Si      33.43071782      32.51493412       4.60673052
Si      34.78399180      31.94332063       6.56627036
Si      24.01158559      28.82182739      23.08061770
Si      23.19780288      26.18940351      20.51043850
Si      22.81421248      29.79675593      19.62131089
Si      21.91032109      28.86867403      23.95060577
Si      20.42634118      30.40092969      22.66668721
Si      23.70156922      32.54905310      22.23552525
Si      23.85759992      32.02151819      19.91452440
Si      21.41121496      32.47342420      22.97422760
Si      20.21536835      34.14557648      21.57371817
Si      20.95613012      26.11091556      21.42491313
Si      19.64752063      27.78228419      20.07472447
Si      19.81326112      27.08907451      17.68973083
Si      18.61484342      28.67827660      16.60306150
Si      18.41552028      30.54735855      23.34534090
Si      17.46605621      28.25187550      23.05615689
Si      17.03469510      31.92328582      22.21638691
Si      17.61733350      27.66014249      20.69533676
Si      16.25581088      29.33256301      19.45875786
Si      20.68194034      29.89756599      20.38436140
Si      20.26423062      33.51065993      19.47691026
Si      19.35475883      31.44421511      19.06716209
Si      19.52067349      30.85149593      16.69530049
Si      17.25490989      31.40159076      19.85006839
Si      18.02054300      34.10078176      22.43023916
Si      16.40920575      28.66355458      17.24106476
Si       2.29795031      36.56604868      16.00744558
Si       5.93040729      37.31918774      17.01785831
Si       5.20697870      39.26317046      17.94070442
Si       4.82575906      33.73385474      16.28474215
Si       3.10574211      31.95307183      16.57036125
Si       6.64020854      32.98098691      17.66102432
Si       4.22076714      35.64567630      17.20793172
Si      14.82539812       7.29408753      35.07525685
Si      13.42458064       8.29346272      31.61734648
Si      17.25682355       8.13912002      32.04150163
Si      17.60264668       9.43928629      30.23420386
Si      15.19348428       8.57076208      33.06387815
Si       0.04595207      20.73114645       7.83196561
Si       0.39585121      23.03215807       8.31011268
Si       2.01133369      23.89756711       6.78100760
Si       1.96905435      19.47931077       8.26570774
Si       3.68383604      20.32635194       6.68151274
Si      39.35489328      20.49365079       5.74008451
Si       1.10081471      21.33748540       4.23529371
Si       1.40312116      23.43821563       4.51676181
Si       2.95409707      19.93775033       4.50636658
Si       3.10290060      21.96917999      10.95304914
Si       4.82304058      22.65137931       9.39797560
Si       6.46295518      19.37810550       9.25541740
Si       6.77042787      21.59749136       9.73014533
Si       3.99467225      22.56691075       7.14204846
Si      38.29846719      14.19629739      28.63031915
Si      34.96932597      15.60296816      29.67677173
Si      37.79080938      18.64223628      28.05766240
Si      38.14112255      17.61469298      30.21835650
Si       1.47056960      16.17145090      29.22566546
Si       0.33004370      17.57552275      30.91517344
Si      33.98981731      15.95950896      33.48180088
Si      37.36185355      15.53216614      30.33283446
Si      36.57413581      12.41027937      32.40897540
Si      37.41627958      14.61345506      32.25329306
Si      39.70372376      14.37679571      32.89372953
Si      36.26812676      15.92865792      33.88382176
Si      14.10986615      18.94428521       7.43169823
Si      15.64444669      15.92321281       9.30960225
Si      15.06685226      17.13447643       4.05483797
Si      14.80400932      14.30355499       7.56131379
Si      16.54161721      14.11289516       5.95911236
Si      18.09443645      11.28392527       8.03540082
Si      15.86609779      12.62474008       4.26539569
Si      15.98661308      15.46313554       0.70519871
Si      17.64080141      12.50444008       2.62310311
Si      16.10845573      18.02748294       8.28404724
Si      17.73692588      17.76927732       6.69478488
Si      15.54529912      19.33914712       3.03888761
Si      18.16392689      19.90248756       5.90140588
Si      17.49845353      15.03548249      10.29159120
Si      18.50282904      13.34606881       6.96081983
Si      19.25719984      14.85093418       8.60143154
Si      20.18868132      13.13893212       5.46075899
Si      19.68708620      16.82856848       7.68935102
Si      21.27931839      14.00136494       9.59176059
Si      17.00191389      16.32500918       5.08699938
Si      17.89778493      14.57566861       1.73908737
Si      18.75419096      16.13091052       3.37078143
Si      19.69814874      14.34865337       0.08245727
Si      19.06727577      18.20753255       2.61520122
Si      20.61067837      15.16732794       4.42809813
Si      25.20177215      27.47149693      33.32931264
Si      23.73329628      27.53972486      34.97886948
Si      24.36410528      26.33772641      31.44255776
Si      26.06798269      23.21647052      32.74466778
Si      23.96605213      24.19457280      32.17053647
Si      35.37638177      17.60191428      21.54390212
Si      36.03499486      18.10598911      26.04011240
Si      37.48667024      20.07673142      26.00477114
Si      37.28383696      17.09064924      22.61162332
Si      38.71933722      19.01656998      22.52096017
Si      39.46936952      19.50799311      26.87061798
Si       0.49557134      17.80564000      25.65199373
Si       0.83996177      18.42684114      23.53102383
Si      37.61259260      20.69837982      23.68384098
Si      39.04686290      22.56551104      23.73231205
Si       1.12412585      22.23119592      24.54864574
Si      20.81904062      36.99343457      24.13147609
Si      22.79925550      37.44511719      22.78616067
Si      25.34013811      31.50265966      24.56447144
Si      24.99924406      35.26537585      25.23462174
Si      22.90872402      35.73416537      21.03155410
Si      25.11865316      33.61497857      23.51854660
Si      24.67146581      36.18115283      19.85394782
Si      26.97715236      34.05937784      22.22340051
Si      24.50700268      39.10816446      25.70245628
Si      22.53194249      39.45838714      21.72422963
Si      26.69309830      35.22800112      26.43019844
Si      26.54816808      37.04104862      28.27957955
Si      28.69333470      35.77351098      25.16578205
Si      26.47653588      39.05535087      27.03580280
Si      28.36254652      39.45457042      25.69160564
Si      24.71638612      37.37040754      24.09747747
Si      26.75814931      36.09031642      21.13141243
Si      26.57169051      37.76004693      22.79478239
Si      26.49471830      39.88625842      21.62914566
Si      28.52655077      37.78933677      24.10047752
Si      28.93254888      34.03501071      23.68837900
Si      25.56193900      20.20829334      13.60328061
Si      27.07028979      17.61310904      15.97010995
Si      25.99785009      18.76041284      11.75388146
Si      27.00106007      21.18351137      17.10233863
Si      25.95257764      22.44881537      12.88954274
Si      27.96247734      22.77628278      11.90690922
Si      29.33044410      23.82216180      15.38537591
Si      27.29034121      19.79678572      15.25568749
Si      29.89635792      18.68931495      12.54822104
Si      29.40778525      20.17290338      14.34816899
Si      28.36820704      21.25177510      10.08381341
Si      34.52077180      31.14718254      21.80919034
Si      36.90335697      30.87338706      25.76438884
Si      35.10939942      29.85894395      26.96934804
Si      35.29637687      29.16545424      22.57631139
Si      33.71019569      28.06012192      23.88170212
Si      34.10637798      32.55365806      23.71747034
Si      32.50498844      31.56779532      25.00056531
Si      32.67866520      30.84296156      20.50349958
Si      31.73570519      27.91006115      22.61146868
Si      31.01876977      29.81287406      21.80112441
Si      29.98335488      26.88417826      23.89941956
Si      30.55745023      31.25395025      23.60052662
Si      28.76991557      30.16770320      25.00013963
Si      33.14528174      29.43567996      25.72955257
Si      31.61473797      28.54660755      27.04722695
Si      30.92871544      29.98694756      29.00457661
Si      29.72216030      28.25226650      25.81344188
Si      28.27821221      31.75237427      26.92417773
Si      21.55011313       3.83820592      19.64171564
Si      21.26669776       5.26039079      23.25524458
Si      19.70689558       2.32932315      20.12134423
Si      19.42257348       3.89671544      23.60324755
Si      20.21886673       0.36605447      21.01920751
Si      23.05610051       2.69544253      18.23189646
Si      23.64484711       0.58721693      19.15069442
Si      22.65958394       4.16106618      21.65043603
Si      21.53219833       0.75135067      22.96507133
Si      23.33534693       2.06028493      22.77911449
Si      24.95315594       0.96720357      21.24186964
Si      21.88412461      39.39757578      19.47515594
Si       3.19324349      28.15322669      11.44594620
Si       0.98543131      24.91005961      11.21451636
Si       4.16659144      25.04158373      13.66147789
Si       2.81879960      23.60557805      12.12413400
Si       1.98710850      26.74787373      10.06961750
Si      39.04189581      28.33259319      36.77544670
Si      38.11391984      30.26317062      35.67061787
Si      36.25043525      30.77945772      37.03600851
Si      36.85783867      31.55193953      39.13360720
Si      34.00234681      34.09405439      39.27623819
Si      34.03636045      34.94368896       3.70559345
Si      35.81332323      31.63569326       4.41808851
Si      32.09376353      33.98098625       4.12360157
Si      37.64328728      34.42699974       2.61220568
Si      33.86784372      36.82210814       2.21009046
Si      33.08541114      35.79526729       0.10198156
Si      37.51136768      36.20586673       0.93446518
Si      35.61676356      33.39812354       3.12427406
Si      34.89791313      32.64150500       0.87877649
Si      30.94781786      34.73402171       0.48833804
Si      37.05801925      25.21366660      33.23462640
Si      37.07389763      22.97317817      33.81927017
Si       0.86697652      22.89627261      33.27343760
Si      37.43176192      22.80682661      36.15754087
Si       1.12568765      22.60531876      35.62967752
Si      38.62438991      22.26442531      30.42520202
Si      34.98129857      22.13220582      32.97734167
Si      36.68908882      21.27726444      29.74935385
Si       0.35219342      18.91055175      29.68707026
Si      38.84629456      21.94060642      32.68527915
Si      38.86519647      19.67903908      33.20990849
Si      36.83663872      18.69742287      32.48279355
Si       0.69650105      18.71266990      31.95047250
Si      37.17427515      13.00552848       7.18069886
Si      37.69753807      16.68189257       6.69202447
Si       0.32184785      14.14596424       5.63313648
Si      36.17886207      15.11159520       6.80415335
Si      35.09048453      14.88549058       4.66694437
Si      38.82152793      12.58027976       5.65923048
Si      37.88409283      12.40153299       3.53441705
Si      39.44393232      16.45615726       5.26763923
Si      38.41163014      16.10803058       3.08295310
Si      36.82408335      18.86891298       6.17215423
Si      34.10491750      16.94646949       4.06285633
Si      35.72678755      18.72391852       4.13864227
Si      37.32129168      18.21771101       2.60630135
Si       0.04030769      15.69513556       1.45675351
Si      36.92301367      14.50683454       3.01495511
Si      35.74368570      14.31900946       0.84813699
Si      13.82832601       4.49280820      26.29753037
Si      14.34433719       6.02364787      24.47165885
Si      16.36736184       7.09065765      24.78378771
Si      15.23272421       1.66193323      28.38376274
Si      13.75157157       5.90096717      28.31085818
Si      15.73164826       7.01588222      28.70276586
Si      15.56261890       2.97338058      26.53346011
Si      18.09489049       5.65805439      25.10042539
Si      17.65756719       4.12613514      26.89505502
Si      19.40988778       2.65998877      27.22177878
Si      30.27486472      22.34736245      29.34801689
Si      28.95002834      22.39184065      27.51482010
Si      32.48442880      24.16188100      31.75366470
Si      33.62935943      26.21131814      32.21518533
Si      31.30306249      24.33493711      29.91327248
Si      29.65692394      26.05475408      30.00354533
Si      28.28846730      25.55144498      31.85804683
Si      30.99345897      28.06534141      30.68195514
Si      24.89488480      23.31852928       1.83827178
Si      25.23252314      23.30019741      38.05604684
Si      23.86239247      22.54299737      39.91734930
Si      25.32128831      25.62122702      38.17182698
Si      23.04565944      26.63033043      37.97622517
Si      28.09802550      25.53130709       4.23883131
Si      26.03690473      26.39272330       3.95085845
Si      23.59473587      22.52978248       3.61196957
Si      24.51371466      25.64986924       5.76492686
Si      22.53162876      26.52594862       5.42754572
Si      24.97698632      25.60911371       1.83504886
Si      21.76994672      25.83281702      39.71205751
Si      22.69529798      26.55978648       1.70312009
Si      21.54336233      25.74226124       3.46136640
Si      22.87930784      28.75661779       1.65143956
Si       3.01657349      33.89157337      38.21411037
Si       2.34105799      33.30015280      34.56785915
Si       1.71676515      29.77311156      36.92268533
Si       3.83634229      30.46189157      36.67982451
Si       5.11557969      29.94124905      38.57720962
Si       4.61986468      29.52655913      34.76226178
Si       6.82327366      30.23397314      34.42240598
Si       3.83976890      32.80099739      36.34898456
Si       5.96890350      33.67400516      35.93684393
Si       7.31328496      33.08410452      37.99542097
Si      16.54527479      12.44407201      36.97136656
Si      18.83271327      15.88020083      38.66056425
Si      15.82326224      13.67619223      38.89929311
Si      17.65432721      13.95218518      35.51717197
Si      14.60552346      11.71973205      35.92956947
Si      13.14090255      13.35163612      35.29716965
Si      15.46802922      16.82073271      36.84779610
Si      23.56659074      23.03684319      18.95114039
Si      21.57442100      22.79752976      15.68574423
Si      19.76915037      23.07779239      19.05389903
Si      21.68121193      23.83200260      19.88568106
Si      19.87643277      23.86111841      16.77896082
Si      19.96486269      26.12988386      16.53065058
Si      25.40283632      22.60666025      15.57346762
Si      21.47870248      23.37292044      13.37443979
Si      23.42508768      22.35948263      12.29043286
Si      21.71076872      25.73147618      13.15612002
Si      25.46786344      25.40635004      13.03312744
Si      23.63523617      23.47664489      16.68082007
Si      19.74300630      26.75526900      14.25218552
Si      38.36600414      38.71828410      21.41000636
Si      39.04222175      37.12045470      19.84300922
Si      39.69000098      34.56487999      22.92789223
Si       2.52158675      36.78739119      21.65916518
Si       0.62012914      35.64781812      20.87882623
Si      21.90217058      34.78454427      29.38362836
Si      22.18293765      36.86865916      26.22071846
Si      22.91684395      33.01889804      26.09634401
Si      19.80983865      34.65936221      24.36216997
Si      21.16721317      36.73985468      28.16170590
Si       4.92310232       2.53826111       7.64401331
Si       5.80025932       2.93451342       9.88348995
Si       6.41596548       5.88001448       6.41530939
Si       7.37659791       6.22473777       8.64074872
Si       8.65551289       2.54490971       6.41372787
Si       9.32878284       3.01650293       8.52854859
Si       6.27541773       0.86852970      11.00547860
Si       7.10350206       1.24942810      13.19312746
Si       9.80271179       1.00905821       9.72675285
Si      10.66930459       1.35697973      11.74265041
Si       9.27740151       7.63301188       8.53899187
Si      10.13169109       7.96288584      10.78595456
Si       7.73804749       4.15152213       9.77941092
Si       8.45991877       4.52128166      11.93061983
Si       9.00630032       2.47204411      12.99651545
Si      10.49971839       5.95578994      11.85840615
Si       9.75986944       2.89842261      15.22106946
Si      11.26032868       6.31905658      14.08655740
Si       5.53686756      36.29897151      39.74300856
Si       5.11402797      31.46621659       2.13628998
Si       2.02996400      37.14287820       0.97373469
Si       3.75309027      35.52615307       0.92746223
Si       4.53039533      35.01640816       3.06405471
Si       2.62263895      34.28275494       4.30400793
Si       7.87522901      34.21604547       1.92038548
Si       6.94263255      29.76003124       2.03986987
Si       6.39931643      38.25154178       0.51904120
Si       5.21964172      36.89727207       4.06650552
Si       7.04532204      37.79761613       2.92298730
Si       5.85383083      36.55132492       6.39729373
Si       8.84550018      36.05731018       2.87191756
Si       9.50157123      35.70071843       5.01609885
Si       6.09337412      33.37712821       3.09603456
Si       6.66198909      32.96253575       5.19889876
Si       8.41779565      31.29177121       5.25104611
Si       7.54826143      34.71000280       6.30274171
Si       2.53804668       8.13864309       2.24997850
Si       6.03438525       9.20512084       3.68832715
Si       3.54979118       6.87537291       0.55113664
Si       3.90011006       8.21984263      38.70329211
Si       7.35637682       9.34010849       0.15909663
Si       5.03038023       7.04672823      36.86572787
Si       5.25177640       8.51016532      35.13912174
Si       3.80844017      10.04038895       2.82048939
Si       4.24566737      11.38280008       1.03736563
Si       7.26705293      11.06764130       4.31464791
Si       5.34506569      13.29979905       1.58532094
Si       5.75518528      14.67610310      39.72140005
Si       5.19232003      10.21915860      39.30315176
Si       6.70907073      10.34052742      35.78173399
Si       5.49149736      11.49591850      37.35354873
Si       6.91484607      13.44194361      38.00681268
Si      24.93778353       3.80654584      39.74295068
Si      26.93549049       5.19095398      39.55056764
Si      28.69555371       3.75831162      39.35214100
Si      25.01054953       2.38125696       1.46976180
Si      26.99372740       0.88326298       1.14471243
Si      24.60531458       2.77077823      37.69655096
Si      26.40679602       1.26303340      37.31475709
Si      26.74278691      39.66711041      39.16780641
Si      28.62121555      38.37667121      38.73920520
Si      28.93586342       2.21935818       1.03026035
Si      30.48321873      39.62664221      38.66126586
Si      30.83106283       0.76902117       0.66757084
Si      13.49216289      10.29646250      20.02410809
Si      12.86329619      13.93379905      21.07438891
Si      10.58705288       7.83472534      20.05750074
Si      12.90043874      10.89231930      17.73066930
Si      11.99441466       9.08857319      16.70974933
Si      11.45253667      12.66491939      17.98030335
Si       9.91215454       8.35014585      17.70564245
Si       8.71181224       7.09128972      21.06603505
Si       7.15126523       8.84838006      21.17275178
Si      11.45457758       9.47847928      21.14188370
Si      11.01202652      13.16091756      22.37927986
Si       9.96210137      11.32265870      21.19122998
Si       9.49483675      11.93421682      18.93961113
Si      35.20084440       1.89790487      32.43489945
Si      34.23563799      39.16170762      29.96176280
Si      33.09314207      39.05455966      33.65934057
Si      34.84595128       5.60539879      28.49723738
Si      34.69970462       1.47223691      30.28073673
Si      33.83887656       3.01533229      25.99646118
Si      32.68094616       2.77766063      29.67746871
Si      34.31859100       5.21150523      26.33064484
Si      33.40176486       1.32550109      33.87926278
Si      31.48329784       2.48911578      33.32233741
Si      35.61681551       4.26901113      32.64562336
Si      33.01463974       5.06063246      29.93072546
Si      32.39035109      38.74887055      31.39125206
Si      30.50182530      39.77236421      30.82559049
Si      32.13079340       2.26175635      27.35250307
Si      31.69664567      39.96322003      27.07944104
Si      30.08567544       3.51600956      26.96804737
Si      29.89214405      39.45475744      28.65157137
Si      27.98099321       0.60733305      28.15762788
Si      28.73658036      39.16862394      32.19865493
Si      30.72523172       2.12021827      31.11235200
Si      29.49001246       5.68576380      30.91755760
Si      28.98630782       3.36410652      30.55095598
Si      28.45306923       2.87595283      28.33673845
Si      27.15991656       2.83785763      31.92540717
Si      30.70513038       5.84930271      27.14304792
Si      10.84410181       6.14463932       0.35021390
Si       7.37906762       5.54657556      39.21990776
Si       9.96888659       7.08485612      36.04462192
Si       9.14740675       8.67821481      37.87244072
Si       8.90352470       7.03814265      39.89445089
Si       8.06696739       8.46975819       1.58976539
Si       9.69258270       9.99379925       2.02971754
Si      13.08697280      36.90310574      18.77060255
Si       7.53378082      38.57048599      22.04819301
Si      14.32713354      38.18894642      20.34417048
Si      10.76290417      37.20384593      19.33883377
Si      10.50822929       0.25152274      17.19530199
Si      10.09589910      39.41742862      19.39816394
Si       7.87430714      39.46668367      19.93036370
Si       1.16462722       9.42039943       7.77944538
Si       5.02230635       8.77036062       7.31451390
Si       2.95081111      11.02986728       4.80562953
Si       3.25169995       9.09269968       8.93742245
Si       3.83177430      10.90049523      10.31206601
Si       1.30998879      11.15419821       6.37660827
Si       1.71939892      13.22852240       7.87260697
Si       0.09538739      13.34978384       9.37256741
Si       5.07316455      10.68249918       5.94260474
Si       5.48515201      12.56162267       7.31001485
Si       7.56495473      12.35621125       8.43461201
Si       8.05719196      14.20437608       9.77726079
Si       1.75792578      15.04597859       6.48884410
Si       3.58743654      14.75544036       4.86142521
Si       3.82293906      12.92241744       8.83435298
Si       4.25926795      14.74605113      10.26540892
Si      32.10710388      20.03980991      16.99057895
Si      35.09669937      22.16365278      17.06551312
Si      34.07077839      17.03087202      15.48939511
Si      31.30766159      24.46841215      17.13971917
Si      31.81512204      23.23825595      15.37368452
Si      30.08160525      22.72550276      14.14290904
Si      30.70368554      21.60916531      12.08219722
Si      36.43185179      23.71306875      15.71699389
Si      33.19300251      21.53374922      15.71944598
Si      35.33334658      18.54120336      14.14840780
Si      33.97706134      20.47717910      13.73707576
Si      32.02468054      19.90441662      12.37581994
Si      36.73547249      24.05838623      21.58560445
Si      34.56950493      27.04231864      20.79676979
Si      35.07401788      22.79650928      22.10397814
Si      33.32506815      24.20967900      22.98013777
Si      32.69743139      25.75260434      21.35207223
Si       0.19486039       0.92168218      29.90261896
Si      37.06646176       2.41917772      28.73456321
Si      38.01005756       1.52337041      30.59351028
Si      38.11793383       4.41004294      28.06115516
Si      38.08902877       5.86211284      30.08232044
Si       3.65127652       2.46785613      29.16908007
Si       1.28990140       2.96628687      29.41620577
Si      11.31121499      35.07877883       3.23722237
Si       9.58810968      34.26297432       1.72557908
Si      10.95396756      30.72275959       2.17691984
Si       9.00147093      30.06298991       3.38706932
Si      12.44388390      32.92052931      39.26657371
Si       9.14170737      36.01369436       0.25598903
Si      10.89424710      36.52709082      39.01964192
Si       7.30369158      35.10798486      38.71587521
Si      10.11570234      33.79775211      36.38473289
Si      11.81241728      28.72740908       1.13991915
Si      13.56051984      29.38812240      39.79134846
Si      10.03699532      28.04113520      39.55870631
Si      13.17394072      31.01857764      38.24479617
Si      10.43997489      32.31989586       0.69542167
Si       8.74618964      31.46703056      39.25044350
Si       9.60879589      29.58646982      37.93319876
Si      36.91536422      22.53747624       0.97836491
Si      36.90223793      20.08390105       1.37696772
Si      35.23058658      22.06469424      37.55805082
Si      33.45027620      22.54366817      36.29416066
Si      33.76914187      21.56455514      34.16575248
Si      35.25595693      19.63189126      37.93935799
Si      35.49549776      18.66585428      35.76850333
Si      35.42104735      16.26376048      36.12881731
Si      33.77558785      19.11720717      34.37306778
Si      13.98965211       4.36790685      13.99537328
Si      15.60190024       3.74738364      12.30734088
Si      16.74292112       5.52380602      11.58562855
Si      18.28753667       3.09064646      14.98277357
Si      19.52336141       5.02774747      14.18632356
Si      19.84271916       3.21896378      10.80947395
Si      18.32421296       4.87174890       9.91634085
Si      19.38097745       6.88926711       9.08456122
Si      15.29089356       5.31816095      15.68059588
Si      16.38768880       7.30266076      14.88872946
Si      12.48014540       5.85639023      13.08705703
Si      15.26443409       7.00232255      10.61954115
Si      14.81952808       8.72111541      14.12151023
Si      20.62605482       6.09241914      16.00145955
Si      17.78733824       6.45992715      13.27482141
Si      20.55007210       7.88772768      10.85618289
Si      19.00850525       8.39866534      12.44457251
Si      21.63729208       9.61511418       9.88117308
Si      17.43927665       9.87610691      11.57617703
Si      20.17866848       9.45293922      14.40142744
Si      18.61014843      11.84803034      10.78642022
Si      20.03766688      11.20760199       9.07117022
Si      26.99364265      39.02261721      29.64919107
Si      25.29974684      39.37138577      28.12737533
Si      23.41033582       0.15467190      29.33611021
Si      21.62203312       0.43343832      27.62169857
Si      19.67650179       1.27974055      28.72520660
Si      24.42882024      38.08107794      32.37811203
Si      23.73542203      36.46187142      33.86651660
Si      24.82534734       0.16237145      33.45964099
Si      22.95698718       0.93051340      34.57365392
Si      22.71504037      38.38975762      30.88814835
Si      20.78867731      39.29555355      31.87854039
Si      21.23536507       1.32325188      33.03570090
Si       5.09107987      34.63923599      24.31766793
Si       3.82613687      36.58416649      23.23921531
Si       4.29812046      32.22489877      21.56031035
Si       1.90097448      32.60016975      24.41545469
Si       2.80290459      31.08496851      23.02829152
Si       1.09924593      30.11653378      21.63425610
Si       3.21690360      33.75324282      20.30138509
Si       1.53999470      32.87512396      19.03733622
Si      30.96561227       9.38459567       7.53814810
Si      28.80891911       9.73271068       4.37981869
Si      29.18959127      11.87399630       4.39990779
Si      30.99625865      12.48166438       3.13581449
Si      30.65472865       8.72312504       5.50127482
Si      32.49915235       9.25806433       4.09448900
Si      34.23477735       5.89344577       5.08709508
Si      32.86823034       8.38842511       8.55160764
Si      35.13091604      11.15807601       7.27808510
Si      34.86574374       8.93023989       7.23074346
Si      36.66261078       7.99018869       8.21793392
Si      34.48940494       8.17133441       4.93529060
Si      32.92738331      11.48089381       4.11299444
Si      34.66699995      12.13302279       2.83009061
Si      35.60162882      37.47231947      11.19695316
Si      38.85735906      35.51499284      11.23817680
Si      36.12525106      34.48039295      13.50255747
Si      37.75900644      33.80184890      12.34847444
Si      36.84841309      32.24395219      10.68045074
Si      37.47673269      36.60622594       9.84141493
Si       2.82904309      27.75017093      16.89160986
Si       1.75835187      25.70788820      16.58092357
Si      39.47286496      25.64744489      17.17089172
Si       2.48692693      28.18464490      19.16320959
Si       0.22581910      28.38873405      19.85749249
Si      39.08911974      30.03543043      18.49141440
Si       0.13235041      24.70562853      20.75944356
Si       0.04732772      28.87893376      22.02859873
Si      37.78154796      29.03135670      22.57559228
Si      39.98756867      25.36092087      22.94401039
Si      39.13607848      26.21310704      19.38905463
Si      36.85948866      26.40777358      20.04830833
Si      33.54632347      28.05497916      19.27970019
Si      36.81722080      26.89015018      22.30320356
Si       1.46192162      34.54478291      17.20946867
Si       1.59396087      36.34621094      18.64349423
Si      39.84186032      37.94230480      18.21731151
Si       9.66938225      24.33616723      22.63565134
Si       8.67895796      26.05945449      21.27986871
Si      10.03981831      26.19370777      19.23025771
Si       7.52445972      23.63740925      17.65977035
Si       9.50408008      22.35371207      21.44945466
Si      10.37914162      20.64597407      22.84507588
Si      10.70859141      22.46329120      19.42067763
Si      13.08237003      25.07864384      21.10835282
Si      13.45284929      26.93319167      17.71851917
Si       7.43182594      21.70229025      16.47534755
Si      10.45677055      20.43728175      18.39189488
Si       9.84706687      24.20813018      18.05345787
Si      11.10154700      24.26251815      16.13161894
Si      39.04157478       8.71475306      18.74854855
Si       3.14982187       9.05545223      20.44919430
Si       3.78991859      11.01944103      19.17826139
Si      39.47575221      10.19925608      20.51351613
Si       0.16396428      12.22003755      19.08018377
Si       1.45687448      15.72196631      19.62693915
Si       0.86280708       7.98268221      17.31064840
Si       1.58071907       9.83754674      16.22954778
Si       5.77247503      10.37606797      17.91204631
Si       3.42398420       9.50409989      14.85946490
Si       2.00575762      11.72158494      17.75846729
Si       2.74444130      13.62253562      16.71128953
Si      32.43701437      21.67555800      22.95539230
Si      33.15633629      17.75681757      20.73546500
Si      31.30778017      19.23995241      20.23691471
Si      33.74035010      21.94812949      19.35512836
Si      31.28866842      25.38132040      22.84073092
Si      32.56610608      25.71424291      19.16420645
Si      30.83719359      18.89656391      18.05819549
Si      32.01459377      21.45299738      20.57846617
Si      30.12138226      22.77645919      20.13154759
Si      30.66061908      25.07563223      20.52228745
Si      29.43169833      22.47434436      17.90777297
Si      15.28385829      39.03100094       7.57810268
Si      17.79521172       0.55195702       5.09313034
Si      19.43459466      39.40872035       6.17792771
Si      19.72987343      37.36260530       5.19901836
Si      14.04849219       0.44130597       4.22220045
Si      13.62936198      35.66074219       6.63856333
Si      12.06663581      39.26093666       4.39793984
Si      12.38281325      37.14434695       3.29068085
Si      18.31552845       0.95911811       2.91552615
Si      16.66081203       2.16790743       1.88605621
Si      18.64667593      38.91245831       1.90761391
Si      14.68114877       0.84209518       2.05382810
Si      14.90849381      38.65864030       0.96931350
Si      15.74850459      39.39194361       5.15633369
Si      17.85045718      36.09661899       5.38986768
Si      16.11437403      37.17404409       4.28696174
Si      14.12243867      35.97388576       4.39587925
Si       7.36623384      35.64381131      36.05658609
Si       6.21999996      37.26407953      35.02263537
Si       3.19237587      36.66823645      37.50187384
Si       7.17246723      37.39173143      39.31858995
Si       6.71040222      39.40168956      36.19096807
Si       3.84020988      38.56892463      38.60734654
Si       3.32601607      34.87972089      34.00440272
Si       1.04864803      36.06286817      37.57026535
Si      39.78925785      37.94198885      36.70160460
Si       3.82842785      36.80663515      35.11555361
Si       2.63070674      38.62638764      34.18614311
Si       0.43465300      38.15262411      34.36338682
Si      17.62014888      17.94276316      28.26153735
Si      17.21647101      20.08865755      31.40908422
Si      19.44275384      20.02986031      31.81929960
Si      16.79212273      19.92585596      29.05053406
Si      20.79509106      15.80115602      27.74616481
Si      23.78279238      19.65887262      30.27444021
Si      17.19330774      17.78708984      25.93411145
Si      20.01296274      17.81262698      28.62044538
Si      20.19156811      21.71127746      28.38690664
Si      21.02334560      19.64862364      27.50749217
Si      23.42469764      19.58117486      27.91381300
Si       1.12712527       7.84394189      28.59512145
Si       1.94405309       4.22082295      27.24966849
Si       5.31304351       6.97522626      27.89479623
Si       5.24076282       5.52143759      25.91108667
Si       6.12221126       3.42033017      26.49354064
Si       2.08011931       7.27614989      25.01083649
Si      38.51510005       6.14096986      26.20336656
Si      36.21215779       5.99270464      25.63494697
Si      39.73028604       7.08929573      24.40769660
Si       6.31422235       6.53336770      24.25756572
Si       3.06933310       5.16742829      25.41150820
Si       2.68024431       4.00463895      23.59601815
Si      12.18597420      31.00747468       8.35281390
Si      11.25296066      29.85140754       4.81428798
Si      11.02379306      33.55894385       5.72879503
Si      12.43234465      33.21599729       7.45433545
Si      14.63821593      33.66959523       6.79301664
Si      13.59644405      30.64764268      10.26347623
Si      15.78480846      30.95334920       9.43873496
Si      13.82609916      26.92798188       9.37940870
Si      11.83993901      28.34763596       3.00479962
Si      15.12629094      26.10265716       4.97988821
Si      12.67549638      29.53840081       6.63620214
Si      15.18175528      31.94633554       5.06671500
Si      15.01808870      29.81095672       5.91686254
Si      16.35901623      29.49088543       7.80441821
Si      27.73599243       5.70289357      10.64265573
Si      25.44490288       4.78815300       7.64030933
Si      30.87235524       7.99392917      10.04793873
Si      33.89753990       6.50989943       8.06216406
Si      31.72782422       7.27328331      12.09574649
Si      29.42128753       6.27002964       9.16983985
Si      32.99539575       5.31306705      11.74308341
Si      30.77512095       4.35767343       8.87425856
Si      34.86708009       5.80642931      10.27786297
Si      32.61231192       4.73579493       7.26745369
Si      33.87213432       2.85971374       7.03272849
Si      26.47051150       4.12873274       9.87068098
Si      27.74641572       2.03055686       9.54996277
Si      31.70775543       3.51736795      10.86905425
Si      29.91229494       3.09739630      12.29118969
Si      28.62395722       1.45098364      11.62698351
Si      26.37977346       0.41910307       8.69207938
Si      29.47142526       2.58021798       7.98122257
Si      32.47702147       1.10825105       6.10809903
Si      30.72557736       0.70064593       7.62888271
Si      31.74527323      39.92629746       9.69254388
Si      32.45778892      14.21578720      30.60499729
Si      36.83532783      10.87085749      30.11031814
Si      30.98822033      12.75570536      27.38602565
Si      29.57401702      11.49429679      24.13980360
Si      35.34722427       9.63181470      27.00281362
Si      31.42822736      11.31825933      25.54958541
Si      33.91903538       8.10778621      23.53122642
Si      33.46677970      11.83632943      24.47090469
Si      35.73102015       7.98183757      25.18620934
Si      30.93408203      14.98503359      26.41724519
Si      32.86282572      12.68211054      28.82700022
Si      34.67207548      13.15028172      27.73170849
Si      35.30350237      11.63295770      26.06132453
Si      34.78779848      15.35138270      26.94266427
Si      33.87785059      10.21301252      22.60457950
Si      13.87502668       1.36388853      13.06582139
Si      16.67292519       2.11187498      15.55295878
Si      17.67714924      39.08572240      12.40239131
Si      20.60170437       1.14394933      11.34090788
Si      19.25141906       0.55992679      13.15970912
Si      20.43071436      39.75754670      14.97814022
Si       1.83092291       1.20355849       8.89109367
Si       3.10819635       0.71638713      10.79193771
Si       2.24787773      39.11345166      11.99792619
Si       2.05904126      37.07283996      10.65891725
Si       0.11216979       1.70377769      14.06747486
Si       3.29739216      38.46737235      13.91733524
Si       3.59547625       0.43536697      15.20677403
Si       1.39053896       1.08761711      15.99311662
Si      37.69261646       4.44793764      11.44502434
Si      37.81452922       2.22881847      14.58172153
Si       0.06046381      39.62841479      12.67993131
Si      38.99520916      37.75544083      13.77403457
Si      25.35062768       1.02318235      17.56085106
Si      23.76918611       0.18234023      15.98026098
Si      22.63323190       1.96111708      15.05830095
Si      25.34382312       2.39857972      12.38248838
Si      22.31253539       0.06053642      11.78777916
Si      21.05814468       1.11547615      13.41058895
Si      23.84324337       1.43408006      10.75477988
Si      22.58293089       3.33086877       9.80102883
Si      26.74461555       2.57275982      16.51445393
Si      25.51901496       4.26081387      15.70279477
Si      21.43430326       2.97395808      16.76192231
Si      24.29826939       5.36292552      17.34461584
Si      29.52252850       2.93851804      13.90321498
Si      26.86070847       3.82865666      11.43270516
Si      28.31466206       4.74846379      12.88395073
Si      25.58612143       5.67685900      10.38794774
Si      27.09412123       5.88789667      14.73563105
Si      25.89352645       7.62363674      13.71283396
Si      24.14041283       3.50859239      13.88090740
Si      21.47296294       4.35671518      11.43371625
Si      22.98064383       5.30391922      13.07288422
Si      21.86878811       6.38164995      14.80469380
Si      24.53370592       6.96540897      12.05218102
Si      23.27752252       8.48802706      11.13612669
Si      24.12191060       4.82485162       8.89821159
Si       7.34545095      15.34602822      13.77603917
Si      10.34802795      13.67353272      12.04884972
Si       5.92489118      13.96624621      12.68540877
Si       5.35486534      12.08462678      13.86683692
Si       9.14438207      14.26661104      14.14054192
Si       8.80637791      12.18008676      15.35388666
Si       7.79566356      12.71987586      17.53807087
Si       7.47866280      10.82839776      18.55247218
Si       8.74392648      12.39882875      10.85481590
Si       8.41434202      10.45194202      12.00602397
Si       6.85114441       9.04196599      10.74160529
Si      12.34640587      12.63512014      12.44151707
Si      10.99649746      11.13594579      15.71920504
Si      11.85724002      10.70775092      13.62219345
Si      10.46190537       9.24136945      12.34719618
Si       9.90762243       7.25486094      13.59141681
Si       7.42603567      10.88155428      14.18447499
Si       7.01570155       8.90216154      15.30816014
Si       8.94726326       7.78095771      15.68813670
Si       8.53007482       5.85528150      16.73234527
Si      22.51415795      15.86060010      29.47149072
Si      20.25354377      13.95714530      32.09490348
Si      23.86964522      16.53360328      31.23545369
Si      23.26759622      18.47737827      32.15601394
Si      21.12498768      16.59637202      34.55289387
Si      18.76299200      14.93220660      28.49950659
Si      17.24781831      15.79200311      33.70129260
Si      20.26028987      15.51724929      30.17478797
Si      20.96229867      18.28065684      32.88463451
Si      19.57065968      17.67308734      31.19305254
Si      17.35223960      17.47624292      31.94713174
Si      18.75407246      16.42292341      35.31494643
Si      21.19132507      17.42188564       9.96769726
Si      18.81118239      21.31639455       6.93652542
Si      23.13012270      20.20506478      11.86390974
Si      20.46120073      21.69364076       8.67867598
Si      20.83082802      23.93682394       8.81737657
Si      22.48723338      24.31041878      10.55377231
Si      22.75490483      26.63603947      10.78710535
Si      24.38298990      29.92981838      35.30031096
Si      25.85877623      28.24553450      36.14104014
Si      27.50536064      27.96891438      34.48280115
Si      29.66470770      30.45411813      36.41058531
Si      28.64727560      30.02728141      34.39691342
Si      29.59860495      29.16223938      30.76337766
Si      17.92655777      25.27924163      20.86200322
Si      14.70691095      26.75363108      22.33457348
Si      16.97888010      23.16959165      20.55359022
Si      17.43269894      22.15453109      22.80744816
Si      14.23899297      23.48846671      24.21831667
Si      13.24095213      17.86412139      22.38456496
Si      14.07878051      20.02826804      22.42060262
Si      16.41662134      19.95870513      22.78767804
Si      13.20046967      21.30894792      24.24171649
Si      16.90124361      18.63163580      24.61831173
Si      13.75569508      20.19705603      26.20257243
Si      12.69962173      17.99022149      26.16777991
Si      17.03741232      26.56538500      22.68477625
Si      13.42410707      24.67866140      26.19176052
Si      14.28394825      26.66006174      26.21330023
Si      16.58118415      23.24813172      24.66807517
Si      15.94082212      19.96690114      26.48752789
Si      17.02595471      22.04060386      26.65258861
Si      26.02610490       2.70922410      34.61264356
Si      29.62148501       1.42163027      37.10126786
Si      31.24423545       3.03304233      36.21154122
Si      26.94168499       4.10181248      36.41566245
Si      28.56133044       5.52762406      35.37038719
Si      29.41773241       6.90625204      37.08173154
Si      27.88826697       1.33208680      33.65817341
Si      29.42977338       2.89189906      32.64717324
Si      34.53686767       3.13289100      34.27018272
Si      27.58453322       6.84979983      33.74290435
Si      26.65517997       5.42869676      32.06891189
Si      30.19228750       4.31698907      34.43028489
Si      31.91078435       5.61383136      33.52070375
Si      30.85823083       7.07285803      31.88189771
Si      33.65835902      16.34424149      38.94123047
Si      33.35989609      16.22733700      36.84563235
Si      35.35278168      18.63497545       2.58929819
Si      33.06698524      18.73454987       1.98971843
Si      31.86822897      17.01159220       3.15481720
Si      32.83123423      18.47631525      39.75483009
Si      30.53240399      18.74946366      39.07789549
Si      23.14988999       5.78281319      28.91123785
Si      21.82538849       2.14203700      28.94099259
Si      24.99658821       3.10986441      30.95112420
Si      26.27387496       6.70332103      30.72579487
Si      25.74120225       0.89305118      31.16054337
Si      23.82735552       3.39622192      28.94187052
Si      25.00966510       2.76598547      27.13398138
Si      26.93879224       4.33095099      27.15136644
Si      25.59782512       0.61564588      27.24665699
Si      39.31240903       9.58813509      15.59325957
Si       0.01971786       9.81675769      13.33167926
Si       2.20018666      12.87492784      14.50722768
Si       1.90880821       8.57314842      12.87212142
Si       2.63736962       8.91781102      10.70316508
Si      38.70508868      13.60763668      13.33042100
Si      38.31528086       9.28839702      11.88382891
Si      36.43097253      10.63508216      12.40851267
Si      39.00631963       9.51476120       9.66975195
Si      36.82387379      12.72962079      12.05965163
Si      37.67360198      13.22298770       9.64556946
Si       0.60331494      12.14725021      12.87085646
Si       1.31796089      12.50774783      10.69378303
Si      39.68943963      11.89505861       9.24470081
Si       0.92836300       8.30204392       9.23952062
Si      36.39571706      19.88161465      11.76899679
Si       0.22893962      21.83010387      11.17895631
Si      39.44117962      24.03545502      10.43413467
Si      37.09776710      21.49532633      13.31744855
Si      37.16177182      20.32414373       9.59416123
Si      36.20593776      18.87688017       8.12457978
Si      36.33811623      22.45925625       9.08748473
Si      36.31090560      21.34215231       5.30283093
Si      39.48677055      22.85038240       6.81548981
Si      37.24001296      22.96472264       6.88103135
Si      36.29867007      24.97404140       6.05912120
Si      33.87231458      22.56877955       9.00748051
Si      37.18688567      24.00278401      10.51384354
Si      36.40370859      26.26442480      10.03991266
Si       8.36588161      11.66895969      36.07084734
Si       9.90284567      13.17873038      35.23636384
Si      11.35900966      11.90705158      33.86733164
Si      10.91564332       8.94140706      36.18434012
Si      10.15054716      10.66004460      32.14199497
Si       8.73748290       9.25640123      33.14530968
Si       9.99525375       7.77540974      34.51805325
Si      12.62002816      10.42230958      35.26888241
Si       0.68670551       5.28206868       9.40085474
Si       4.70821416       7.02045249      10.22004882
Si       5.04735109       6.14140518      12.40361327
Si       2.46685854       3.98554583       9.47030171
Si       2.85441205       3.05563937      11.63502160
Si       4.87989952       1.92151610      11.68154595
Si       7.25859933       4.06421726      14.55298686
Si       5.26998244       1.03256236      13.80956044
Si       0.93975852       6.98927084      10.80439868
Si       1.33667027       6.20315130      13.10563988
Si      37.48104809       6.30515950      13.75729336
Si       1.58386339       8.05128461      14.43090682
Si      39.43402507       5.01745276      13.78495444
Si      39.82083278       4.27867704      15.88106956
Si       3.29642461       4.89534008      13.18759505
Si       5.62130790       2.84237790      15.33021199
Si       3.56256498       4.21008194      15.31027467
Si       3.89863489       5.90275852      16.63365361
Si       1.67435388       2.87853525      15.96871164
Si      24.08741159      16.89077114      39.91389929
Si      25.52098372      18.27197650      38.45701016
Si      22.88851842      17.88923339      35.70825507
Si      24.00064316      19.38060431      36.93814059
Si      24.33738452      16.49209547      34.44199107
Si      25.40822583      20.74990037      35.58122431
Si      25.63379426      17.79357382      33.09091986
Si      26.57631365      19.79474108      39.68688752
Si      26.92771253      16.89046328      37.17515312
Si      26.80552917      19.28801994      34.40044507
Si      28.29276868      18.21349630      35.86604330
Si      29.79559391      16.85024424      34.79280301
Si      29.06541627      15.45237774      15.30360726
Si      31.03143137      15.55473448      18.49965381
Si      30.50634687      17.08639660      14.29796716
Si      32.40999820      15.88153809      13.25977837
Si      32.59373217      17.12508065      17.69656859
Si      29.95527416      11.26020435      19.25985243
Si      30.72738810      12.55023121      21.11486284
Si      31.83788053      10.06175943      18.31305158
Si      32.25685045      14.22823099      20.14457424
Si      30.30000438      14.04763165      16.78925439
Si      32.10381510      13.09520344      15.91849817
Si      33.59596538      14.68165621      14.90089290
Si      33.15439202      11.63572973      17.29923393
Si      32.88860878       8.92667263      19.92465819
Si      30.90956078       8.79205663      16.52221326
Si      32.67347906       7.58279351      15.56743159
Si      21.22325803      39.67328386      38.93799357
Si      19.54805782      34.70114368      38.66271654
Si      21.08413726      38.37742842       0.66392387
Si      22.51498858      36.48398949       0.33054914
Si      22.12735849      36.84896283      36.47913318
Si      20.32311654      31.67127895      36.15400976
Si      23.37771654       0.58543589      38.61057043
Si      24.71401941      37.17054062       0.03284307
Si      24.87142420      38.70032261      38.18682465
Si      24.15843082      37.50670927      36.34091912
Si      21.84888397      35.33776682      38.36502284
Si      23.19753527      33.56924604      37.99175225
Si      22.47841624      32.36743253      36.10797508
Si      25.47440882      34.25548907      37.79265101
Si      34.39360632      20.17490241       6.38464132
Si      33.38387919      18.14020159       6.70441202
Si      31.16975125      18.49505522       7.44088117
Si      34.54792964      18.28810182      10.38057623
Si      32.38109874      18.59986041      10.98942433
Si      31.18524375      19.75538175       9.43347271
Si      31.25972365      16.48039760      11.46596328
Si      30.03985150      15.06002842       5.75790490
Si      28.82778529      16.29886594       4.12374590
Si      26.85875015      13.38448174       6.84896877
Si      30.11585913      16.31506281       7.89833443
Si      27.87996959      18.09039288      10.55399034
Si      27.80355087      16.71102375       8.49338411
Si      26.79204424      17.90272406       6.87302534
Si      26.78907281      14.71467901       8.83498213
Si      25.72693725      14.67433360       5.26662334
Si      37.82313752       6.41252535       5.39561212
Si      36.59638086       8.20777141       4.52146321
Si      33.88334198       8.64389655       1.68094120
Si      39.28742541       6.44190367      38.58480579
Si      37.98919941       7.64629378       0.18309127
Si      36.76795741       9.16493318      39.22543778
Si      36.65902389      11.33624763       2.33278329
Si      35.37425565      10.36973029       0.57907106
Si       9.99601236      23.20091837      38.03937022
Si       9.28166126      23.23954129       1.73814581
Si      12.46923382      24.82482827       0.53634441
Si      10.82414972      24.97825595       2.10735324
Si      10.47556049      27.06766813      38.15701796
Si       9.73780465      27.06222535       1.88442745
Si       7.85992814      25.47521919      35.84111019
Si       8.26655486      23.44581267      39.63013375
Si       8.75046849      27.32155012      39.86988941
Si       7.02502140      25.56843421      39.42507579
Si       6.20704501      25.72126097      37.31594971
Si       9.61497488      33.65921208      28.02821135
Si      10.36886798      34.10606400      25.87416940
Si       9.02028868      32.90886268      24.41598566
Si      11.90760509      32.81406753      21.86155316
Si      12.79325572      31.05180682      26.06882836
Si       9.19015417      30.55765077      24.76990844
Si       6.71568793      33.50709006      24.50389933
Si       6.53034915      35.83680560      24.24729828
Si       7.19589058      36.33782391      22.01423424
Si       9.68912167      33.36579406      22.17597174
Si       8.50091426      32.16755809      20.59450348
Si       7.13451962       0.04593191      38.14988043
Si       3.38544009       0.06411339      36.90581483
Si       3.08279722       3.74836558      38.22174185
Si       1.24597696      39.72340703      37.44980798
Si       0.61404750       0.85432048      39.23367634
Si      39.90662818      39.98166504      35.59739640
Si       0.78210700       3.17931789      38.71555473
Si      39.46741438       3.74070919      36.93644506
Si       3.28191093       6.02521878      37.56784418
Si       1.83448585       6.38658355      35.79244625
Si       3.77002146       2.43802411      36.35801704
Si       2.29684138       2.92908421      34.46557416
Si       0.11943562       2.45279683      35.03290905
Si       2.52317716       5.09590913      33.83313669
Si      39.67926812       5.94641007      36.39883345
Si      34.69281194       2.41380205      36.52293975
Si      32.02157704      39.87416783      37.14218103
Si      36.17647055       1.23293736      38.01032845
Si      35.92203294       1.83982230       0.21027258
Si      33.36223169      38.50878086      38.56949315
Si      33.31712137      39.43222165       0.68896968
Si      37.01712593      38.48840246       1.42230514
Si      37.58870241       0.71186683       1.46291048
Si      34.82079732      38.12497818       2.21712722
Si      37.30365007       1.38309223       3.72641004
Si      34.54212881      38.75811147       4.34245927
Si      32.52374165       2.07001926      37.25348452
Si      32.39477379       2.79647218      39.60275671
Si      36.57642339       4.27083908       0.32567551
Si      36.34841728       4.95587306       2.65944347
Si      31.13646454      38.90442304       1.51930757
Si      33.86500764       1.56073534       0.82259542
Si      35.08291463       1.10906129       4.64905894
Si      33.51639073       2.30881966       3.07095381
Si      34.09128652       4.58033917       3.27571801
Si      37.75190072       3.84064074       3.84671327
Si      38.10145646       4.66845486      17.39533585
Si      37.25841237       1.96137689      19.95074499
Si      35.28655860       5.24353877      19.85979386
Si      36.82201397       8.53153211      20.95717893
Si      34.53476433       4.67001366      22.01948756
Si      37.33253063       4.26966557      19.64807418
Si      35.88018493       5.77032361      23.45981057
Si      38.90250690       5.36249835      21.16855523
Si      35.93654605       8.06418338      23.10846229
Si       1.81053160       4.68099356      18.73897159
Si      38.27618947       6.84529316      17.04760682
Si      38.95129019       7.57992127      20.68323882
Si       1.92685749       7.00842172      18.39698346
Si      39.42485837       0.97778528      19.89485556
Si       0.94071994       1.98430485      21.25363963
Si      38.10727127       4.99169123      23.31514382
Si       0.94642449       4.25364733      20.96341940
Si       2.37773233       5.34398153      22.41463458
Si      21.73469447      29.42173549      35.23093495
Si      21.40677769      28.62396046      31.40787616
Si      21.79796226      27.15339716      35.77241471
Si      20.65708144      25.88543267      34.04664561
Si      22.76592735      22.69400021      34.47079742
Si      22.29005902      22.14006487      30.61506204
Si      20.51416070      23.62980153      34.34605061
Si      19.25486874      22.42974832      32.72324467
Si      18.24742091      29.08884861      33.75933265
Si      18.40534466      26.65302649      34.01827312
Si      21.45319010      26.21326461      31.90916117
Si      21.08126437      25.57962935      28.16332909
Si      20.06501044      25.18625180      30.26657690
Si      20.16042885      22.92397762      30.73601297
Si      17.83326165      26.02275917      30.28203994
Si      20.01369076      35.06156822       3.64600014
Si      19.29304567      38.09293518       0.39339663
Si      17.52325339      36.88913868      39.10795683
Si      18.04261478      36.27704471       3.58291589
Si      16.55950125      35.24123139       2.48769222
Si      14.44382843      36.44128039       2.32309866
Si      19.13007026      33.54480912       0.22887208
Si      16.12441103      33.14339404       3.36206700
Si      17.21524536      34.83900681       0.13940820
Si      15.10850463      31.56368387       0.04526373
Si      12.47231331      26.01407090       4.49438854
Si      12.06322641      26.26293186       6.79168772
Si       8.42006103      27.09366028       6.27288553
Si       6.81974100      28.69057886       6.52306866
Si      11.42327867      24.21788751       7.74649787
Si      11.21361670      24.51214886      10.10802668
Si      10.28597249      27.82607077       7.15396931
Si      12.16878039      28.84822044      10.54298752
Si      10.08587825      28.18065271       9.40108308
Si       9.60773603      26.13610445      10.45840641
Si       9.27427844       2.15166166      30.11747194
Si      11.41100023       1.71111510      29.18947393
Si      10.92138026      35.30247801      30.52318146
Si       9.81934375      39.16236895      32.43371862
Si      12.00920373      38.91713260      31.48378193
Si      10.44508087      38.25206502      28.13371182
Si      11.11745856       0.27041340      27.51999607
Si      11.84181909      37.29605681      29.69388007
Si      10.93931576       2.74451263      33.49248414
Si      12.95486931       2.39849624      32.54388023
Si      12.29406635       3.84102819      28.29894049
Si      12.45682137       5.22026131      30.24882179
Si      13.40134354      37.99215512      33.12294183
Si      12.96509591       0.91070608      30.74469814
Si      14.97988160       0.67547060      29.78693985
Si      21.49500395      32.95593725      27.28190697
Si      21.39682427      31.13516735      28.81422465
Si      18.40435631      32.85004070      30.53760123
Si      17.78263943      30.46734079      27.60726206
Si      16.88057472      31.08576675      29.67576550
Si      16.62677772      29.36860725      31.15713824
Si      21.88805000      33.52191331      31.82624005
Si      17.58489995      33.56439131      32.62712500
Si      17.32846815      31.75640624      34.00146575
Si      20.30756245      31.65030281      30.77765028
Si      20.31321166      30.02275857      32.34407857
Si      19.47983998      30.77793644      34.42116463
Si      16.21467770      38.12500269      38.40002236
Si      15.96817905      34.68624881      35.41225027
Si      18.03041801      31.49107840      36.30757285
Si      12.75670359      37.82630521      36.42693515
Si      10.74206375      38.54686567      36.40401250
Si      12.78992077      35.52465613      37.24340968
Si       9.71261752      38.56725831      38.51173486
Si      13.05023384      38.93892561       0.21711583
Si      12.97270062      36.67857007       0.91405176
Si      14.85062571      33.56909819      33.81086556
Si      12.60664670      34.28813231      33.62910893
Si      11.41699970      34.37728169      35.73824309
Si      14.87522699      34.46341109      37.39257603
Si      14.72952956      32.50046438      38.21558557
Si      13.53231903      31.16654743      36.57591523
Si      16.25627846       4.79283656       8.27754106
Si      16.49305834       2.81625736       4.96880223
Si      18.53386902       5.53844578       7.90109574
Si      18.98071630       5.71632382       5.52535941
Si      20.00605290       3.93641297       8.75627571
Si      18.66532642       3.60387027       4.69049040
Si      20.07043345       2.05539041       5.49636967
Si      16.00353193       2.71378664       7.21920636
Si      17.41411655       1.11823954       8.16214847
Si      19.71344545       1.89074166       7.87458883
Si      17.94249613      22.95569053      13.49577924
Si      14.54102541      20.10458331      12.59237548
Si      16.35456476      20.37518974      11.17793425
Si      15.45228596      16.40507463      13.03351331
Si      17.31945169      16.64011491      11.59384164
Si      16.81150282      18.27088433      10.01076594
Si      18.35539977      21.04802088      12.39101288
Si      16.18820576      29.30738624      26.34519548
Si      18.79961647      27.20684392      23.45160506
Si      18.27001192      26.25403632      25.45505811
Si      16.03129158      27.09745040      26.22213447
Si      15.66049052      26.20691720      28.23212290
Si      20.88233983      24.04099719      22.51038306
Si      20.24382709      23.13390502      24.54415256
Si      20.33957138      20.85893381      24.34784597
Si      19.93282075      26.90379739      27.07264703
Si      21.40966666      22.75269638      28.28575538
Si      18.24630844      23.80709825      25.31803148
Si      17.65824399      20.64829504      27.11297053
Si      19.26199864      23.44663641      29.05522364
Si      36.89621545      26.67804877      16.34157735
Si       0.15887800      24.37250016      14.17187310
Si      38.19461817      25.19450288      13.12103945
Si       1.09065345      27.92421317      15.38212534
Si      39.19990323      28.74276701      14.26715964
Si      36.07504837      28.52699880      17.56328146
Si      34.27607362      29.38658991      16.47306633
Si      36.47719864      31.68910000      14.22584082
Si      39.77363168      29.32141405      12.07027317
Si      37.44413767      27.08519867      14.18946128
Si      35.59037759      28.02299341      13.18659829
Si      34.91625704      30.02614420      14.16402461
Si      36.21580049      28.58923988      10.96200664
Si      34.65366229      38.17253339       6.20623644
Si      32.96794189      34.13948718       7.12283868
Si      35.20163043      34.54353625       7.10876718
Si      29.04966898       2.04460067      17.90594987
Si      27.81170488      39.23244683      20.28917585
Si      31.14623991       0.90005821      17.64264870
Si      30.92220620      39.57054439      15.79333895
Si      27.35829503       0.40953265      18.20936134
Si      27.17509989      38.96637585      16.47103996
Si      28.40679445       1.90360583      14.16178115
Si      26.72943108       0.24952003      14.42027572
Si      26.60253890      38.85110709      12.57874281
Si      29.93253076      38.19604625      19.81749428
Si      29.82036398      36.71185402      18.12579664
Si      28.50119569      33.80088305      20.30114003
Si      33.41891598      37.19984428      17.45242463
Si      31.61921668      34.14098366      15.84965801
Si      25.57402905      37.48965253      16.66092866
Si      26.03548096      36.18814454      18.59378213
Si      28.02715408      35.16913744      18.35587683
Si      27.92720912      33.55086727      16.49806130
Si      29.17384396      37.91103551      16.04709003
Si      28.58995879      37.71345693      12.29920167
Si      29.14298450      36.46504445      14.22118382
Si      31.20921047      35.40251916      13.96207062
Si      27.39504316      34.86400296      14.66025354
Si      29.98233105      32.50319711      16.30428562
Si      13.44189292      36.20019002      21.08559633
Si      17.13274487      35.68936076      21.09480906
Si       7.71852597      36.74033400      24.44572693
Si      15.21852555      34.99192603      22.14678467
Si      14.82950269      32.80282167      21.99566833
Si      15.32068846      35.74552654      24.22685551
Si      13.08717353      32.85635679      25.40211865
Si      11.48357400      35.61364368      22.10864055
Si      11.90238831      38.56356740      24.47821024
Si      11.60055554      36.30668290      24.39248496
Si       9.62226826      35.73752366      25.52645045
Si      13.27746822      35.24255609      25.45970346
Si      32.92675553       8.35492242      12.71951452
Si      31.41798982      10.09626331      11.83899174
Si      28.91294476       9.39199694      14.53207830
Si      27.81429670       9.11676356       8.02450144
Si      29.22772468       9.53773881      12.29142206
Si      25.26858661       8.43660587      10.71772056
Si      27.77953903      11.09599151      11.30952957
Si      25.63920643       8.45281683       8.24748388
Si      31.85554087      12.19734985      12.80532357
Si      30.44730829      13.90278288      11.83061166
Si      28.14095491      11.07940241       8.90499915
Si      25.59756829      10.34430169      11.79346010
Si      25.19368032      10.24472132      14.03104048
Si      24.11346694      12.04414404      10.76545532
Si      24.06066222      13.97639895      14.12075306
Si      30.83197247      15.90190489      12.75914374
Si      28.18585608      13.18738555      12.17042967
Si      26.65208801      14.71522879      11.29256374
Si      24.56644607      14.09133458      11.76172080
Si      27.18782717      16.86039379      12.32286538
Si      22.94971208      15.70753297      10.90122814
Si      24.54982932      12.16829488       8.52919735
Si      12.37645592      33.95512846      31.11967005
Si       9.42673953      32.25475862      29.77252389
Si      12.81725210      31.49906260      28.32266178
Si      10.51496289      33.00802980      31.81599150
Si      10.69089114      31.31458790      33.18704236
Si      13.87107113      32.28667641      30.23674722
Si      14.21595507      30.53327122      31.69759003
Si      11.73246907      32.28508756      35.29055312
Si      15.24485708      31.33288480      33.73014494
Si      11.88911557      30.36273889      36.78866582
Si      10.74118618      30.52663358      28.94664672
Si      11.07937936      28.69869512      30.39545215
Si       8.66770837      30.42774899      33.85052515
Si       7.65591592      29.57141061      31.90576983
Si       8.88389159      28.64209181      35.47754956
Si       8.96181225      27.84757602      30.97625206
Si      14.19100000      29.83549238      27.40624031
Si      14.51247710      28.01061301      28.90719730
Si      12.51745453      27.08444825      29.49480736
Si      12.08348031      29.68840511      32.31088593
Si      13.35315028      28.77106405      35.84862750
Si      12.33317983      27.93166891      33.87294602
Si      10.24392661      27.04066359      34.54384811
Si      15.83020519      16.08018323      29.99928574
Si      15.66498392      15.89317435      33.85283599
Si      12.33482754      15.67856625      31.80827134
Si      16.99122258      13.07533641      31.86614128
Si      13.56332400      15.11851038      29.90291417
Si      13.79222814      12.73046819      29.77398175
Si      15.01529775      12.15065048      27.89594461
Si      15.39074155       9.89525033      27.81268947
Si      13.43772318      14.83782693      33.76062733
Si      13.68756314      12.58690178      33.56280648
Si      14.90840198      12.09510674      31.57398003
Si       1.89903309      28.46900534       4.41023179
Si       1.59066257      32.34894075       4.47828747
Si       5.33291685      28.83753475       2.58692019
Si       1.38054679      26.50098006       2.96908398
Si       2.41403266      26.84099452       0.86792449
Si       0.81261587      34.19487930       3.39533178
Si       1.16202408      30.46655837       3.05678827
Si       2.16262233      30.61567866       1.22784179
Si      20.27567468      13.50572073      24.66144863
Si      18.05446402      10.92970652      26.58566733
Si      17.02544811      10.30571538      28.57563172
Si      19.16273065      12.98160765      26.84163200
Si      17.62667424      14.53929006      27.28290217
Si      17.49287061      18.95212436      14.94640850
Si      21.13528258      20.05097030      15.16390320
Si      18.30709525      16.58448179      14.62972936
Si      22.08956848      17.51268365      12.45843793
Si      18.98037340      20.40626657      14.04760409
Si      32.61111737      14.66596725      23.23658740
Si      31.67660181      17.57758677      25.68447578
Si      31.46108540      15.76226631      21.58542069
Si      31.46040405      18.07738777      21.99407497
Si      34.85480126      15.25351116      23.40413737
Si      30.49562397      18.59506024      23.87638971
Si      29.67401184      21.46988713      26.28055106
Si      30.72904481      20.95454665      24.25571158
Si       3.93093811      18.69869546      30.63614212
Si       4.12118004      17.58497649      32.76943350
Si       1.98881004      17.42185077      33.61795247
Si       7.42901785      20.24393773      31.09634905
Si       7.39532824      19.22080126      33.21514497
Si       5.19135648      14.50415603      34.50789535
Si       8.68611934      16.14152744      35.11690902
Si       5.36627569      18.96753705      34.19169896
Si       5.43630356      17.75853473      36.31017671
Si       6.56492845      15.78310476      35.95054580
Si       7.24515549      26.27747750      25.55999638
Si       8.89459407      25.04674323      28.87134758
Si       6.38877058      28.03265056      29.02235213
Si       9.68605522      23.54358939      25.47317900
Si       7.94657340      24.47006642      26.75756579
Si       6.28299369      22.88059223      27.00304298
Si       5.39450270      22.26524778      24.88072880
Si       3.61164489      20.79749339      25.24675585
Si       7.24176574      26.05776660      30.13659425
Si       5.38215551      24.44484910      30.42863331
Si       7.02256202      21.01395906      28.19671807
Si       4.49660604      23.91031916      28.31026691
Si      31.51767393      24.17456813      13.00165747
Si      35.25338368      23.20878891      12.66693273
Si      32.52328164      21.29668298      10.87165720
Si      30.86295237      23.08847913      11.08156207
Si      31.27964814      24.55713132       9.30444869
Si      34.36631982      26.25150143      14.90842017
Si      30.08449929      26.12802634      13.23875916
Si      30.56203588      27.22774297      15.41319064
Si      30.30597476      27.54416245      11.39534885
Si      32.79932998      27.93014771      15.08885809
Si      33.04468454      29.47899721      13.26203299
Si      33.77081643      25.02133981      12.83721995
Si      33.42640303      25.41463407       9.08400222
Si      33.96965798      26.44221703      11.17237561
Si      28.62344602      30.25035361      15.53370789
Si      30.07801924      30.60621185      19.81529215
Si      28.19963995      29.43767625      19.30203223
Si      26.46234993      32.35569662      17.71214255
Si      28.42071084      28.42497491      17.08755376
Si      26.63962274      26.97414013      16.62700968
Si      26.76844569      31.29827194      15.62097411
Si      24.88925683      30.07741014      15.05515830
Si      29.04702731      29.21248586      13.36462897
Si      27.12605806      27.80662925      12.87320509
Si      27.00838575      26.11794135      14.39287907
Si      25.21040289      28.99857547      12.93752763
Si      23.31001537      27.72368835      12.47908623
Si      26.26663978      30.55461277      19.30349769
Si      24.38710200      29.03892765      18.77533998
Si      28.08779238      27.53921418      20.84690298
Si      24.03641370      27.41702820      20.32270446
Si      21.13114258      29.88188304      14.54850871
Si      24.64121892      28.34344977      16.58122333
Si      22.92421470      26.86515523      16.16672731
Si      20.91949271      28.22784657      16.14137780
Si      21.46060265      29.15299118      12.35208683
Si      25.99032803       2.16927968      25.11192364
Si      28.27766159       1.47581915      22.04053218
Si      27.72598437       2.95101162      24.05323984
Si      31.01184525       6.14501788      23.60529917
Si      27.24725675       5.13624195      23.16773659
Si      26.44522781       1.43183519      20.68698808
Si      26.13490456       3.63795879      19.90653581
Si      29.21306331       5.97823193      22.05547811
Si      29.73240674       4.60305021      20.30643031
Si      28.79113704       8.02783009      21.27087951
Si      31.66192083       5.33784340      19.19124118
Si      28.02114293       4.45673847      18.81256163
Si      27.50572168       6.57898089      17.94087916
Si      32.87205379       6.77933897      22.61988823
Si      25.57094670       5.12903706      21.75216969
Si      25.11407280       7.26239734      20.96768585
Si      27.02368308       8.07088342      19.76715727
Si      28.19312596       9.61281586      23.19819587
Si      28.99251200      13.30091293      25.21466949
Si      29.02151717      15.25831225      26.34899066
Si      27.86181131      15.33798139      28.09494696
Si      29.59470559      11.51245278      26.55900314
Si      28.25231153      11.57740685      28.45847337
Si      28.47745931      13.63643050      29.62499757
Si      12.08525724       2.49503077       6.59904015
Si      13.16053819       2.18581128      10.26490159
Si      11.29395278      39.26023809       8.35528788
Si      12.01074504       0.18007927       6.48151449
Si      12.91828133      39.80474231      10.09624576
Si      12.79356827       3.51418949       4.43015284
Si      13.74080411       3.00291806       8.28736218
Si      15.39167201      24.96237429       0.73328965
Si      18.72346890      25.49734460       3.59127195
Si      19.81687750      23.27984545       3.32741299
Si      17.46684261      25.34270300      39.93342418
Si      18.66423483      23.18704145      39.73885087
Si      20.75892703      23.48186953      38.95726423
Si      22.98462003      21.53474025       2.41632284
Si      21.76038436      21.41409417      38.64259425
Si      15.38164866      23.85557750       2.78800720
Si      16.39701902      21.85775742       2.47536161
Si      16.38650461      20.74632149       4.63796461
Si      17.35002076      21.93162322      38.15313486
Si      18.33924280      19.92718000      37.92655695
Si      15.14250631      20.50016176       1.00492672
Si      16.16597274      18.40007837       0.66226749
Si      18.67564448      22.12633900       1.76902802
Si      21.81183135      20.13693903       0.77692287
Si      19.68644340      20.02308292       1.54571911
Si      18.52758975      18.62234449      39.90602224
Si      20.57628423      20.13084805      37.22885004
Si      21.19553029      18.21611335      23.19413554
Si      23.12375269      19.33369141      22.72264603
Si      24.42776616      17.86539035      21.40750227
Si      19.80639675      17.65913058      21.28937497
Si      21.17146855      16.17253571      20.07243894
Si      26.25255105      14.41171189      21.24468243
Si      21.81571012      14.28024519      21.30543549
Si      23.19703050      17.25672980      19.49871879
Si      24.46319522      15.86348535      18.11269844
Si      25.08928504      13.97520372      19.37759978
Si      23.36237153      15.31838417      16.15581497
Si      12.08637364      10.71647976      23.13438320
Si      12.62654122       7.05073139      24.32754236
Si      14.77742881       7.66910028      25.15911880
Si      13.91953675      11.95505936      26.18349533
Si      14.44041332       8.43412013      27.38432414
Si       9.06772213       8.17951298      23.56169610
Si      11.86813859       5.18830333      25.55514073
Si      11.10578984       8.96937496      24.41441124
Si      13.02881354      10.23021693      27.53807360
Si      10.91569255       9.43543259      26.65219217
Si      12.30956796      13.76254327      26.30636839
Si       1.98104662      16.25151045      38.23099862
Si      39.95504384      18.79996296       1.33888916
Si      39.91651914      19.70896888       3.65186924
Si       2.09068046      19.50619266       0.34049481
Si       0.90690228      21.95295094      37.02996387
Si       0.73811347      22.75782218      39.09460044
Si       2.48448099      21.71286549       0.65830078
Si       3.70373537      15.33416912      39.47920347
Si       3.49861496      16.07330429       1.64288940
Si       3.93229867      18.37405399       1.76538323
Si       2.30163896      18.61230146      38.15325423
Si       4.44391401      19.27107600      37.43524686
Si      21.67045579      12.76773068      33.85872657
Si      22.78807143      12.66847877      30.21547628
Si      24.24142559      15.22209736      32.62400831
Si      23.55612747      14.05319145      34.47345239
Si      24.65255448      13.81838006      30.78021926
Si      19.95032325      10.26214761      31.58446438
Si      21.08261535      11.50916376      35.69136391
Si      20.43530642       8.90699355      29.71132415
Si      21.96295034      11.43841254      32.19272422
Si      25.74486576      10.92755248      33.19339779
Si      23.78214805       9.87491506      32.56633975
Si      22.91366909       8.52281750      34.44415090
Si      24.13851457       8.43856636      30.88478636
Si       0.12557209      17.67818660      33.28909369
Si       0.33278351      16.89866623      38.72017000
Si      38.72731071      16.26800421      34.43076739
Si      37.52122108      17.48037705      35.94566320
Si      37.30776268      14.42916763      38.25882967
Si      38.82357339      15.49949439      39.75911064
Si       0.47118405      19.91413087      36.32783694
Si      39.05625623      18.47130644      37.38192882
Si      37.80684726      19.72724471      39.02794804
Si      39.17082930      20.79579816       0.58780404
Si      39.46224160      23.88593297      38.26239336
Si      25.76807606      13.46061966      16.34812531
Si      28.26728466      12.80777861      19.97279910
Si      25.78144965      12.64739800      20.12457211
Si      24.99554710      12.00116752      17.99394345
Si      28.09355454      13.57587125      16.24896913
Si      28.89740045      11.41611364      15.90566211
Si      28.18000657       9.94961133      17.49271625
Si      28.98793535       7.91756934      17.03272505
Si      25.03865187       9.14044258      15.39590293
Si      20.54967318      26.30371814       9.63766451
Si      17.13982930      27.88259099      10.78734304
Si      20.24714414      24.57623349      11.31572180
Si      18.96067912      22.67207781      10.15051250
Si      18.38871784      27.10878900       8.96815702
Si      17.38998445      25.40818456       7.95028151
Si      18.54141117      24.57770181       6.09313899
Si      16.71984251      26.10150681      12.26122121
Si      15.67892125      24.43901666      11.32412266
Si      15.26454178      26.24437703       7.22569974
Si      14.00011735      24.55514993       6.12367348
Si      13.55352756      25.16841494      10.42392097
Si      12.33755767      23.46757779       9.33840480
Si      16.93467759      23.58436509       9.36411534
Si      16.96880955      21.10581085       6.47293010
Si      15.74999905      21.85952814       8.29730971
Si      15.35996464      20.05886092       9.75654323
Si      13.64039008      22.68624615       7.61670089
Si      11.53431485       6.01114639      33.02843978
Si      12.45231310       3.86750545      33.72573480
Si      15.03435659       5.92968528      35.66548901
Si      11.36280058       3.15706363      35.57437318
Si      15.78458757       5.01829998      32.03332962
Si      14.63290329       4.31794124      34.00542728
Si       2.94359570      30.15257665      17.19320468
Si       6.67969595      30.95395939      17.82755744
Si       5.08843403      27.69770827      19.39108213
Si       6.10453436      30.74129554      21.72922216
Si       8.08236362      32.66366279      18.15802505
Si       5.18113263      26.27516024      21.13232410
Si       6.07443339      29.29521562      23.51159544
Si       6.73551305      29.43768900      19.86284933
Si      29.77299117      28.27138706       5.18468043
Si      32.30848347      29.72704802       2.62402925
Si      30.36963796      26.22960062       4.57095390
Si      30.78888275      32.65245977       5.85568758
Si      29.39565263      31.91708037       4.12101856
Si      32.53012567      31.17991699       0.89810226
Si      29.75954244      33.39564445       2.24811857
Si      28.31334481      32.83989522       0.41454047
Si      30.07658105      29.79586762       3.38415444
Si      28.94790149      36.92188649       7.94141553
Si      31.82901066      37.98343957       4.76687440
Si      29.83211595      36.86145275       4.20655621
Si      29.20481625      34.60068534       7.99723876
Si      30.16767948      34.64541739       4.21485680
Si      27.89875404       0.03278999       5.89115276
Si      27.40372515      37.50331820       9.59429618
Si      25.27305835      36.44338051       8.99694439
Si      29.11527747      37.62404607       2.14373070
Si      26.98826609      36.63271372       1.59223391
Si      28.27465633      37.54695966       5.72155312
Si      26.36115948      34.19947467       5.39956377
Si      26.15832805      36.57032676       5.24494792
Si      24.67034785      15.33600466       1.60324304
Si      26.81140709      14.42772790       1.53275634
Si      26.57926197      12.12492743       1.51055264
Si      26.22513775      11.84024761      37.74678259
Si      28.30644101      10.92064962      37.65299676
Si      23.43045404      14.72697453      39.70808720
Si      21.20518530      15.75403717      39.75206952
Si      23.14857261      12.47640439      39.79829426
Si      23.57471953      14.82376920       3.64778992
Si      25.42720000      11.43472322       3.70998890
Si      24.94541362      11.11115018      35.80688827
Si      24.66787327       8.64159099      36.03830705
Si      21.78655796      11.68886950      38.03326356
Si      21.57810412       9.18602221      38.09136956
Si      25.23413424      11.31645233      39.79720976
Si      23.50612709       8.42605269      37.72926168
Si      27.86544211       8.25546964      37.04258291
Si      24.54366387       6.40626413      37.16652260
Si      25.62022398       8.71057716       3.25604626
Si      28.94889394      10.32479432       0.92051407
Si      23.03415407       4.93596645       0.35662935
Si      25.53318560       8.61419114       0.95898018
Si      26.52347784       6.40383977      38.03627445
Si      26.59937810       6.57436501       0.28792033
Si      28.79404857       6.55727102       1.14134674
Si      25.38753739       4.85000329       1.10881201
Si      23.26897376       4.53026409      38.00422655
Si       1.55522604      39.98744671       4.12191881
Si       3.15158208      39.49472528       0.66345693
Si       0.56107788       2.25710801       1.21672563
Si       6.35714403      38.64038892       6.44176321
Si       3.55439182      39.39451628       2.92149332
Si       5.22865426       0.80427424       3.47106094
Si      39.04805951       2.83855737       4.55789805
Si       1.21899450       4.10142971       7.50191805
Si       1.04260027       2.16151470       3.48765318
Si       2.71312376       3.67639498       4.00910039
Si       0.20316097       6.48589225       4.58308407
Si       3.70214661       1.44823823       6.97963152
Si       5.56929927       0.79937845       5.86797406
Si       3.14134926       3.53004914       6.32440359
Si       0.42865309       6.42696164       6.85822172
Si       2.59234823       1.53552502      39.99142280
Si       4.17651192       3.06853398       0.38912054
Si       7.16551862       0.20453697       2.29828793
Si       6.81258626       0.28270335       0.00653226
Si      39.76107568       4.47068896       0.54170589
Si       2.18466222       5.89012613       3.24372721
Si       1.70251125       6.08815850       1.14311576
Si       3.79953728       7.45619245       3.97216243
Si       3.66443160       5.27710004      39.90189708
Si       4.72942952       3.04211378       2.85610393
Si       6.80145643       4.50074737       5.67776049
Si       6.36053978       4.57408703       3.20620066
Si       5.64174578       6.82640076       2.72805860
Si       4.25738079       7.38473216       6.24343650
Si      37.11335310       8.74189329      30.53226193
Si      33.28226634       9.40216595      30.97453689
Si      33.99495724      12.02214857      33.89999348
Si      33.65424703       9.63461774      33.47114007
Si      31.69519195       9.06896961      34.55737892
Si      31.23481162      10.37835424      27.95719322
Si      30.47113265       7.77227282      25.17783265
Si      34.68499507       7.47859964      27.16721297
Si      32.99173879       7.07359245      30.60595661
Si      32.64081184       6.83582551      28.24546824
Si      30.81160346       8.03946209      27.62795851
Si      28.92634528       7.23241554      28.63442812
Si      31.55128936      10.63636530      30.36422849
Si      29.83579347      10.27073768      33.73342009
Si      29.39890360       9.90556946      31.42243569
Si      29.11091742       7.66069998      31.02425089
Si       5.19316466       0.96076509      17.68354784
Si       0.81669626       0.89649703      18.43502847
Si       3.74293664       2.77109380      16.82008701
Si       3.67930938       4.40758352      18.46031650
Si       7.22515331       1.89757833      17.98242047
Si       7.04586221       3.48340359      19.56189191
Si       5.74682029       5.18530389      18.89164601
Si       5.54901025       6.94937839      20.56808814
Si       2.66370537       3.37266140      20.51551495
Si      19.49062816      36.21884279      33.19163891
Si      16.33812448      36.79266728      35.32645036
Si      19.62920858      38.37584030      36.50502452
Si      18.83758057      38.60935645      38.55425004
Si      18.71329584      36.43500229      35.39520998
Si      19.23436389      34.62508350      36.70513410
Si      33.47432305      36.93848556       7.39446568
Si      33.45319238      37.11090986      11.37966469
Si      32.21582403      39.13823620       7.41043470
Si      33.87741569      33.75409460       9.46869175
Si      33.87730569      33.94583985      13.23780457
Si      33.31496857      32.68458957      11.34139742
Si      31.00409778      32.26938747      11.38680145
Si      32.76709955      35.89089990       9.41179025
Si      30.51910640      35.50739213       9.23151367
Si      29.86464398      34.27135631      11.30082094
Si       2.44452893       7.86323989      21.43202741
Si       2.36150908       9.90841390      22.73361894
Si      39.15918060       8.80559159      24.42222032
Si       0.31967282       8.36028746      26.43476219
Si       5.74982217       6.70064720      22.88844242
Si       5.88894252       8.64196506      24.23597581
Si       3.71920878       9.05441460      29.18760197
Si       3.66651079      11.45242078      21.52780956
Si       5.83861615      10.91378158      20.99493221
Si       3.61394023       9.24224946      24.68405082
Si       3.63896201      11.26010324      26.07609572
Si       4.87487466      12.96518602      24.82840875
Si      17.72120099      24.84043935      14.58068570
Si      18.15415983      24.01695692      16.78197606
Si      16.21595481      23.69241396      17.97039735
Si      15.98738918      19.97103183      16.45739289
Si      17.87438640      20.69992958      19.83495822
Si      16.52375441      19.11477672      18.67679297
Si      14.61236530      18.73638247      19.82199750
Si      14.34459231      23.00748031      14.64748882
Si      16.54178513      26.86102701      14.79956791
Si      15.06280173      25.62220889      18.05467743
Si      14.50968701      26.43282503      16.06333575
Si      13.26693425      24.96101346      14.89218939
Si      14.65408203      18.49808901      15.39542713
Si      12.69650769      18.01530625      16.59958232
Si      14.91251280      22.09416459      16.78381639
Si      13.36003287      20.81114742      20.21366439
Si      12.96474917      21.59315777      17.97659627
Si      11.54826583      20.08507290      16.82501962
Si      13.21683537      17.28692795      18.81349712
Si      28.59383478      24.70276648      27.81834813
Si      26.47158509      29.49504878      23.69890959
Si      27.19992938      28.41813538      25.72471868
Si      25.75323361      26.81462190      26.33913978
Si      28.47396139      28.79742202      29.39640932
Si      27.03890322      27.29555447      30.06110154
Si      26.60947359      25.82448558      28.30150111
Si      24.94956290      24.08958022      29.08753387
Si      11.39159658      19.65174897       3.50529567
Si       9.44556620      19.54611035       2.31520321
Si       8.37248390      17.44210362       2.26958488
Si       6.39520067      18.65309042       5.29728903
Si       7.69769531      18.20308540       8.85929266
Si       5.89950104      18.29897144       7.64743381
Si       6.52017084      17.58836743       1.07863182
Si       5.70895106      15.36866365       1.04878163
Si       4.46170529      18.72194607       3.93321825
Si       3.46315164      16.44140671       4.23626254
Si       7.84163117      17.14229948       4.61652630
Si       8.43940256      13.21138173       3.96326390
Si       6.85171959      14.90715483       4.75435533
Si       4.96492422      14.88808390       3.25286454
Si      17.71314648      39.95327549      20.82743370
Si      19.83260406       1.92042518      24.46005420
Si      18.24890459       1.80654884      26.07696549
Si      18.67291216      38.70060785      22.72395606
Si      17.13952067      38.47678216      24.38168945
Si      15.62696197       1.83850813      23.37977703
Si      15.24592232      37.26499872      23.46372004
Si      16.49344397       0.58477924      25.07213745
Si      15.62206444      39.04619529      28.58355247
Si      14.79122533       0.37383861      26.72378273
Si      12.95098096      39.14324150      25.90073648
Si      22.12583436      21.02366733       5.30482362
Si      20.96049492      17.71264601       8.17807031
Si      21.72791864      17.23801233       5.96862659
Si      22.88257867      17.76614300       9.51558672
Si      23.22497356      18.96467186       5.23552533
Si      25.02136418      18.99091207       6.71331849
Si      21.85919584      25.23071652       6.85121963
Si      23.63529565      25.27594593       8.17068563
Si      21.44078564      21.39212258       7.53195820
Si      23.31619372      21.49840602       8.86319700
Si      24.41050670      19.49039572       8.92292069
Si      24.69917510      23.13873764       8.15259193
Si      26.67548124      23.24723268       9.58938238
Si      21.07222644      21.40956602      18.25684457
Si      20.37388664      20.73637775      20.36420775
Si      19.06226273      18.86413686      20.21532103
Si      23.12725641      20.19286620      15.07249396
Si      22.85890803      16.45218045      13.97768634
Si      22.33658150      19.53545682      17.23827645
Si      21.04387921      17.64486064      17.10943570
Si      30.92874028       3.09360260       5.22006397
Si      27.08630733       2.78556295       5.53954728
Si      24.95839225       3.49471022       4.77274864
Si      24.89889686       5.82396254       4.69161359
Si      28.79173027       3.74208996       4.23229610
Si      28.93002875       6.95379731       6.28984532
Si      28.62095508       6.04499369       4.16818903
Si      30.33440023       6.79521608       2.74119399
Si      25.05328845       6.84613680       6.82687732
Si      16.08761127      37.86864261      17.14634768
Si      14.92906310      34.92557862      14.98250598
Si      14.63366268      37.26453288      18.86253445
Si      16.23481467       0.38302519      17.29570584
Si      14.39586935       1.32468848      16.92538839
Si      14.11617003      34.27165934      12.88583948
Si      15.25485499      37.24661252      14.97329013
Si      13.26852229      38.37402290      14.78113470
Si      13.49849652       0.64056675      14.78461610
Si      12.26416562      37.64451006      12.60834045
Si      11.23437846       1.76009800      14.47294806
Si      33.34423770      30.67025314      36.89684424
Si      32.60015818      31.81128412      34.93874267
Si      30.67530758      33.08819463      35.19477069
Si      29.27772819      37.39248189      29.69695758
Si      26.03423551      36.86018537      31.81714830
Si      29.88359074      35.05021889      30.14068868
Si      29.34731224      37.99223492      33.49655162
Si      26.98796619      38.35558533      33.61356375
Si      26.16867897      37.45868136      35.68062388
Si      26.51733853      33.87493459      28.47992966
Si      25.77548186      33.22243856      30.66738568
Si      26.69436584      34.56305528      32.34103643
Si      26.95278422      35.21926128      36.04330805
Si      25.94280850      33.86567383      34.44504641
Si      23.53895892      34.12132434      34.51211411
Si       4.31809859      29.92604009      32.97021456
Si       0.58158912      26.69102354      30.73229135
Si       1.09921127      30.57330477      31.09031586
Si       0.10215021      30.70843099      29.07756779
Si       3.36473018      27.91028110      34.01925604
Si       1.04443600      28.19534674      34.18522849
Si       0.22534886      26.45978717      35.20896435
Si      37.84550984      26.76767672      35.58859458
Si       0.65900368      32.40365194      32.39668710
Si       0.77512438      30.15196062      35.67524748
Si      39.96985404      28.47125698      32.06544717
Si      36.81888338      29.24122495      30.35037508
Si      37.71388506      28.90439496      32.41216675
Si      36.89385496      26.94514028      33.54437726
Si      37.72465119      26.53134887      37.94078051
Si      38.24649146      23.73062282       3.98366000
Si      37.05806914      25.53751127       0.06387891
Si      38.08045050      26.79301172       1.75691755
Si      34.93591327      29.21500956       1.87662492
Si      35.10554462      26.01309551       4.21672041
Si      37.37142797      25.91968343       3.93479618
Si      34.39326203      28.21164790       3.96727431
Si      39.91991619      26.40462770      37.74249848
Si       0.45839018      26.74106120       1.48709601
Si       1.10751073      27.62456144      39.45369098
Si      37.43411940      29.08434398       1.70250907
Si      38.28310025      30.24317898       3.30121065
Si      39.19933552      14.77269987       8.23991346
Si       0.45314149      18.43064485       7.33490963
Si      37.17290703      18.01393683       9.44567983
Si       1.22411867      16.19283449       7.83441789
Si       2.51833506      16.27188102       9.84489068
Si      37.96235513      15.76043282      10.08092505
Si      39.27189040      15.91575716      12.07255124
Si      39.21960164      19.28881195       9.09177640
Si       0.31922621      19.45052740      11.12518680
Si       4.34334711      17.81509124       9.61453740
Si       5.61920592      17.86216251      11.54046388
Si       3.60427455      20.85371282      12.81413281
Si      38.00924331      16.80605258      13.83599550
Si      37.31088164      18.94915709      13.38628287
Si      39.14312148      20.16771469      12.84308947
Si       1.15235450      17.24627763      11.66177595
Si       3.08567644      15.07190880      14.30363876
Si       2.54028720      17.37447429      13.76901967
Si       4.35819354      18.53061015      13.33826222
Si      21.08997221       9.62539609      26.69092988
Si      24.13004723      14.77828560      29.50482806
Si      21.79840727      13.37442294      26.86284407
Si      24.54788366      10.99660471      25.68716441
Si      23.62066782      12.99375096      25.41325008
Si      22.94110554      13.31887218      23.20963862
Si       2.74675742      24.27558431      31.41361005
Si       1.86979517      20.84322716      30.09611780
Si       2.39250908      20.29710144      26.25906278
Si       2.67877299      19.26784303      28.38741768
Si       3.35588174      22.88685438      29.85930993
Si       5.57181603      22.03741438      30.24835739
Si      37.93320886      23.91691648      24.02159874
Si      37.12745275      28.38255582      24.89082180
Si      35.46769692      26.76175248      24.82796711
Si      34.57357904      26.81551227      22.68767531
Si      36.20373937      24.67420716      25.39565690
Si      34.46087266      23.15135907      25.38685142
Si      12.28665479      39.10550614      11.87713912
Si      11.96150548      37.46731834      10.13132562
Si       9.67253505      37.18122443       9.75713824
Si      11.13609434      38.25225224      13.89799501
Si       8.78263223      37.89994297      13.43814402
Si       8.83713976      39.25170721       9.00001279
Si       7.77115100      39.97316751      12.82236158
Si       6.47145846      38.82066170       8.76804232
Si       5.54727238      39.47797302      12.22826196
Si       7.74960877      37.15569151      15.33712055
Si       8.61799249      36.36215011      11.68781909
Si       5.40601380      37.95674700      10.62419099
Si       6.39412223      35.98263253      11.25920657
Si      36.02623370      20.26687641      27.97964027
Si      37.02236325      23.77918230      29.15872187
Si      37.89713910      22.66968044      25.65317077
Si      37.43414797      24.40798296      26.96451272
Si      39.09366373      26.07851826      26.83361389
Si      24.70646829      29.32345224      11.06516163
Si      28.51928080      29.43406275      10.38806813
Si      26.46135732      26.42175925       9.10507404
Si      26.51092374      30.78483708      10.62364470
Si      26.13093746      31.96770188       8.56974298
Si      24.60301769      27.72623449       9.25004692
Si      24.02319471      28.95203993       7.18390068
Si      22.79094196      30.52884336      11.35305006
Si      22.34337788      31.82756826       9.29153264
Si      24.14938763      33.26520683       8.85916564
Si      22.10050981      30.33589470       7.46545906
Si      28.24986672      27.97754712       8.65108964
Si      27.80326062      29.18599947       6.64919629
Si      28.02453714      33.41276731       8.13853553
Si      26.24969767      24.96737686       7.27084763
Si      23.79653469      27.54330967       5.54418879
Si      25.77108714      30.36887475       6.85535261
Si      25.47450531      31.69837679       4.90260105
Si      27.31269922      32.99821307       4.39317773
Si       7.82492540      24.48925892      13.66834989
Si       5.12927364      26.66183154      15.27863305
Si       6.54197932      26.44229535      13.38841109
Si       7.99981233      28.21404153      13.46714070
Si      10.60049203      26.35400706      15.52138141
Si       9.40624940      27.92839617      11.38633567
Si      11.96110095      26.27220571      13.50775298
Si      13.42630577      27.81597875      13.53926964
Si       7.95114821      28.55934437      17.16267214
Si       9.24937140      28.38960346      15.33845267
Si      12.18826724      29.88144267      13.24269781
Si      10.77591543      30.17930405      15.16514130
Si       9.60019979      32.19366608      15.02455367
Si      12.12989452      30.25931289      16.97944716
Si      14.88953665      28.00230543      15.34667624
Si      17.52932756       5.51683244      20.71182749
Si      14.97734957       8.05580848      19.24820165
Si      19.08317834       6.05707790      18.86700503
Si      16.36837138       8.48564361      17.49065326
Si      13.88001663       5.26383935      21.60807941
Si      17.85281480       3.28790199      21.37049766
Si      17.45409115       1.86541720      19.40423278
Si      12.36334704       6.72754815      16.51655809
Si      15.31465183       5.75894972      19.76247612
Si      14.80438117       4.32528863      17.97646404
Si      15.38097731       2.17833677      18.69946873
Si      12.66253302       4.64049424      17.27072651
Si      12.42962277       3.15406350      15.38765520
Si      18.98370635       2.38521733      17.87320455
Si      37.53406536      31.58642113      27.49161569
Si      36.92213991      33.59779807      28.66615255
Si      35.02604258      29.49254128      29.44239303
Si      34.30453710      31.46762105      30.51314325
Si      34.52224090      33.31003036      29.13294019
Si      10.84273903      33.18972683      12.29077248
Si      14.25583279      31.52631160      13.14416917
Si       7.57349291      32.69892631      14.33428975
Si      10.75565835      35.27077765       9.04448135
Si       5.74458463      33.37370181       7.88656772
Si       9.43521107      35.80805094       7.18395274
Si      12.76359184      32.05072773      11.42307462
Si      13.99543769      33.58635452      10.24644527
Si       9.51302289      33.66929537      10.35991533
Si       8.95063087      31.79383664       9.11851707
Si       7.58520128      32.33281067       7.22505324
Si      15.36818834      23.68078220      39.12401683
Si      14.64612093      21.62781137      38.05176476
Si      17.31436066      21.90922375      35.40988378
Si      16.28529539      20.51376897      36.98916452
Si      15.57713351      18.62443702      35.76177505
Si      12.11642521      25.31118074      38.58159832
Si      13.65252159      20.18093186      39.53770099
Si      12.66819372      18.30156643      38.31804204
Si      12.94897381      22.37409150      36.37753760
Si      13.89556674      19.32321547      34.15246602
Si      12.25450854      20.44495905      35.37834605
Si      11.26733645      18.98987718      36.67814357
Si       2.46813678      16.74450882      26.96368220
Si       2.21658546      15.91678962      24.69676210
Si       1.83237568      13.61019713      24.63852162
Si      38.50715210      16.60209148      24.90920475
Si      38.17300374      14.26034337      24.95991003
Si       0.23810964      16.24506182      21.48170550
Si      39.76638871      13.99083778      21.46447737
Si       1.72998165      12.88498062      22.61757675
Si      37.93106385      13.55340929      22.61593505
Si      37.43205672      11.19418828      22.80827686
Si       0.12390082      13.77079044      28.15919411
Si       3.80338062      13.38528994      27.99603905
Si       1.90595923      12.81597983      29.19437655
Si       1.45570087      10.51546966      29.01714520
Si      36.18915688      13.82219481      26.18020607
Si      39.95473958      13.02965127      25.82333876
Si      39.53804324      10.88283453      25.98454436
Si      37.62787512      10.33265847      27.03610007
Si      37.16889793       8.09200145      27.11957192
Si      35.47504644      10.67776979      23.83056386
Si       5.54631278      25.51828512      16.44561095
Si       5.61894040      21.87978149      20.58987010
Si       5.10586273      21.59781014      16.64118675
Si       6.72184996      19.91007672      20.45486647
Si       6.27911615      19.72033174      16.80554659
Si       4.17486340      25.78323836      18.58027778
Si       2.92594160      23.88223857      18.76986059
Si       4.43161590      22.18047465      22.59417458
Si       3.23638642      24.28458337      22.52100021
Si       2.78422025      20.34376318      22.85450753
Si       3.60597443      21.63834118      14.92938826
Si       2.33339264      23.74584429      14.94891241
Si       1.27831362      23.80996403      16.97338470
Si       4.01979277      21.92139122      18.69429174
Si       3.61391309      18.10712715      19.07487667
Si       2.51180906      20.21434326      19.03684463
Si      26.32119179      20.11233989      20.71570864
Si      26.01302675      22.19668249      23.90391194
Si      23.09111753      23.31763483      20.74135694
Si      25.42031383      23.80699491      20.42494989
Si      28.28623076      24.45307935      18.09800948
Si      25.85430088      25.89891936      21.54877061
Si      26.73746030      22.14884542      21.76702424
Si      28.94457368      22.67108899      21.54191634
Si      29.36527316      24.72153003      22.41588569
Si      26.00980648      34.33758961       1.38462183
Si      22.24868205      33.72326528       0.73083373
Si      26.65454997      33.82671608      39.35569004
Si      23.28231175      30.85305943      38.31134156
Si      23.53088181      33.78375351       4.36518688
Si      27.92888990      33.95832990       2.77642237
Si      20.38665740      32.42809952       1.32853392
Si      19.80263221      33.01853504       3.49107421
Si      21.64526315      32.60357727       4.91109394
Si      24.11226304      33.06256344       2.04601466
Si      24.55951852      30.84536052       2.04131809
Si      21.43673967      29.59811535      39.02321778
Si      19.72724510       5.69820733      34.98593762
Si      18.28582121       6.29384556      31.47337060
Si      19.54942978       2.76062606      32.38305550
Si      21.38658739       4.41360116      36.16908451
Si      20.92721717       2.04609333      35.95994629
Si      23.40047549       5.11423139      35.56115607
Si      18.66412196       5.66472079      29.26844722
Si      19.89146586       2.20922976      30.14179692
Si      19.93876830       5.04428659      32.81362852
Si      22.04544907       5.55584387      31.97900957
Si      23.76593769       4.58240993      33.20094519
Si      23.76519534       7.28100276      35.81831958
Si       3.41753743      34.88361186      14.07601149
Si       2.21281122      29.54676455      14.54915646
Si       3.64705122      34.42417836      10.08745211
Si       3.22768309      33.24353939      12.24054950
Si       0.55582063      31.32214799      14.36985466
Si       0.98004918      32.33835103      12.24751811
Si       9.51634661       8.69981167       6.08779176
Si       9.76676182       6.40196781       5.89548254
Si      12.03324875       5.77002867       5.47437887
Si      12.50392736       5.62767138       9.38213762
Si      10.76491910       9.48500671       7.98776520
Si      12.95836454       8.82142994       7.50857172
Si      12.57375424       9.18280251       3.81446393
Si      13.79572870       9.92829042       5.55783741
Si      16.24216202       9.32957195       5.26255039
Si      13.69823409       6.26775707      11.09752900
Si      13.45803385       8.62810037      11.41172222
Si      14.31630673       9.57321390       9.30816833
Si      16.61713648       8.98150329       9.01349260
Si      13.30756219       6.56617557       7.30198044
Si      15.46524941       6.00798035       6.96426822
Si      16.26891853       7.06937585       4.99568131
Si      16.88970840       6.65062414       8.96065608
Si      17.35491152      10.11226891       7.04440173
Si       7.74392544      16.41520549      24.58416904
Si       3.99997394      15.56975188      23.74370711
Si       5.51663658      18.95434378      22.73843214
Si       6.23819125      14.67854749      23.96324466
Si       6.50047151      13.62996057      21.93234307
Si      11.49041830      18.58292472      23.31007934
Si      11.92799693      17.66298473      21.17708436
Si       7.69613515      17.94796191      22.78099757
Si       8.25943817      16.99286204      20.66666389
Si       9.88340040      15.32788867      24.61277398
Si       8.75273799      12.61156676      21.98615155
Si      10.38323980      16.01341303      20.76702700
Si      10.87185489      14.96174617      18.77819243
Si       4.05039632      17.32152364      21.99434730
Si       4.43788522      16.26939305      20.10045352
Si       8.18819201      18.66260018      18.92207327
Si       8.72519878      17.59521736      16.92012861
Si       4.95297750      16.93096590      16.31298528
Si       6.58751650      15.32142713      20.14322969
Si       9.29543099      13.35745177      18.26256419
Si       7.07174946      14.36250055      18.10992005
Si       7.08708901      15.89846036      16.43268605
Si      10.76387491      16.64511451      16.99986060
Si      25.32191783      38.61676491       9.47093809
Si      23.91074444      35.39371117       7.64825008
Si      23.40880877      39.71482662       8.89023132
Si      23.59446498       0.70103908       6.85823999
Si      21.99246141      36.46002310       7.21910976
Si      22.15538915      37.59823485       5.14936941
Si      21.52962050       1.84215903       6.37673683
Si      21.70372027       2.92582989       4.26130535
Si      20.29844037      39.77630644       2.59853233
Si      25.18777801       2.32609032       6.97121582
Si      23.94863422      39.17924378       5.15707600
Si      22.12052603       1.46159470       2.69512197
Si      24.14278216       0.19997058       3.19160963
Si      22.33169962       2.42198704       0.48975683
Si      24.47211046      38.71577819       1.48019791
Si      24.21191879      15.74972887      25.24750374
Si      28.04479721      16.54785323      24.18711006
Si      26.36545758      13.37812421      22.83742317
Si      24.26635250      14.14901942      23.42129309
Si      25.98333155      18.67462377      26.72971684
Si      27.54272589      20.53441958      26.31082209
Si      25.81872572      17.40237096      24.88443680
Si      25.12705905      18.78162821      23.01944571
Si      29.57529404      33.31715923      32.13718407
Si      28.68211289      35.45669346      36.08142594
Si      30.77878373      31.60224206      31.05312704
Si      25.65354546      33.27372592      36.40221259
Si      24.03221224      31.78819179      35.48156997
Si      28.13332073      32.35430289      33.78165436
Si      26.63553083      31.01075424      32.71435393
Si      36.90300395      28.80038833      35.40404172
Si      37.08196311      31.26330373      32.48682846
Si      38.27196738      33.09905244      31.49455140
Si      34.83767096      32.05949301      33.05851526
Si      26.69277530      30.41599503       0.67855599
Si      28.07053423      27.26269497       2.32531908
Si      30.81750275      29.15851208      39.52944264
Si      28.89797956      28.01369909      38.76642184
Si      25.94100972      31.26757675      38.76977429
Si      27.32964659      28.10751069       0.43096764
Si      25.36843644      26.99718185      39.77478018
Si      24.64278074      27.88561022      37.65542895
Si      26.03005865      12.01774999      21.69418296
Si      26.29346867      10.53847215      19.80840777
Si      24.19719495       9.75199433      19.09345011
Si      24.97677388      10.76993307      23.52012485
Si      22.93954946      10.09863139      22.70483072
Si      22.86878027      11.77571386      18.55497959
Si      21.53479505      11.91591762      22.11034534
Si      24.37306445       8.41268572      17.20136143
Si      22.37431538       7.73315599      16.53649320
Si      23.27169521       8.58706099      20.80522371
Si      21.02364215       7.94299226      20.20391254
Si      21.28166545       6.44351512      18.28280279
Si      28.16356803      24.25670805       8.41386118
Si      27.81957983      21.39251199       5.75687218
Si      24.44366385      16.49148558       2.91880479
Si      27.73493833      18.42105300       3.34532181
Si      25.44411746      21.61223227       5.60924752
Si      25.37273654      18.53577113       3.24826578
Si      24.66015647      20.20083400       1.53599950
Si      30.95043380      20.34160542       3.84506691
Si      31.84244228      21.79121762       7.89134567
Si      28.75868645      23.49842619       6.17175885
Si      31.18994234      23.36139501       6.26634874
Si      31.87298395      22.40629904       4.11025904
Si      28.40591934      17.57074941       1.17413146
Si      28.61589338      20.59750489       3.75030406
Si      27.91299723      21.95741314       1.96011760
Si      28.92889136      24.03945806       2.45752903
Si      28.79211641      21.23201492      39.88344731
Si      28.90762054      15.91075548      38.54678175
Si      27.35049356      14.83544632      35.23267938
Si      22.26796068      16.07190793      37.24745101
Si      25.41607811      14.58717790      34.06968179
Si      28.34506405      12.86118868      35.41522465
Si      25.45476941      14.19576697      38.57187381
Si      23.31603112      13.84991178      37.28332063
Si      36.85463337      37.85237349      16.08526964
Si      34.91570584       0.50804441      11.73821462
Si      36.57687083       1.21559468      18.21139974
Si      36.41905616       0.27271781      16.00896428
Si      33.98467778       0.32307429      15.57573400
Si      33.96251419       5.97976658      13.91441174
Si      34.55774360       3.71668676      13.82008642
Si      34.18455279       2.70761525      11.67760627
Si      33.33989479       2.67929725      15.49513839
Si      31.05601553       2.61284977      14.95363484
Si      33.03648569       5.71730920      17.41604741
Si      36.62477224      37.00221991      14.16043669
Si      34.28057407      37.16279480      13.53149552
Si      33.79451316      33.65680449      15.20870574
Si      33.06967292      36.02671287      15.13741419
Si      33.74043056      39.40975264      13.51434575
Si      30.76021939       1.76959577      12.90271886
Si      31.28774820      39.49846996      12.88078887
Si       2.78992479      38.96822014      26.95076763
Si       0.81254483      37.88201815      26.58749826
Si       0.11866931       0.10411366      23.44031555
Si       0.96254996      35.97937016      25.08349571
Si      38.98102028       1.25682088      27.03357191
Si      37.99379810       0.64692550      29.03007957
Si      38.69055555       1.77600039      22.47461728
Si      37.40322175       2.71407115      25.93063328
Si      35.42465243       1.73505181      25.48432465
Si      39.27208926      39.43243459      25.63131237
Si      37.49346507      36.61478939      23.60958981
Si      37.22103169      38.34801630      25.26368924
Si      36.26826130      37.72475514      27.21323479
Si      33.00970840      35.73110723      18.42019248
Si      31.96586076      33.81686276      21.66226201
Si      35.04509463      36.29751837      19.44712814
Si      34.74991719      38.43502904      20.66266717
Si      34.07904249      34.38502420      22.55078769
Si      33.82119666      36.40508643      23.75910149
Si      36.81433017      38.93849884      21.62681384
Si      35.96391483      37.02118466      24.81220313
Si      31.41110675      35.53352277      20.01371519
Si      31.04335883      37.39352075      21.31485490
Si      34.03551727       0.04683148      19.01855048
Si      33.77282636       2.06857353      20.16674182
Si      30.09922090       1.10565012      20.85853029
Si      33.19272688       3.80639948      18.81303762
Si      30.35347142      33.58388103      23.28355841
Si      30.09764955      35.55152474      24.46968150
Si      31.90225428      38.24722201      26.61568805
Si      29.46231906      37.17141781      22.89127983
Si      29.19376985      39.28145905      24.11392831
Si      33.03294474      38.11125940      22.22817931
Si      34.86619831       0.67838280      24.39102877
Si      32.81407079       0.18140298      23.45862516
Si      32.03637678       1.73081275      21.94265689
Si      31.19651636      39.79050349      25.11966139
Si      31.82787605       3.78898541      23.18171733
Si      35.84646894       2.61785478      21.28487987
Si      34.03618716       4.49592180      24.20505535
Si      24.61963326      36.94150449      12.02948937
Si      26.48394537      33.65400204      13.04878186
Si      24.67480693      34.63518008      12.02044502
Si      22.76258038      33.72277381      13.00800540
Si      24.59751373      37.62966066      14.28986610
Si      22.64599689      36.80416063      15.25949530
Si      24.44055177      33.66455042      16.30291359
Si      22.69250846      31.48582511      12.99150023
Si      22.52335448      37.63009846      17.53583644
Si      24.35722679      34.47938821      18.53492500
Si      22.63849007      34.51259291      15.21349717
Si      20.77077586      33.72756430      16.25792119
Si      11.28405811       3.14436575      37.88615100
Si      12.52763352       4.98399692      37.19308362
Si      14.39046987       5.32659869      38.76832022
Si      14.34388548       1.52779728      39.60746904
Si      13.44318706       1.93945800       1.58908039
Si      17.32500087       3.73262062       0.39694481
Si      11.90848764       7.56232838       0.72936216
Si      13.15184408       9.50649046       0.04908218
Si      11.08073340       8.15718471       2.94665403
Si      13.39080183       5.76341605       0.77421520
Si      16.48428392       4.23085680       2.43091284
Si      15.05110929       6.07890587       2.47001105
Si      16.35486020       7.92139098       1.74014692
Si       7.94067872      12.71068833      29.03932958
Si      12.11410825      11.28899781      28.98542547
Si       5.74585832      12.71162566      30.04079074
Si       4.31511917      11.97175263      28.56782956
Si       5.74895999      11.15289148      32.04430464
Si      11.29342110       6.88107175      28.74854517
Si       7.55500315       6.09366358      28.12933581
Si       8.44150437      10.46198318      28.51194576
Si       8.53102908       9.07215698      30.34832015
Si       6.41990190       9.06845631      31.30823572
Si       9.10053902       7.02061073      29.77039441
Si       7.46976845      12.07862382      33.56935479
Si      21.01679346      29.23456130      27.21554270
Si      24.64072799      27.31888707      28.96490717
Si      24.83704523      28.51468403      26.94980649
Si      22.77360073      28.50440458      25.82255653
Si       7.65222642      39.45899197      25.98944186
Si       4.80079064      39.52509701      28.46957254
Si       1.93730898      39.55455779      31.15521113
Si       3.97470682      37.38522337      27.76898273
Si       4.87386267       1.83304681      31.78072234
Si       7.09834564      39.70748516      28.33652589
Si       7.80652585       1.75988686      29.12147638
Si       8.27563838      37.93616250      29.58002655
Si       1.40876200      39.67484367      33.34947361
Si       4.28063178      39.71654384      30.84230650
Si       5.25529098      38.03608839      32.01181864
Si       7.60896113      38.18597135      31.82213680
Si       8.41256505      19.92048795      35.98160306
Si       6.54382154      21.80061488      38.72468689
Si       9.38331754      18.44355252      37.64057846
Si       8.04147825      16.60437890      38.06507279
Si       6.25687633      20.50746909      36.55415972
Si       5.93280912      17.33429340      38.77331746
Si      36.97373586      34.47518114       0.60573407
Si      38.40510388      33.93234261      37.15451846
Si      38.96493726      37.23974444      38.81360920
Si      39.38860735      32.29575731      35.53234133
Si      38.03153830      32.82476053      39.05230359
Si       1.35029982      33.89215085       0.39066032
Si      39.88316487      32.05283166       0.00198697
Si       0.97790967      30.57493473      38.50734884
Si       4.98460777       4.93917815      29.06090494
Si       2.66044529       5.28297870      29.57339446
Si       3.09499286       2.87458534      32.54245284
Si      39.94465485       1.10357914      33.98854502
Si       2.36040707       6.96395095      31.04769169
Si       0.14284882       7.27869208      31.63342384
Si       0.46433235       4.96549896      34.51866836
Si      39.62884584       3.57180392      31.05587149
Si      38.65946602       1.62487676      32.00915720
Si      39.23769562       5.34478843      32.57184340
Si      36.98869575       5.64587937      33.02579905
Si      38.87650592       7.81382647      29.56521489
Si      12.42270978      36.87582995       8.40909165
Si      14.01388868      35.09006256       8.91893939
Si      15.34758377      35.92074253      10.76289333
Si      14.95829235      39.41319918       9.54342380
Si      13.77231351      39.99932333      11.45158185
Si      17.86767998      37.14700425       8.30076823
Si      16.65117417      37.74211040      10.11473144
Si       8.32721198       0.62224300      36.74781156
Si       8.91619255       5.29003544      34.15557307
Si       8.15160745       2.73569527      37.70278141
Si       6.51105237       3.92171055      36.69526861
Si       6.93090764       8.62773674      33.96623419
Si       8.66572161       0.73733605      34.47841831
Si       6.96301604       2.11008245      33.43867510
Si       9.29191874       5.42571643      31.66085012
Si       7.48957179       6.66491229      30.66577306
Si       7.44271807       2.10743525      31.10572003
Si       6.91239210       4.20728695      34.40430888
Si       5.12107251       5.40287499      33.34429978
Si       5.57688723       5.45162699      31.10725759
Si      16.69248322      32.82777391      13.07047639
Si      15.73654259      33.76895819      11.06892794
Si      17.37137443      34.40596709       9.53225462
Si      19.63954169      35.39480987      12.56976298
Si      18.02995730      31.06006008      12.62510466
Si      18.77187473      32.62957066       9.09159751
Si      19.68777857      31.67907715      11.02642695
Si      20.55358814      33.16553173       7.52251069
Si      22.80920875      34.03144964      10.50844260
Si      18.74741021      36.15750077      10.47004754
Si      19.49698741      37.44889529       7.06941800
Si      20.31080735      36.76025734       9.06174416
Si      21.55921779      38.49508437      10.03111973
Si      21.71717437      34.97121934       8.50548599
Si      19.44797878      34.01753635       5.52161338
Si      19.71049417      11.15237245       0.02726214
Si      20.31039126      11.08545335       2.40970117
Si      23.10273529       8.61591031       1.42875920
Si      21.95974526      12.67145781       2.67259017
Si      22.73946951      12.72891137       4.96367051
Si      18.93388821       7.46045809       0.09204287
Si      19.58377076       7.28908541       2.48461679
Si      18.55179362      11.57750509       3.65461448
Si      16.89488148       9.94245944       3.31725627
Si      19.00642410      11.61985845       5.88038865
Si      17.71307719       7.82814807       3.83946497
Si      18.33401309       7.77726635       6.15894803
Si      21.53399104       4.76884565      39.37022359
Si      22.36441312       4.78876985       1.77458165
Si      20.52336653       5.29525026       2.94024578
Si      21.06267526       5.07555250       5.32909749
Si      21.22835752       9.04392880       2.86155001
Si      23.51570871      10.55015779       5.38235218
Si      21.83955287       8.97526513       5.06784139
Si      24.15891697      10.58251388       7.78298569
Si      20.05116253       9.42509918       6.56264641
Si      22.72805499       6.82951539       5.64413028
Si      20.72553652       9.35335465       8.66003721
Si      23.33785453       6.86189964       7.89997717
Si      22.19642968      10.98069086       9.06724215
Si      25.74532327      31.23419661      28.53303075
Si      24.94422158      30.66444600      30.86916529
Si      24.42359401      28.37493570      30.87684981
Si      14.27893656      32.01565904       3.05158770
Si      14.31682276      30.42174014       1.48144873
Si      16.45429641      29.93840334       0.97449159
Si      16.55643087      27.28196416       3.68563648
Si      13.27970715      26.81139781       0.74914445
Si      16.56133908      28.23664995      39.26002925
Si      16.58146332      25.63156945       2.08960493
Si      18.81735106      27.71925057      38.74692188
Si      17.51136707      30.87019035       4.60398801
Si      17.59495065      26.55853068       5.62437711
Si      17.62804386      28.20614586       7.19088604
Si      19.92104088      26.05595778       5.18351848
Si      18.70740494      30.12212480       6.41740599
Si      20.89043878      29.62441933       5.90359698
Si      17.64556567      29.16815786       2.83190361
Si      19.92444929      26.95746157       0.80055248
Si      19.94168469      28.65466720       2.23913364
Si      20.77715782      30.67484677       1.54925547
Si      20.83367166      27.95039773       4.32571072
Si      19.86833547      29.68835625      37.98618494
Si       1.32030802      35.83795669       4.53265597
Si      38.45151434      33.37574775       4.14931014
Si       0.20479103      36.99691184       6.10186490
Si      37.86738235      36.77399616       5.57109259
Si       0.89341033      36.60352558       2.33062547
Si      37.42020509      37.64758130       3.29104351
Si      39.92135410      34.15821874       8.26395871
Si      37.55520890      33.98077093       7.83136956
Si      37.13944270      34.72713627       5.66148573
Si       5.79734511      28.74561960       8.96853594
Si       5.91259627      28.39499986      12.83459441
Si       3.19804000      30.53624960      11.22737366
Si       5.77236997      29.49688833      14.82718631
Si       5.43574075      29.84594786      11.06843750
Si       6.73921142      31.77252221      11.12373897
Si      33.35213654      28.88086379      37.88342285
Si      32.10605608      31.25210609      32.59553695
Si      31.93365459      29.70009604      34.48302127
Si      32.56423517      26.07850752      35.45163230
Si      32.64298168      27.61548793      33.55785387
Si      34.83492791      27.79299520      32.91143336
Si      36.19709514      26.89055462      36.34106626
Si       4.23739085      13.26619029      31.25355735
Si       6.16417311      13.95765600      32.54118604
Si       6.69865170      16.20637508      32.03722914
Si       5.13879573      15.76731388      28.48838367
Si       3.43150274      17.16262378      29.14212446
Si       8.82516639      14.88553182      29.10764138
Si       8.77933805      16.70716147      33.12066998
Si      10.51799501      15.24562750      32.47443296
Si      10.93599330      15.48665960      30.22886962
Si      11.41522383      17.66131267      29.71861516
Si       5.52110824      16.05719255      26.30093266
Si       7.26766429      14.56208511      25.67800471
Si       6.17191347      18.04643301      25.72357900
Si       9.23341699      15.00427563      26.72025108
Si       9.80772900      17.32217168      26.10002388
Si       7.07705196      16.30405697      29.62809060
Si       6.00270031      20.03305980      29.72465662
Si       7.74690979      18.50894436      29.09405848
Si       9.79863421      19.08115362      30.34153117
Si       8.12949086      18.76707068      26.86002871
Si      15.55072209      25.02763524      35.86616449
Si      11.79663541      24.64832139      35.64839410
Si      13.27703117      26.55150498      38.66565961
Si      15.30751289      26.86466963      37.40991723
Si      11.39583051      26.35046174      37.17510672
Si      15.14898334      28.88151130      35.99050754
Si      17.56219571      25.41119876      34.74192536
Si      17.81630617      23.42972756      33.24009302
Si      16.10503912      23.18377441      31.86946132
Si      13.75193456      24.81413950      34.60641909
Si      13.67651432      26.76066667      33.16874229
Si      15.55031472      27.14724875      31.92514421
Si      17.03471838      29.16892249      34.89611371
Si       9.02380011       0.50548931      25.60959087
Si      12.78281518       0.42058663      21.60839501
Si      11.40378048       0.74282942      25.85857626
Si      12.12198111       2.59692700      24.66427455
Si       8.66670437       0.11330037      23.23585070
Si       9.30994302       2.19164365      22.07872258
Si      13.13655081       2.03987615      18.23674542
Si       8.94212319       1.75038497      19.74412548
Si       9.69629494       3.68482005      18.66604783
Si       7.80875405       2.50049959      26.25509682
Si       8.65741829       4.20400730      25.07634007
Si       8.24181431       4.06639956      22.82320313
Si      11.74495276       2.36688518      22.41828936
Si      12.41091893       4.21195605      21.09804696
Si      11.94968872       4.09379212      18.89716645
Si      34.20383944      18.91555467      31.48983119
Si      33.75455661      19.17078639      29.23119068
Si      30.31253052      19.35679426      32.21037103
Si      29.90824173      19.55788907      30.02341273
Si      26.18230833      19.99637115      30.77049989
Si      31.37165354      16.08834137      29.22899843
Si      31.49806952      18.38427464      28.79559801
Si      34.38853092      16.38713877      13.00780846
Si      36.29098885      15.70713437      14.27298171
Si      35.75712937      13.78223910      15.61859407
Si      37.95292002      15.11859052      18.39751457
Si      34.31809934      16.08028654      18.48870220
Si      36.19919275      15.49556796      19.75301202
Si      35.70149877      13.60128757      20.96594941
Si      39.37884023      12.77980112      15.64868945
Si      35.32977064      11.98897717      14.23160740
Si      34.76318819       9.99693625      15.61091925
Si      34.23012848       8.27362658      14.04538725
Si      39.97450848      14.51666357      19.76197459
Si      37.63323310      13.20446863      16.99217439
Si      35.16762196      11.80705323      19.66519576
Si      37.04881027      11.38286618      18.36151389
Si      34.62064204       9.92243873      20.97440356
Si      36.51260528       9.57579535      16.82010871
Si      36.17900530       7.68587889      18.10532724
Si      34.14440805       8.09930329      19.48794163
Si      29.38424701      24.50683425      38.31920030
Si      28.84786396      25.60056269      34.21340877
Si      30.42187046      24.05300374      34.72613255
Si      25.99396342      23.48594270      35.47300067
Si      27.55042777      21.86227694      36.06895998
Si      28.61018007      23.22269254       0.26760743
Si      26.73038744      20.81612891      38.00664890
Si      28.71439455      21.46550733      32.41641415
Si      32.33847189      20.94766885      33.38986438
Si      29.61629527      22.88191714      36.67295445
Si      31.13852933      21.19722888      37.14619156
Si      31.51849634      19.66278424      35.48999857
Si       5.35681685      12.42798767      33.48633939
Si       3.22565680      13.74030901      32.89890712
Si       1.57138914      12.43476174      33.02469029
Si       2.79408335      14.60296130      36.50357167
Si       1.04933931      13.13895327      36.66014000
Si      39.05821136      14.26598777      36.18157526
Si      37.16616836      12.82771546      36.19882282
Si       5.09310024      11.71644083      35.57326512
Si       3.28400336      10.30550307      35.78132555
Si       1.70291713      10.56194202      31.56052226
Si       3.71286121       9.47534167      32.08985093
Si      39.93579045       9.02362012      31.63378747
Si       3.54133483       8.49802887      34.13440563
Si       1.75065122       7.11500056      34.23526722
Si       1.21577554       7.89321375      37.92749842
Si       1.28922927      11.38998265      35.22317620
Si      37.40243514      11.00950672      34.76751528
Si      39.51633298       9.99458790      35.28838646
Si      39.84496262       8.23353738      33.75117889
Si      39.22385439       9.06170160      37.43342753
Si      38.01569469       6.67012486      33.91609664
Si       0.03663947      13.73146059       2.53870271
Si       0.76711114      11.25746937      39.82747156
Si       2.00744724      13.26498025       3.64534858
Si      37.23436799      12.36965159       0.44520594
Si       0.08916535       9.42966089      38.62991262
Si      39.79996437       7.51782297       0.20629253
Si      39.27164495      11.85537883       1.43668370
Si       1.09019609       9.59434938       4.03764742
Si      38.85146788       9.97052550       3.03814281
Si       0.58730973       7.89488312       5.54085329
Si      37.44511466      10.53948534       4.62066211
Si      39.10511322       8.28195254       7.26966913
Si      17.95310504      31.77117418      14.34684249
Si      19.84550628      36.77224674      13.33400120
Si      17.50111210      35.20187725      15.95466248
Si      17.27429079      34.43158801      17.99184255
Si      18.16725518      35.82841397      19.67200696
Si      19.75792767      35.71304511      15.49211120
Si      20.58081898      37.26185691      16.98010433
Si      19.26607860      39.31370194      16.95194303
Si      20.45401954      36.30001087      19.09033398
Si      33.84540676       9.69970166      11.48336833
Si      34.00386002      11.47088077       9.94989037
Si      32.22781527      12.93623219      10.32760207
Si      32.10377544      14.71533720       8.73099466
Si      35.89442009      12.70442665      10.02735721
Si      36.09267943      14.32758323       8.49007978
Si      34.29226550      15.92360020       8.94284702
Si      29.87905980      10.92040928       8.05207347
Si      29.96076479      12.70770971       6.45955480
Si      31.95711913      13.71320450       6.54744603
Si      32.00161593      15.45248975       4.89038444
Si      15.00589619      12.55796193       0.93938254
Si      12.92860881      13.67502037       1.33422413
Si      11.17520260      11.01473186      38.93519936
Si      11.34588417      10.34241227       2.70811699
Si      11.72316516      12.66061255       3.04436743
Si      12.63759893      14.26835512      37.50200833
Si      13.20238159      15.89936712       1.55814255
Si      14.16777034      16.98108137      39.92673142
Si      12.93578978      16.59469394      37.93291449
Si      10.94895016      17.72037419      38.26299124
Si      11.36630803      14.09318621      35.58402384
Si      11.55270623      13.37930882      39.34860340
Si       8.37558732      13.43779842       1.52638570
Si       9.50621917      14.41091819      39.61437762
Si       9.83492518      16.72005039       0.07240494
Si      30.18644375      36.44599941      29.00985544
Si      31.65207374      35.41660812      27.40549145
Si      32.33850034      32.42321544      29.76029538
Si      30.13340690      33.91977800      26.01283228
Si      33.86478079      38.55194291      27.41921545
Si      33.28711863      34.16412685      28.32997889
Si      34.63388355      33.19863093      26.71938933
Si      35.49854004      34.79845350      25.31578115
Si      30.05893284      23.93762423      39.82352840
Si      32.47652593      26.73420066       1.29921230
Si      30.13054023      25.01112113       3.56945713
Si      32.42432762      25.61993854       3.50017757
Si      33.85513383      23.78081915       3.80491353
Si      32.60480724      25.64431679      37.55949560
Si      34.69669290      26.46550075      37.24828958
Si      36.21193435      24.62992233      37.68678377
Si      32.11653023      24.90060772      39.75400259
Si      33.50743396      22.18335269       2.26186064
Si      33.78913668      23.14510866       0.05134644
Si      35.97047843      23.92092411      39.68352031
Si      30.35929280      18.05759629      33.33701811
Si      26.92239739      18.12911641      31.91931252
Si      28.17810460      17.09960721      33.50463713
Si      28.26853789      14.88151027      33.36045141
Si      31.32338745      15.26876160      30.95449436
Si      31.99275443      14.87446322      34.68712007
Si      29.80298497      13.94761638      35.04451214
Si      32.67025027      14.29150988      32.60070886
Si      29.90133822      11.62455742      34.63418425
Si      27.58070489      17.49575665      29.72696843
Si      29.11789809      14.33447925      31.22752253
Si      27.70210366      10.84074189      35.00685035
Si      33.14997768      29.94461282       5.53388468
Si      33.72974394      30.58872062       9.36706730
Si      35.76376046      26.87183040       7.41409228
Si      33.39537903      26.97245726       7.91953463
Si      32.39757902      25.61910111       6.31647048
Si      30.06634736      25.60979700       6.68495557
Si      33.30858813      29.57356672      11.39969630
Si      30.87650147      29.74268808      12.03515325
Si      32.65868155      29.19516270       7.62877113
Si      29.56017468      31.34873502       7.85881428
Si      30.25637791      29.08810761       8.10489040
Si      29.62466415      24.86719541       8.75676580
Si      25.86309726      10.29503102      27.79500706
Si      27.31529060       7.13478595      28.92231095
Si      27.15661432       8.62410307      27.10034664
Si      26.23057506       7.25114260      25.38289009
Si      23.70475234       9.64611556      28.45794674
Si      22.60248853       8.48921856      26.64465389
Si      20.42760581       7.78564235      27.35639844
Si      23.87450994       6.58029088      26.14210135
Si      22.86489491       5.47437114      24.36076741
Si      20.70288241       4.74222818      25.02144708
Si      31.93485676      34.71844389      36.39633305
Si      29.48752446      36.19058067      38.97123039
Si      32.42058480      36.92687568      32.56708881
Si      34.18081673      36.84315483      34.29554880
Si      36.23248097      37.12194936      33.19443620
Si      37.91812835      36.98718043      34.84095085
Si      30.06714243      38.53842037      35.22669261
Si      31.67439405      36.25560174      37.93594350
Si      33.84533489      38.68497292      35.65006243
Si      35.59054424      38.51188055      37.34994421
Si      34.03387749      34.86174333      35.27436988
Si      35.76354410      34.81651531      36.97394884
Si      35.44492906      36.49893441      38.55392354
Si      37.62687090      38.84276128      36.41733863
Si       0.28479890      27.74688738       6.24707139
Si      39.33515329      28.85953779       9.77788876
Si      38.18571916      27.39561656       5.79048983
Si      37.03936737      28.47932121       9.21462098
Si       0.45403931      29.54961162       7.88462877
Si      39.53526332      31.47700228       7.02169189
Si       2.02864111      38.10193321       8.00310113
Si      35.52723930      38.62524579       9.84255213
Si      37.38019974       2.33081951      11.30979059
Si      38.12477895       3.26385332       9.26090843
Si      34.53072692       0.67203989       9.52391534
Si      35.24358024       1.58560758       7.51385209
Si      37.94784648      38.78952542       9.86021719
Si       0.83207910       0.06179198       7.83550707
Si      38.66921122      39.92011510       7.84753816
Si      37.97144849      38.47358251       5.98707109
Si      37.68376912       1.97331155       7.61848763
Si      36.97274955       5.51150723       9.10135790
Si       0.04448963      35.16716394      31.08395544
Si       1.54709457      35.10484684      27.59669464
Si       1.50265667      32.70752965      27.74323980
Si      39.43597102      31.85033101      26.90732150
Si      39.77725772      38.23781805      28.80630836
Si      38.32833725      36.03219137      32.41588104
Si      38.34288652      38.43161682      32.25814499
Si      37.89987709      38.98901202      30.05044627
Si      36.02920327      38.34251104      29.35875531
Si      39.67465774      35.92133907      28.88019252
Si      37.62163792      35.19939873      28.06056428
Si      37.36575997      35.67544071      25.73899366
Si       1.32062532      30.46290498      23.98473323
Si       7.38030791      29.33695452      26.49289753
Si       3.42926000      29.51734016      24.15120581
Si       3.73896195      28.39078340      26.27236787
Si       2.40937404      26.30318319      22.57667262
Si       2.64687068      25.17092569      24.60855475
Si       6.02908391      27.59230078      26.48366713
Si      39.52619800      28.51842306      24.08685380
Si      39.96465500      27.48309733      26.17929548
Si       3.20560517      29.68982766      28.06605762
Si      39.55291436      28.85747992      28.00581493
Si       2.23101799      26.56496427      26.33090495
Si       2.44430269      25.49201297      28.49234237
Si       7.77569569      25.01402335      32.99498265
Si      10.27438752      24.36029184      26.79168611
Si       8.99922756      25.30349849      30.99450476
Si      10.44023900      23.61822407      30.49990289
Si      14.51235418      25.60715062      30.77165630
Si      11.78771492      24.16214549      28.52054389
Si      15.83496328      23.91482362      30.21578857
Si      13.09103742      22.15123361      28.11104519
Si      11.82159317      23.21344070      32.31738568
Si      14.59519120      21.89992337      29.95871853
Si      13.44308190      21.44262783      31.91103358
Si      11.87363050      20.36735499      27.72659585
Si       3.44613737      29.56277447       9.28179801
Si       1.66036954      33.62643894       8.55222125
Si       3.31244234      34.63448072       7.02588902
Si       2.44251250      30.09593248       7.08291484
Si       3.97853422      30.99518672       5.64856355
Si       5.68118978      29.44273440       5.18935133
Si       3.97886982      25.69362150       7.25454462
Si       6.52458415      27.56435113       4.09069901
Si       3.08518641      26.61686084       5.29662868
Si       7.22644503      25.34888134      10.33143633
Si       7.11258162      23.83783345       8.59059740
Si       9.09677394      22.85966966       8.06363461
Si       6.09934966      24.94874812       6.80886759
Si      35.07447648      22.91559782      30.82653979
Si      34.94047290      24.88073966      29.56496229
Si      32.25525894      23.36948912      27.28191710
Si      31.71936362      22.99177912      25.04039112
Si      34.31004465      24.55780259      27.47852851
Si      34.28010441      26.42235583      26.12321869
Si      13.80515714       6.75441618      37.32005191
Si      17.12001073       3.93276674      38.22346479
Si      17.09984320       6.07303152      38.90741028
Si      15.83504609       7.47001798      37.41558857
Si      15.91999292       9.69671191      38.22550881
Si      14.97689383       9.82180466       0.41270133
Si       9.36727804      20.43506305       6.65160644
Si       9.80436855      21.83754829       4.76513525
Si      11.63369142      23.15355234       5.12245577
Si      12.02461701      24.65949178       3.31341567
Si       7.81413170      23.41470206       4.41760600
Si       8.15608649      24.62868053       2.67853065
Si      10.08839928      38.67122254      15.51635264
Si      11.63900379      36.88575554      15.61018926
Si       8.74218370      34.53649833      15.78938103
Si      10.84587550      35.27875829      16.82255154
Si      12.65415202      32.76660909      14.90971429
Si      12.31408826      33.44355081      16.94844261
Si      14.34259605      34.20592060      17.99452016
Si       5.87444251       2.07785670      24.47900800
Si      22.69722194       2.39997036      11.85605077
Si      16.26344967      27.55130616       1.80948734
Si       8.68917795      19.99695464      24.68901003
Si      35.02366828      39.95889795      34.58679463
Si      13.09129772      28.20213227       7.85635233
Si       4.61158718      22.84753313      12.29449810
Si      33.11706430      18.06239158      12.63342192
Si      10.78102904      15.33482679       2.71416645
Si      20.66995707       9.77234707      33.74941038
Si      38.87966924      30.59800126      25.64372036
Si       5.11799765       5.17233262      38.06543393
Si      15.60830117      11.58853630      33.98037080
Si      35.86159433      14.55110273      31.41825772
Si       5.69305577      20.92314917      18.47079879
Si      28.10584146      37.29579539      19.47241857
Si      29.94279910      30.37662272      17.15961262
Si      25.60236743       9.86434079      38.53528199
Si      18.99706130       8.92622643      38.10813899
Si      39.54658952      13.96298204      38.48609110
Si      26.59365241      36.82928676      24.68310592
Si      22.83540986      36.86188294      29.98281636
Si      20.88664251      20.32344135      10.58213801
Si      11.26709162      30.82845361      26.79818918
Si       7.65942175      14.33828132      12.18132129
Si      32.76686801       1.08999990      39.34518024
Si      24.74461153      34.69957149      29.39561067
Si      39.29226878      20.10033511      30.95141398
Si      21.02846536      39.05814408      25.46398429
Si       4.32549993      26.54942518      23.41448919
Si      28.25775493      24.01652966      24.30650615
Si      12.72812565      29.11955539      29.90309342
Si      31.14425601      36.67723806      11.56813994
Si       9.87893615       4.60136815      21.63473928
Si      18.30059791      20.50952946      16.72323511
Si      22.84508312       3.13337967       6.45378310
Si      25.26520597      24.55901265       4.06689096
Si      28.51314385      30.87197010       1.90685026
Si      20.85927178      10.19097623      18.80608903
Si      37.58614356      28.41814197      15.72087959
Si      15.85803628       4.86344601      25.68804200
Si       9.15971633      26.96468284      27.21569827
Si      21.30561013      13.65743394      38.68897698
Si      28.22394554      32.25624618      29.49368305
Si       2.07756553      13.54358574      20.40674057
Si       2.73200988      20.94775232      31.47889124
Si      14.75531835      36.61204700       7.75984289
Si       8.07769983      38.56691748       7.00784160
Si      21.78261637      14.95496223       8.03399743
Si       1.45080409      34.32562484      21.76972766
Si      11.33652493      17.86828354      15.41937681
Si      27.46923905      32.18536767      36.76313938
Si      22.31625093       3.54797503      24.80379050
Si      30.18964775       9.04527674      23.21092001
Si       7.09881721       3.08657258      12.17476518
Si      30.07138260       7.04250183      18.85016278
Si      23.44302502       6.98098897      18.40736267
Si      38.03578699      11.54415211      12.35211858
Si      39.31529262      26.47778841      15.08922041
Si       4.35475522      26.25729161      38.05356140
Si      30.84444455       6.75412517      14.89037121
Si       3.11366504      12.69733791      35.19076837
Si      18.85293110      27.47513752      31.64307586
Si      29.27443805      16.58336928      30.27279673
Si      33.10791048      15.80754081      26.11010709
Si      36.03032534      30.60313659      23.38931658
Si      10.43310617      19.39844659       8.04663559
Si      32.02879198      27.82702172      39.70506743
Si       4.20627415      23.30963146       3.70297057
Si      33.65041000      35.25177329      10.75010482
Si      31.25653433       4.45820003      29.33445506
Si      36.35146480       2.84158117       8.93271830
Si      16.63287711       1.90826632      11.09507549
Si      20.64584580       7.76827730      39.36797821
Si      36.21115953      31.07293126      29.28357763
Si       4.49384560      31.48951611      39.57851336
Si      39.59735462      16.83577119      36.66896016
Si      11.33702255      35.07438200      32.44218028
Si       3.59774785      28.81134494      39.52222336
Si       8.62726031      10.02996414      35.07558851
Si       9.89609487      33.10575060      18.73955185
Si      24.17805824      20.58469031      23.29460904
Si      14.97112190      18.84885265      37.59780399
Si      16.70715546      25.18779267      38.02277282
Si      33.70351465      25.73219501      39.41770065
Si      14.54427205      38.15095325       3.14867533
Si      33.97504941      10.86211276      28.69787991
Si      23.34043462      23.55165342       6.74849735
Si      25.33353244      22.78894990      18.32760329
Si       3.57387021       8.87471815      27.02704394
Si      24.47462320      36.61732019      28.70663804
Si      35.11509867      24.82571909      34.76559343
Si       1.79079226      11.62203855      26.36782014
Si      15.71015863       8.09097339      30.29309038
Si      38.41723589      34.18230532      26.03503757
Si       7.46228525      27.99092817      18.91758157
Si      16.64393438       1.64384912      29.54241562
Si       1.34035146      27.75451417      12.55073873
Si      10.13501070      16.44396190      12.63949175
Si      24.79550836      16.82165455      13.21225218
Si      39.90068146      11.33191440      17.51128945
Si      16.56542350      19.84009560      13.20338362
Si      27.37703211       8.24555655      24.38037662
Si       8.43781246      19.31005425       0.22907097
Si      21.84661200      38.64785683       3.39065894
Si      24.61509243      29.23506045       0.20352146
Si      13.98313471      22.25408875      34.58745026
Si      17.10060835      37.25810620      12.33153499
Si      32.69018064      23.85547816      20.06821241
Si       5.92613251       4.82527136      16.16521735
Si       8.28153649      26.80065883       4.27420165
Si      13.39658993      24.21617649      37.86759921
Si      17.48986559      32.53984263       2.37461150
Si      14.26802325      24.98981696       3.74230316
Si       1.71073265      20.47216998      32.82395255
Si      24.71528019      15.63449514      21.49674703
Si      14.00822780      29.18879238       3.90038739
Si       0.89684460      14.02694302      34.42194237
Si      14.06006972      38.53621872       5.26160764
Si      36.88940860      39.73748057      11.47292775
Si      24.01998230       7.73650551       4.92669551
Si      15.21743479       7.19160278      32.23339259
Si      11.34548553       9.26544822      39.14153258
Si      34.46818785       3.43783463      27.87181669
Si      36.27151162      21.69329107      20.91589598
Si       4.09717969      27.03737205      12.37335643
Si      16.87412253      17.25501243       2.81440748
Si      14.10417527       9.47279097      35.31351749
Si      14.13345363      21.98550969       2.81701157
Si      25.85146786       7.31170264      17.67536155
Si      16.72982357      39.51881673       3.44421805
Si      16.60295424      13.50868441      16.07071188
Si       2.11922567      28.21999444      32.47408047
Si       6.04232164       1.65399191       1.72712695
Si      33.12951663      38.10276830      19.97901500
Si       8.21455735      33.66440372      26.65286720
Si      32.48336534      32.70429404      14.03650319
Si      32.68668816      30.39930114      15.18458297
Si      14.42500791       0.15455221      35.44563162
Si      27.65394634      17.11204488      17.83592283
Si      24.00040841      25.90510614      14.19413298
Si       8.01027857      30.61904016      36.14163170
Si      33.12034453      16.53012536      23.86060760
Si      33.04150014      25.51671427      17.51056736
Si      12.59982571      16.79415531      11.68611330
Si      19.78905369      18.47126947      24.80095185
Si      18.50636907      14.78517538      24.70994950
Si      24.99763182      35.17132500      14.01961475
Si      20.27396208      30.04309791      10.37016349
Si       8.63601987      37.85494171      17.24342246
Si      25.75200524      11.17764368       9.44852788
Si      25.10731968      14.30428161      35.94487656
Si      35.09513694      16.81750445      24.36216485
Si      36.76221148      38.39806099       7.37395581
Si      12.14004824      21.31417151       0.52474540
Si      12.73973260       8.22583775      26.81788335
Si      12.07785522      25.63589330      30.86655733
Si      17.43803427      38.08340784      19.92163168
Si      34.24901763      35.38059401       8.55783735
Si      17.35686736      22.44584019      30.97791023
Si      32.64468244      19.39666637      32.36727962
Si      20.82863182      13.29535759      29.88344988
Si       1.98373733      27.80309852      30.20868045
Si      22.46405175      11.42471382      24.64082900
Si      14.31584960      14.13223773       2.36521535
Si       6.80088505      27.64557626      10.03895348
Si      24.41523337      34.13195193       0.20063133
Si      15.18598845      10.91960007      10.50198618
Si       6.80484157      38.72815899      14.45977701
Si      29.21202602      19.05618827      37.74022188
Si      14.71574061      13.79293127       5.75529472
Si      34.55192670      31.34493018      28.35902243
Si      13.64818530      18.51811383       0.44719123
Si       5.98135197      34.12935425       1.41504949
Si       6.05753426      26.47408932      23.35785205
Si      24.81586950      19.72087954      17.34855437
Si       9.13074470      14.13258727       6.53259166
Si      16.10446666      35.49821481      17.46318806
Si      23.68266470      24.98215878      35.95239319
Si       2.34689244       0.96392280      32.30507745
Si      31.72709705       4.72113867      35.66308243
Si      22.72366137       9.50535016      15.04529546
Si      28.54819028      35.31327027      31.54642148
Si      21.80758901      27.81615102      28.18836163
Si       3.22774435      24.35588140      39.88283753
3068
Lattice="40.0 0.0 0.0 0.0 40.0 0.0 0.0 0.0 40.0" Properties=species:S:1:pos:R:3 relative_density=0.96 cell_dim_angstroms="_JSON [40.0, 40.0, 40.0]" n_grains=239 grain_size=8.0 crystalline_fraction=1.0 grain_radius=8.440649961279794 pbc="T T T"
Si       7.58144455       9.07884502       5.25252746
Si       9.44760424       6.47716281       3.23967193
Si      11.47995335       3.85280471       1.16628248
Si       7.44072587       4.43413731       0.99721515
Si       7.42295403       6.91104536       4.35460184
Si      11.37517834       1.78787310      40.04520491
Si       9.58924371       1.42513420      38.56221486
Si      10.92591089       0.03768803       1.55027808
Si       7.32006246       2.46399863      39.71983692
Si       9.44343575       4.35532664       2.22638941
Si      10.72312947       2.88555076       5.06452710
Si       8.68407193       2.88048650       3.89274025
Si       9.16575756       0.79852380       2.91135968
Si      12.23399541      27.77675008      20.51823639
Si      11.38612760      26.05245182      21.87410178
Si      11.64473040      26.60519410      24.14525002
Si       7.98898797      27.90049505      23.88026380
Si      11.24794052      31.24159910      19.48411250
Si      14.81216004      29.93536804      17.45447465
Si      14.40221218      28.52405907      21.03862083
Si      14.72461659      30.52022112      19.83786983
Si      14.44922261      29.10423751      23.31713460
Si      13.26066775      32.35555355      19.97241589
Si      10.57622667      29.41905992      20.80984145
Si      10.21989844      28.46301969      24.36719079
Si      10.71663507      30.30015178      22.98567947
Si       9.79621819      28.97314661      26.62345725
Si      12.91358296      30.86117312      23.60946107
Si       6.92146078       1.31821499      19.61172611
Si       6.97603632       2.53098850      21.62694458
Si       4.82461157       3.46800721      21.78631123
Si       6.41787908      39.61970031      23.61403187
Si       4.16328992       0.23839575      23.86774633
Si       4.01823918       1.49169822      25.85231095
Si       5.67455676      39.38838693      20.11307135
Si       3.48289091       0.23975152      20.15492360
Si       2.76972888      38.34861976      23.99869160
Si       3.44328405       1.58775793      22.08150305
Si      13.41634237      19.61373949      10.52255735
Si      13.62827349      18.34194612      13.49161824
Si      11.61691322      18.20280206       9.97799776
Si       9.62126195      19.32559708      10.51354199
Si      12.01252069      21.38764145      13.10205570
Si       9.75991887      21.24289277       9.15897393
Si      11.83077163      23.17370112      11.58309591
Si      10.07870995      24.63366844      12.15664586
Si      12.00552218      16.64480979      13.59511007
Si      11.93680217      15.00543391      15.27891706
Si       9.80276403      18.64258630      13.86152425
Si       9.51857723      15.22657250      10.78871280
Si       7.72313849      16.46455153      11.66895921
Si       5.59067901      19.81578728      11.11552626
Si       7.95313592      17.19153480      13.89351341
Si       6.10992619      18.38561210      14.72316577
Si       9.68614869      19.33170757      16.33089136
Si       9.89689761      20.55637784      12.49853716
Si       7.86335198      23.37019256      11.71994131
Si       7.93243898      21.59821516      13.26552361
Si       5.96490402      20.31255859      13.38304483
Si      18.30649361       4.98501097      22.47136695
Si      18.77302134       6.99109713      21.33747150
Si      22.58116847       6.81479818      22.25536316
Si      19.54983273       6.17818972      26.27369438
Si      19.82342177       8.08504354      24.92440405
Si      20.50549609       7.83283011      22.68771401
Si      20.30722630       9.77941080      21.38312651
Si      26.26712474      20.35599196      28.40493356
Si      24.33024729      20.94150760      27.20733904
Si      24.23965187      22.13276150      25.18275583
Si      27.37774258      23.67951652      26.66797916
Si      24.00637787      25.46080963      26.98771551
Si      22.40174768      22.10533345      23.71644078
Si      22.00399348      25.41597224      25.75485433
Si      22.40840425      26.60848359      23.76867437
Si      25.35804018      24.16392674      25.56741326
Si      26.09075220      24.93080818      23.46953847
Si      23.96770222      25.34235475      22.54551609
Si      26.87046373      27.04249237      24.14946684
Si      27.18567049      28.37898706      22.24035783
Si       4.83499024      24.11579059      33.53804539
Si       3.26600513      22.70548221      34.57714030
Si       2.65503801      23.67311151      36.85003624
Si       4.15798922      20.58703737      35.07403723
Si      35.29834135       8.83906066      35.49218349
Si      35.98878698       5.27944031      35.75046811
Si      36.63574756       5.80006119      37.95065620
Si      34.89873637       5.70879011      39.53334015
Si      35.60707077       6.82036142       1.48094697
Si      33.95842181       6.70539805       3.15430787
Si      34.26779766       6.75669219      35.12895165
Si      32.66145992       6.81705533      36.84538561
Si      30.73983212       7.89469302      36.02331137
Si      33.35130031       7.40222010      39.01593849
Si      32.11300055       7.95232625       2.39869237
Si      31.36338587       7.29772767       0.26789645
Si      36.00933030      35.32171574      16.19333501
Si      36.86785986      37.66226649      19.62830476
Si      38.22766805      36.09422366      16.07999013
Si      39.47843450      34.58466422      17.37893561
Si      35.20664927      34.38817499      18.19714504
Si      33.16843746      33.23915801      17.95911536
Si      36.77916480      32.97946473      19.23348032
Si      36.15359387      34.48881084      22.78661330
Si      35.96661558      32.59345020      21.40661157
Si      37.62613968      31.09834856      22.14293315
Si      36.44238993      33.28134248      15.10712857
Si      39.94595210      32.70302251      16.04805503
Si      37.88043904      31.59064041      15.88432282
Si      36.84090734      31.03098218      17.91825529
Si      38.81856221      34.09726970      19.58290835
Si       0.36727192      32.49581244      20.64860212
Si      39.68983127      31.98346298      22.84141836
Si       0.89617169      30.68809257      19.23873767
Si      36.86761769      19.47974848      19.16772490
Si      39.94283456      21.85188760      19.40591280
Si       0.95029479      20.43043948      21.14614939
Si      38.84025327      16.54816409      19.97056320
Si      37.82884115      21.57728997      16.20355686
Si      35.59932317      17.99516120      17.85705342
Si      39.70296138      22.36955333      15.02434592
Si      38.71367387      20.39196676      18.03180434
Si       0.72937429      17.47546528      18.92099056
Si      -0.00157068      18.68818258      17.04348153
Si      38.60980184      17.10474255      15.99721728
Si       1.97331621      19.31912948      15.93352711
Si       5.03779144      21.18087233       4.06586637
Si       3.66790095      25.43548503       2.72754581
Si       4.56981988      23.74481451       1.36423409
Si       1.47810197      21.25294138       2.27436645
Si       6.15711216      22.30160283       2.32760923
Si       6.65958133      20.67525737       0.70496421
Si      15.59799689      31.42423303      25.79782994
Si      16.98241152      34.13303217      28.60920982
Si      18.39013852      33.10516254      24.57919449
Si      17.46705446      35.17151761      25.21838879
Si      15.71504330      34.78753587      26.73943357
Si      14.38373939      36.65358929      27.26490516
Si      19.71797388      35.52810894      30.99466303
Si      15.56534515      33.80329456      30.45700905
Si      14.13627569      35.59820915      30.97349662
Si      18.32162649      35.98643767      29.15874229
Si      17.18440615      37.97825649      29.67823336
Si      15.42264986      37.55627584      31.17776448
Si      18.42457487      39.90139987      30.22047774
Si      27.85865726      20.03222579      24.13198600
Si      26.51597301      17.34418444      21.77378812
Si      29.99051308      16.39383231      20.26077779
Si      28.25000789      18.89580202      22.11102950
Si      28.54521817      20.30680231      20.25320542
Si      17.34897116      14.54968944      14.18486971
Si      14.55077294      12.07675299      12.40710797
Si      14.24785137      14.52809772      15.96626056
Si      15.35949795      11.28042294      14.46646434
Si      16.34351954      15.59210254      16.03742424
Si      17.56301638      14.61125080      17.79239052
Si      21.97037854      11.55329942      13.93026061
Si      17.49160137      12.20408061      14.10578001
Si      18.63840426      11.43319951      16.00836421
Si      20.79548729      14.69823920      15.87763877
Si      19.72344853      15.54007927      17.79400367
Si      20.85224234      12.21731614      15.88965136
Si      14.07869101      12.19595144      16.21284048
Si      15.28033853      11.33787708      18.04299954
Si      13.17099187      15.20864805      17.94270626
Si      16.73251929      15.39843623      19.84687580
Si      14.48002073      14.72257774      19.83487371
Si      14.43467739      12.37566286      19.97629315
Si      18.69686834       9.08244100      16.03081302
Si      17.64554221      12.26792488      17.96977823
Si      20.93397498      12.44494263      19.71787657
Si      18.81135949      11.43971655      19.83673653
Si      29.92764148       9.78665102      37.15936250
Si      30.65866763      11.03764438      39.01159019
Si      32.25246623      11.43434585      34.88906397
Si      32.97460848      12.77198869      36.68324545
Si      29.28318637      12.91907981      39.32545590
Si      31.64178627      14.66850458      37.07925528
Si      30.35019298      14.00125704       1.12011976
Si      34.18233978       9.43313615      38.17041990
Si      30.85978760       9.53093130       0.80592738
Si      35.87481706      10.29911456      33.74130028
Si      35.10768736      13.50459679      36.01768636
Si      32.94442681      11.38911713      38.58502474
Si      32.52895602      14.68058869       0.55271842
Si      33.79277083      12.70917056       0.33660991
Si      18.79776476       7.56262459      36.14341085
Si      17.74461009      10.72843383      37.77804154
Si      21.04208399       8.24532088      36.30887035
Si      19.79416966      11.86544224      37.97212653
Si      17.54985847       9.52045586      35.76970678
Si      18.30449584      10.87939214      34.00500193
Si      19.58017295      14.63609327      36.08574977
Si       8.63968046      21.98283210      30.39730759
Si       9.21601064      23.09802843      32.38593338
Si       9.84835748      18.60793617      32.41243007
Si      10.25537734      19.81414699      34.38910792
Si       7.63845321      23.15204313      34.12915803
Si      14.94425591      20.59012957      32.97459483
Si      11.26154954      21.81292555      33.66646536
Si       8.91563959      11.72803096       5.22560048
Si      12.83442989      11.45134211       4.25713973
Si      12.92369252      15.21676473       4.33677459
Si      12.84713351      17.46906970       3.15676048
Si      13.44661104      19.23846171       4.58584897
Si      11.16467773      11.62184989       5.90440445
Si      11.38931883      13.52620215       7.26587662
Si       9.80105535      13.36101148       8.99258164
Si      13.40932169      12.90586960       8.29785398
Si      13.68128168      14.89784043       9.51686757
Si      11.24670814      15.47970214       5.96431729
Si      11.69740149      19.27867952       6.15774446
Si      11.75579650      17.27786979       7.39158413
Si       9.91429289      17.05298646       8.83594898
Si      13.83922940      16.98253375       8.44086351
Si      12.26225955      14.74831490      11.38583854
Si      15.41578392      16.15779086      25.18612923
Si      17.11993871      16.41454273      23.58601839
Si      17.60385169      14.39754659      22.47792617
Si      19.23305048      14.61217857      20.79567996
Si      16.37930419      12.45512588      25.66206888
Si      17.28237194       8.83300409      25.99805557
Si      13.41442779      15.57827313      24.09563552
Si      15.55257585      13.63122123      21.62060677
Si      13.71081454      13.48040856      23.07507060
Si      14.67594314      11.67895403      24.23860330
Si      18.16054869      12.63504038      24.13718878
Si      18.41935886      10.64096423      22.91770511
Si      16.45470766       9.99703063      21.79701237
Si       5.03421813      32.39577918      32.23938639
Si       5.51189399      35.73325869      33.63043838
Si       8.15768877      33.20052260      34.20795789
Si       7.32193548      31.89087190      32.44258677
Si       7.83968678      35.50656945      33.87436866
Si       8.97569456      36.19819890      31.93490378
Si       0.98561064      34.56921631      33.49660965
Si       2.27368044      35.19552095      31.63233428
Si       4.19478412      31.28950807      30.34160028
Si       5.26577687      31.94314790      28.35264997
Si       4.55577630      34.65078263      31.77602783
Si       8.15808472      34.97599365      30.09953986
Si       5.85326769      35.42620812      29.97439277
Si       9.07371483      35.94066235      28.16015641
Si       5.09046762      34.27152630      28.07299526
Si       7.56873030      31.52159812      28.57255062
Si      14.68213297       1.95078527      33.60960001
Si      15.50733584       2.32024375      37.87465452
Si      16.21859531       0.38107715      36.74998641
Si      12.31436496      39.86519432      36.17903606
Si      14.53162475      38.76815600      37.03978323
Si      18.09674922       2.64503013      34.37891862
Si      19.31875803       3.17319554      38.57340652
Si      19.79096047       1.11223089      37.54394829
Si      16.57504538       0.85490835      34.47407725
Si      15.46487343      37.32106336      33.51726974
Si      17.15883563      38.93093618      33.25433232
Si       6.74334240       9.85591966      26.87718556
Si       7.23773227       7.81005070      22.81576350
Si       8.29676815       9.79854215      23.48830580
Si       6.93346355      11.59949080      22.84219014
Si       8.21637893       5.83826759      26.17563729
Si       9.80561382       7.55015586      26.42259923
Si       8.80048259       9.57718222      25.77352023
Si       8.99313629      13.49422348      25.09098041
Si       9.95606091      11.60280206      26.09345690
Si      33.59254587      32.29715810       4.62793020
Si      34.81957371      31.91717486       6.59695871
Si      24.06118202      28.82021806      23.06204549
Si      22.98052363      25.75109710      20.45055743
Si      22.76837478      29.94478679      19.71754299
Si      21.84860135      28.89083314      23.85560314
Si      20.51503201      30.43527750      22.68711831
Si      23.63239564      32.49182760      22.18129756
Si      23.86185943      32.01961476      19.88898179
Si      21.42223197      32.58499471      22.97925347
Si      20.26405691      34.15752896      21.66931895
Si      20.91075854      26.13675873      21.49805002
Si      19.73129261      27.76915515      20.28476710
Si      19.79030999      27.36035430      17.97012381
Si      18.70428537      28.75221671      16.41669558
Si      18.32053896      30.58535672      23.51852944
Si      17.28435336      28.53825540      23.00237772
Si      16.99729690      31.96374573      22.14773453
Si      17.46021001      27.57837380      20.86286262
Si      16.59015607      29.16888661      19.36573938
Si      20.51249211      29.98474412      20.37936804
Si      20.29867486      33.55692798      19.39593257
Si      19.33958091      31.45324861      18.96641583
Si      19.55368806      30.92872101      16.68416468
Si      17.17110998      31.39013411      19.87383117
Si      18.04887532      34.04522659      22.45075489
Si      16.51432471      28.33825610      17.16717353
Si       2.31601573      36.57124007      16.00947462
Si       6.02677918      37.02230289      16.94694080
Si       4.97540476      38.88443223      17.92512412
Si       4.70832304      33.80533524      16.01018086
Si       3.05088803      32.20208679      16.47187747
Si       6.24281784      33.08450903      17.63996609
Si       4.10640147      35.70276360      17.26221390
Si      14.84755268       7.25763043      34.65077235
Si      13.34269896       8.36244194      31.59809279
Si      17.13871145       8.05675485      32.31969624
Si      17.90897988       9.33522678      30.50328211
Si      15.16504772       9.03433492      33.14266036
Si       0.15527566      20.88492604       7.79267995
Si       0.62871395      23.06524118       8.53595523
Si       2.01210308      23.86476286       6.81046437
Si       2.05579696      19.59505234       8.29734287
Si       3.67425615      20.30332279       6.74513090
Si      39.18856339      20.40408436       5.70349867
Si       0.99563043      21.39597425       4.57159621
Si       1.44626525      23.70379012       4.53356237
Si       2.87955353      19.98841068       4.55430111
Si       3.11808115      21.94594604      10.78753106
Si       4.79844296      22.71813138       9.33597726
Si       6.30759798      19.76359921       8.87660310
Si       6.91010102      21.81899765       9.84763302
Si       3.96924777      22.60298233       7.13856548
Si      38.05591726      14.17204506      28.59909664
Si      34.86911294      15.77255860      29.51350196
Si      37.73308705      18.63046756      28.04710237
Si      38.04031568      17.77125670      30.21460352
Si       1.40969800      16.00708553      29.10187479
Si       0.20437087      17.07433764      30.81632761
Si      33.97639931      16.02406280      33.49985386
Si      37.26841438      15.55283498      30.33233550
Si      36.58307013      12.43080690      32.40828948
Si      37.52956273      14.58317318      32.45896732
Si      39.86554072      14.40269231      32.66586125
Si      36.29316330      15.97075179      33.90021871
Si      14.00575092      19.06385222       7.35789542
Si      15.77085572      15.95310386       9.30307095
Si      14.97587638      17.11326923       4.08872494
Si      15.02001121      14.48282771       7.62785421
Si      16.59304455      14.12379223       5.91733355
Si      17.99635094      11.69521241       8.31700297
Si      15.94241923      12.59789056       4.25139664
Si      15.91457245      15.40303839       0.65683319
Si      17.30084088      12.54885816       2.33237349
Si      15.94753026      17.96413273       8.09937274
Si      17.74699685      17.79544474       6.59832132
Si      15.43876725      19.09790471       2.91995728
Si      18.29849450      19.82914950       5.55767407
Si      17.52159862      14.81314507      10.38218474
Si      18.58699043      13.57314750       7.03192174
Si      19.36235939      14.73540434       8.92176850
Si      20.29461732      13.16941277       5.46710701
Si      19.55657688      16.61273498       7.52033249
Si      21.34389387      13.84506616       9.82050201
Si      16.96226767      16.25730227       5.00478537
Si      17.89275279      14.74424002       1.73841557
Si      18.75223415      16.03792222       3.49972658
Si      19.57024080      14.29335369       0.16026075
Si      19.03670387      18.22404677       2.68918834
Si      20.75419821      15.22972067       4.43053142
Si      25.31701888      27.47173423      33.20726854
Si      23.78768596      27.36138418      34.99041603
Si      24.38462003      26.21286267      31.45299354
Si      26.07179496      23.21544018      32.74543737
Si      23.93187857      24.03928317      32.22414011
Si      35.37372741      17.61765932      21.53240506
Si      36.10110301      18.19164472      26.19124175
Si      37.43962109      20.11552903      25.99755815
Si      37.36995956      17.08205953      22.65427585
Si      38.73897825      18.98987405      22.52585016
Si      39.54916690      19.55149990      26.87065271
Si       0.48465866      17.75008658      25.68313424
Si       0.82667220      18.44994781      23.46419498
Si      37.53862576      20.63250072      23.70545574
Si      39.20141960      22.29390848      23.63149878
Si       1.32582356      22.21387874      24.63691144
Si      20.81766593      37.02144317      24.22334381
Si      22.54922543      37.38735237      22.67501505
Si      25.24336209      31.61204256      24.66211231
Si      24.64768948      35.11851545      25.32338721
Si      22.59912267      35.58199278      21.16918966
Si      25.14801475      33.67434508      23.53594089
Si      24.57195090      36.22598794      20.06314991
Si      26.99292674      34.02670880      22.12080569
Si      24.54518011      39.17464545      25.74438976
Si      22.74183254      39.45020500      21.56253895
Si      26.58454420      35.04308375      26.65711827
Si      26.85989304      37.03977162      28.37669085
Si      28.50610492      35.79752973      25.52729576
Si      26.61858700      38.73198020      26.76181672
Si      28.59090272      39.64838383      25.86659270
Si      24.49131506      37.62115614      23.97887609
Si      26.69673596      36.10667550      21.06400129
Si      26.55438966      37.63550906      22.84487057
Si      26.56705097      39.83597427      22.02374702
Si      28.32721256      37.84472532      24.38048283
Si      28.60633146      34.17782394      23.82496302
Si      25.59649969      20.19882743      13.59534199
Si      27.01194010      17.60277626      15.81884022
Si      26.00849964      18.77639291      11.76847107
Si      26.97195978      21.21499942      17.12376316
Si      25.91669245      22.42595177      12.91133023
Si      27.99925872      22.76739522      11.87364264
Si      29.17326318      24.05729017      15.65080656
Si      27.26219447      19.86346554      15.22122543
Si      29.89350221      18.69803320      12.55878911
Si      29.41907827      20.16560879      14.33406584
Si      28.36451088      21.26603520      10.10080150
Si      34.29978789      30.97762430      21.78617968
Si      36.76816820      30.81744866      25.70225782
Si      35.20095189      29.61009874      26.97412388
Si      35.07871833      28.82132908      22.31690739
Si      33.55425819      28.22894012      24.00660923
Si      34.18281248      32.37895641      23.67221762
Si      32.38096454      31.65014314      24.99657956
Si      32.48981819      30.84097483      20.29229216
Si      31.70091625      27.77414403      22.63237389
Si      30.97792593      29.85025498      21.79676500
Si      29.86766246      27.00830365      23.89060720
Si      30.47870590      31.09356626      23.73018767
Si      28.70162099      30.17946118      24.97214685
Si      33.12465238      29.59719710      25.86995679
Si      31.55196452      28.47319339      27.20910133
Si      30.88037465      29.96535794      29.07275266
Si      29.62112133      28.21999174      25.89089398
Si      28.27821221      31.75237427      26.92417773
Si      21.50634115       3.79173629      19.64264365
Si      21.07015047       5.18287715      23.01821138
Si      19.66007931       2.39996611      20.07213447
Si      19.59160760       3.52676548      23.79336190
Si      20.25675512       0.32952205      21.01417137
Si      23.09852883       2.72399041      18.28064962
Si      23.65292518       0.60120425      19.12684848
Si      22.67641594       4.14149954      21.65229389
Si      21.44702960       0.80149115      22.98661559
Si      23.34125471       2.17625923      22.75925734
Si      24.59587148       0.86602179      21.26397347
Si      21.70435714      39.32699729      19.45556434
Si       3.04608087      28.37246174      11.23203433
Si       1.04673520      25.09703626      11.33510422
Si       4.11036031      24.82764265      13.79351699
Si       2.69667306      23.71344852      12.28011997
Si       1.96775267      26.74006565       9.92713838
Si      39.06507714      28.40602686      36.79847178
Si      38.32048616      30.44961324      35.90435870
Si      36.23874912      30.75599925      36.95448299
Si      36.62511144      31.30082218      39.20932563
Si      34.06246244      33.98161041      39.18985570
Si      34.24019006      35.02675711       3.84720147
Si      35.81831385      31.55215799       4.49886377
Si      32.12201252      34.02256765       4.01192547
Si      37.63928826      34.61285068       2.63902994
Si      33.53963744      36.56495441       2.21233282
Si      32.95008050      35.86890682       0.04485916
Si      37.69907020      36.29888126       1.00084403
Si      35.67953053      33.36684507       3.00926113
Si      34.91300395      32.62608373       0.91307622
Si      30.95775784      34.71559914       0.52532648
Si      37.11676438      24.90960120      33.00753682
Si      37.13912409      22.75902676      33.95863541
Si       0.92348284      22.94417611      33.00814150
Si      37.45008725      22.80681988      36.28919078
Si       1.04960603      22.82827516      35.35359568
Si      38.65587325      22.47320517      30.33905364
Si      35.21255610      22.15023310      32.75527782
Si      36.67272972      21.31311164      29.83420413
Si       0.34729955      18.97872813      29.44421113
Si      38.85853732      21.89211021      32.60834891
Si      38.91915529      19.62079279      33.21247097
Si      36.87133337      18.71327508      32.49528497
Si       0.81473733      19.04743587      31.94185279
Si      37.10657595      12.96067946       7.21912789
Si      37.84070307      16.78507906       6.80526813
Si       0.09909830      14.15749723       5.39227474
Si      36.15150125      15.17235597       6.52925532
Si      35.03027031      14.86785887       4.48460016
Si      38.79954168      12.23220716       5.75849119
Si      38.00263960      12.52702320       3.56570070
Si      39.52452029      16.42997252       5.20243084
Si      38.47201257      16.11980143       3.12241182
Si      37.20572712      18.95870740       6.17072137
Si      34.08427390      16.97570834       4.04579712
Si      35.62588750      18.70567989       4.44718807
Si      37.53543048      18.21723426       2.61831815
Si       0.18817072      15.79999250       1.54665370
Si      36.80370800      14.46738650       2.99295184
Si      35.76454837      14.32157849       0.88834877
Si      13.77625964       4.38056491      26.44835361
Si      14.26752182       5.77973735      24.14828206
Si      16.57336257       7.10917387      24.56414062
Si      15.06534328       1.91257960      28.35412693
Si      13.76979593       5.81410178      28.31375703
Si      15.94498898       6.56077002      28.80782913
Si      15.64014243       2.95132056      26.32400159
Si      17.98989061       5.24398182      24.78523533
Si      17.64697308       4.08123824      26.80072360
Si      19.66289318       2.98380131      27.31266837
Si      30.53251922      22.21103742      29.67988766
Si      28.94939430      22.50969822      27.96725546
Si      32.50016297      24.07369920      31.83294153
Si      33.61205563      26.12409256      32.13300739
Si      31.30807288      24.42559301      29.83656094
Si      29.60665060      26.04297046      29.97689013
Si      28.30767763      25.55649773      31.87591933
Si      31.26186240      27.84062987      30.65193048
Si      24.83984374      23.29804918       1.92102250
Si      25.21082473      23.23998174      38.08223893
Si      23.88766421      22.55790205      39.90269239
Si      25.31784431      25.58922152      38.06735146
Si      22.88075815      26.47577781      37.86825646
Si      28.12358460      25.51710796       4.26071821
Si      26.08228901      26.63833783       3.93455723
Si      23.71128666      22.73431650       3.90590537
Si      24.44420438      25.50506089       5.77948173
Si      22.33049383      26.43704498       5.36198968
Si      24.95569282      25.64390984       1.79743726
Si      21.72129808      25.70940861      39.76511303
Si      22.75289196      26.46554049       1.73856367
Si      21.25432776      25.72955432       3.39539252
Si      22.87914189      28.81327848       1.70301350
Si       2.97760079      33.93812480      38.29740749
Si       2.32671681      33.00544640      34.62889175
Si       1.93020577      29.38407430      37.03012497
Si       3.92371084      30.62150852      36.87254800
Si       5.32886340      29.78194360      38.56094928
Si       4.56803266      29.40505708      34.96604745
Si       6.65397052      30.34271939      34.41982296
Si       3.88974825      32.92129401      36.38332361
Si       6.06027200      33.69174058      35.90938841
Si       7.33994096      32.85815553      37.94520225
Si      16.61874188      12.67264731      37.08475968
Si      18.81624126      15.91237097      38.63085167
Si      15.78866556      13.72244845      39.01761353
Si      17.46897980      13.95399753      35.30615629
Si      14.75235610      11.59861289      36.14196029
Si      13.32633770      13.32447452      35.42752271
Si      15.46772936      16.65404773      36.90992938
Si      23.34852331      22.95854223      18.78844765
Si      21.75256270      22.60450227      15.51933227
Si      19.56694469      22.92650385      19.05639769
Si      21.50774305      24.05234817      19.76086687
Si      20.21214628      23.68849360      16.92726895
Si      20.05486268      25.90075572      16.14561306
Si      25.48342623      22.56543492      15.52663905
Si      21.50233686      23.38674591      13.31572719
Si      23.40607457      22.43297945      12.31745005
Si      21.74206788      25.72194312      13.17493845
Si      25.61078503      25.32469999      12.85032549
Si      23.62654390      23.59201923      16.54081737
Si      19.71028491      26.85237299      14.02297722
Si      38.86251392      38.75811751      21.43553128
Si      39.13850992      37.08322152      19.80801320
Si      39.62130132      34.56924219      22.97832244
Si       2.53917852      36.86759354      21.59688708
Si       0.72442863      35.63068939      20.75646717
Si      21.76323767      34.62452660      29.26600361
Si      22.17879537      36.87435176      26.13544034
Si      23.11557711      33.02738266      25.93088421
Si      19.97000557      34.83131553      24.34533127
Si      21.16823694      36.65926962      28.24801378
Si       5.08263847       2.75651443       7.61975988
Si       5.83127236       2.85865071       9.84683271
Si       6.30680370       6.20086100       6.56234585
Si       7.40119858       6.23112742       8.64372449
Si       8.63305474       2.52883627       6.34483717
Si       9.36151088       3.10973014       8.50410456
Si       6.49199627       0.82742295      10.83087136
Si       7.13684425       1.62429837      13.56455876
Si       9.90926640       1.15985253       9.69902932
Si      10.78747000       1.41181105      11.86570794
Si       9.26261826       7.65475933       8.44634255
Si      10.10463567       7.90697753      10.62747500
Si       7.75001129       4.21861464       9.80972077
Si       8.68200502       4.69631849      11.91579414
Si       9.16764599       2.67290686      13.01155495
Si      10.63521716       6.00447430      11.90373624
Si       9.65450368       2.98465570      15.29077761
Si      11.08331375       6.20881935      14.63072301
Si       5.48832077      36.16428383      39.71405348
Si       5.03506386      31.30430724       2.03648989
Si       2.15270348      37.28913987       0.74988485
Si       3.58783042      35.43162853       0.88953460
Si       4.52424893      35.07397203       3.01681636
Si       2.81640851      34.17815283       4.36256745
Si       7.73875966      34.21146725       2.11683313
Si       7.11918681      29.85688041       1.98972470
Si       6.10047373      38.09002437       0.91599113
Si       5.22723573      36.99078745       4.18380700
Si       7.14034670      37.63026700       2.97421932
Si       5.80177030      36.34016893       6.36951380
Si       8.94010175      36.13292049       2.74436855
Si       9.54199246      35.67140714       4.97059232
Si       5.90503583      33.17624576       3.16275915
Si       6.61830295      32.86322537       5.38176511
Si       8.39015684      31.31905781       5.29965069
Si       7.56892698      34.78874641       6.34061659
Si       2.29336347       8.30293405       2.36086484
Si       5.90148877       9.01384394       3.60819040
Si       3.62446759       7.28143814       0.71231974
Si       3.87157102       8.19685385      38.56005584
Si       7.34197497       9.44708264      -0.03121366
Si       5.19997274       6.95291329      37.07044493
Si       5.16591120       8.57786084      35.37206579
Si       3.88235925       9.96209326       2.86363409
Si       4.14825826      11.42143575       1.03857150
Si       6.93289366      11.05515517       4.15506157
Si       5.41135828      13.33747798       1.55530841
Si       5.77316588      14.38667239      39.25332125
Si       5.11398388       9.98721807      39.44423405
Si       6.76132729      10.14389420      36.09964924
Si       5.74503155      11.48442503      37.74376476
Si       7.21239739      13.32269773      37.73322112
Si      24.91832286       3.53371315      39.54813453
Si      26.93468496       4.74302444      39.51776665
Si      28.98697684       3.62782405      39.24757275
Si      25.01381944       2.31983204       1.55993424
Si      26.97476115       0.89014272       1.18406911
Si      24.57280068       2.59822948      37.41821309
Si      26.46372953       1.20266667      37.33289200
Si      26.74656879      39.73489465      39.14842802
Si      28.56044028      38.29883834      38.72607562
Si      28.92986721       2.19493647       1.11135594
Si      30.45562452      39.69079929      38.67831445
Si      30.83566130       0.89195526       0.66436938
Si      13.48344421      10.22602148      20.04133093
Si      12.63133193      13.88923618      21.02618000
Si      10.58947007       7.75411102      19.91889496
Si      12.97041442      10.93465477      17.85867990
Si      11.87794565       9.20853495      16.69371023
Si      11.44439452      12.72157521      17.96020875
Si       9.95025435       8.35742620      17.73773818
Si       8.62279964       7.12494459      21.04383656
Si       7.23189823       9.00435357      20.78968220
Si      11.62054374       9.41531481      21.22551407
Si      10.97158260      13.06574690      22.47491763
Si      10.11506562      11.22065493      21.29539900
Si       9.68547202      11.56605764      19.00939846
Si      35.18369838       1.78469412      32.55487229
Si      34.07705817      39.32338521      29.89427105
Si      33.17560543      38.92657110      33.61201653
Si      34.99692974       5.60995931      28.63071706
Si      34.68631809       1.56396652      30.26692725
Si      33.57026527       3.00509284      25.84657798
Si      32.68534142       2.68321039      29.74402488
Si      34.18861173       5.18734299      26.46298899
Si      33.31815279       1.25700029      33.88581185
Si      31.54890312       2.69369247      33.30599516
Si      35.24290785       4.12000606      32.28526240
Si      33.22077187       4.95667863      30.02683761
Si      32.38057586      38.72386566      31.40841438
Si      30.43424619      39.88978030      30.78943228
Si      32.01927910       2.39751280      27.50663229
Si      31.75769270      40.06229406      27.39722632
Si      30.11774040       3.63332473      26.88350027
Si      29.85204034      39.34848554      28.57603616
Si      27.87920343       0.54319059      28.11640046
Si      28.51992663      39.36086457      32.04906682
Si      30.84358304       2.18292605      31.11741848
Si      29.55865344       5.51609198      30.91415108
Si      28.87670060       3.30719940      30.47468466
Si      28.35704561       2.84333565      28.22782475
Si      27.07848086       2.83501431      31.92012053
Si      30.75681222       5.87781953      27.17432320
Si      10.71202329       5.87097457       0.24019249
Si       7.37504161       5.64532999      38.98261881
Si       9.89087366       6.87274905      36.41452551
Si       9.17203537       8.63447976      37.79673418
Si       8.84985351       7.25395339      39.85856170
Si       7.98414796       8.17650467       1.84070061
Si       9.34100802      10.09708128       1.85923917
Si      12.76546654      36.73675616      18.73850796
Si       7.67262314      38.45975779      21.99823490
Si      14.21173912      38.44388068      20.72639006
Si      10.54873087      37.15341704      19.40401554
Si      10.58230344       0.44322261      17.27756807
Si      10.30513890      39.49242470      19.41042190
Si       8.00056824      39.23696718      19.80291617
Si       1.19020535       9.52624806       7.41386183
Si       5.33273913       8.89052565       7.36537840
Si       3.02965021      11.03837397       4.77279312
Si       3.29394050       9.33860470       8.44743340
Si       3.81875482      10.87367473      10.15030250
Si       1.22724319      11.53845211       6.19800886
Si       1.75509707      13.13380782       7.84289933
Si       0.23589955      13.80812834       9.50630414
Si       5.06584437      10.71311363       5.90344267
Si       5.50455451      12.56532196       7.28438740
Si       7.56528407      12.25587904       8.37411307
Si       7.71569901      14.20411707       9.68123822
Si       1.91518660      15.09469431       6.55509532
Si       3.56956499      14.36820553       5.05353662
Si       3.83376664      12.87172131       8.91054384
Si       4.26574694      14.74208942      10.26879242
Si      32.18320814      20.05630216      16.97507120
Si      35.15936162      22.20488986      17.07381998
Si      34.02508877      16.93044339      15.52562446
Si      31.13315706      24.46404146      17.22772493
Si      31.90800142      23.38761998      15.28576737
Si      30.07720743      22.61499350      14.02813473
Si      30.18962011      21.32669052      12.06396298
Si      36.40821745      23.68580472      15.74051565
Si      33.38204893      21.59393616      15.66020196
Si      35.17069823      18.48401021      14.18249946
Si      34.09152922      20.51567897      13.69437594
Si      32.05293925      20.01127977      12.63579816
Si      36.83295091      24.13148381      21.55462848
Si      34.63088831      26.92186580      20.42244613
Si      35.01703062      22.77995807      22.19197009
Si      33.35739513      24.17486795      23.10271412
Si      32.85658986      25.73665180      21.41699285
Si       0.15256758       0.94473974      29.88243839
Si      36.73210662       2.68655928      28.33881730
Si      37.42134742       1.71298043      30.36505825
Si      38.17675585       4.52271837      28.07147364
Si      38.05956498       5.76146819      30.06700235
Si       3.62135738       2.47434922      29.17247895
Si       1.32496814       2.92584199      29.40156666
Si      11.41413433      35.13034665       3.36512834
Si      10.03043213      34.37840344       1.61865721
Si      10.94951387      30.67852036       2.23571032
Si       8.99244764      30.07936758       3.39402814
Si      12.38387808      33.09630320      39.34021152
Si       9.05926785      36.03788644       0.26473161
Si      10.96320038      36.58556540      38.99791232
Si       7.32664864      35.07302539      38.73491019
Si       9.68468311      33.60201234      36.59876296
Si      12.06492738      28.91327847       1.15386980
Si      13.84073381      29.08804105      39.62276232
Si      10.21468566      28.56718860      39.74546698
Si      13.05466925      31.00244580      38.50566629
Si      10.43759758      32.29493025       0.60595581
Si       8.74636369      31.45533915      39.20392704
Si       9.52917593      29.72464588      37.81747690
Si      37.02412950      22.41936552       1.11624107
Si      36.91262432      20.07949582       1.32418286
Si      35.28684561      22.00228694      37.60329571
Si      33.33560705      22.68825065      36.48415054
Si      33.88561731      21.44618506      34.56457315
Si      35.25794557      19.67220464      37.91932410
Si      35.47202843      18.63161787      35.82192964
Si      35.53949272      16.29712150      36.10389827
Si      33.72465911      19.11237715      34.32589867
Si      14.15561020       4.16930935      14.09158584
Si      15.54993295       3.58941832      12.29546742
Si      16.69274689       5.51920084      11.56675160
Si      18.40934172       3.14335865      14.94614552
Si      19.54788784       5.06045902      14.19759080
Si      19.60646190       3.13175059      10.83151475
Si      18.27317484       4.85799197       9.95066133
Si      19.39321189       6.97156107       9.10139014
Si      15.31832669       5.33005075      15.77598507
Si      16.37813939       7.26693144      14.96307043
Si      12.68373880       5.64570805      13.00170786
Si      15.61697192       7.40363405      10.65209553
Si      14.77767440       8.75927954      14.10049522
Si      20.33191624       6.01225158      16.20050220
Si      17.89604637       6.49845298      13.33791453
Si      20.58124815       7.75344994      10.97420767
Si      18.98221935       8.43439881      12.55874142
Si      21.53979676       9.81233551      10.36355683
Si      17.43201820       9.89745012      11.56483889
Si      20.22311901       9.44931555      14.27966690
Si      18.51830123      11.86841281      10.88231799
Si      20.11975640      11.31775118       9.25066919
Si      27.02300518      38.99801510      29.66886177
Si      25.01428149      39.06906361      28.44854706
Si      23.22129997       0.31355753      29.32420377
Si      21.67452699       0.29587434      27.55269660
Si      19.60810121       0.93905787      28.47311363
Si      24.39262714      38.15109325      32.50255211
Si      23.71181503      36.40080018      33.91764749
Si      24.88428620       0.23329335      33.47823373
Si      22.96375756       0.93605751      34.63920981
Si      22.68705098      38.75245397      30.99974880
Si      20.60847928      39.32158416      31.94077873
Si      21.28068595       1.29120604      33.03573380
Si       4.55602740      34.33026555      24.34171432
Si       3.96110835      36.40744014      23.41262516
Si       4.41557496      32.32069232      21.48892312
Si       1.82066684      32.64413281      24.50271101
Si       2.93144859      31.25173605      22.96799454
Si       1.27447408      30.39094106      21.53988054
Si       3.19120018      33.89410810      20.24086212
Si       1.70696131      32.84355507      18.74809799
Si      31.07066622       9.08233027       7.53533530
Si      28.71092760       9.63999692       4.33930813
Si      29.12402859      11.95507457       4.35197569
Si      31.01912829      12.51500942       3.07702436
Si      30.57116253       8.56564073       5.29620372
Si      32.54816401       9.31416342       4.26588843
Si      34.28010295       5.78346354       5.29376302
Si      33.02815774       8.45899378       8.67982200
Si      35.13562341      11.19725522       7.27914503
Si      34.78811723       8.87361771       7.17605662
Si      36.68832712       7.97674712       8.23223605
Si      34.43692942       8.10875899       4.97997292
Si      32.88116352      11.64163845       4.21741261
Si      34.64199212      12.24052472       2.77822528
Si      35.69469086      37.25286752      11.45746858
Si      38.93775243      35.52030551      11.26544700
Si      36.09751531      34.79239422      13.33844472
Si      37.86957519      33.67929459      12.26550702
Si      36.85563658      32.25531983      10.69240002
Si      37.37897727      36.47978490       9.78894145
Si       3.02232928      27.71312590      16.92409850
Si       1.69677825      25.82536881      16.46439143
Si      39.49066976      25.57272879      17.23962034
Si       2.55887976      28.18099363      19.18148003
Si       0.25121938      28.44334730      19.54681962
Si      38.86345248      29.91219786      18.34698259
Si       0.15410071      24.66733503      20.74920440
Si      -0.08135054      28.49919999      21.87290108
Si      37.71942162      28.80330941      22.64876489
Si      39.94914904      25.35708406      22.98832976
Si      39.17076931      26.35414629      19.43606707
Si      36.87508489      26.38563199      19.95640218
Si      33.32544597      28.26691517      19.00150654
Si      36.92457194      26.61813464      22.29607719
Si       1.82087711      34.58574877      17.17022006
Si       1.50350356      36.37296189      18.66539290
Si      40.06784249      38.06367491      17.88358518
Si       9.66014360      24.36682389      22.62916997
Si       8.68923163      26.04163379      21.29395550
Si      10.04192035      26.21323953      19.24169787
Si       7.54077177      23.68384360      17.68858468
Si       9.49974973      22.33887764      21.44926879
Si      10.37382377      20.65705864      22.84137322
Si      10.72915793      22.53308341      19.45395090
Si      13.28368452      24.96179537      21.01374493
Si      13.28968006      27.03864690      17.85794063
Si       7.50005043      21.69008671      16.44257197
Si      10.33491339      20.41035361      18.52169898
Si       9.80605803      24.19095241      18.06479587
Si      11.15061135      24.14229245      16.13602665
Si      38.98018496       8.80302200      18.69558313
Si       3.32140868       9.22127230      20.25276976
Si       3.86258811      11.23494296      19.16528036
Si      39.47721097      10.20280160      20.51843876
Si       0.33031994      12.18233266      19.29453524
Si       1.85721961      15.63271663      19.84944599
Si       0.63261836       8.04266118      17.20669832
Si       1.55531427       9.96697521      16.21790085
Si       5.46396575      10.27649104      17.73441890
Si       3.37376895       9.42441307      14.82806265
Si       2.03584097      11.68285786      17.75361343
Si       2.74760278      13.64234521      16.66509286
Si      32.64623344      21.76776650      22.90731875
Si      33.22567093      17.74245454      20.58338433
Si      31.31955675      19.34498605      20.16783829
Si      33.88146938      21.99094192      19.25191915
Si      31.29534538      25.30473048      23.12261564
Si      32.33856932      25.85031900      19.12707951
Si      30.63284552      18.63871698      18.03208000
Si      32.04432740      21.53118786      20.64612633
Si      30.26329326      22.88093091      19.91336766
Si      30.73468160      25.06286436      20.65529611
Si      29.39157462      22.43029606      17.77592947
Si      15.15763264      39.04263523       7.53304650
Si      17.81195355       0.65167203       4.97768152
Si      19.54805084      39.45533016       6.02055247
Si      19.75301446      37.40717104       4.88348884
Si      13.92165846       0.41266354       4.26275117
Si      13.36036290      35.46193194       6.56940011
Si      11.89299824      39.22097154       4.24851126
Si      12.54222421      37.19091917       3.24508199
Si      18.46850564       1.15426220       2.77563546
Si      16.55838016       2.10780840       1.78650948
Si      18.51576777      38.92112673       2.02331297
Si      14.75507698       0.62038008       2.06978314
Si      15.07925438      38.58518885       0.93620146
Si      15.80326056      39.48558721       5.32670690
Si      17.89554951      36.18578145       5.64906798
Si      16.19581463      37.16385322       4.35316909
Si      14.17052588      35.97218887       4.42612684
Si       7.42797546      35.58425199      36.18842245
Si       6.26835560      37.35237449      35.15882702
Si       3.26686341      36.62910804      37.46178989
Si       7.38312081      37.39992645      39.06964382
Si       6.71748470      39.61186406      35.63242218
Si       3.89304594      38.58997415      38.59891805
Si       3.29390601      34.95619925      33.73810330
Si       1.03750453      35.89999002      37.63030697
Si      39.79447484      37.76879099      36.92906425
Si       4.03892642      36.60630019      35.24073365
Si       2.97818393      38.53960005      34.42417557
Si       0.18389377      37.96768674      34.61880573
Si      17.68151461      17.92164911      28.47496258
Si      17.17442804      20.09392173      31.43766297
Si      19.49285503      19.97127371      31.81210893
Si      16.70129410      19.95377898      29.13832716
Si      20.78807142      15.81586151      27.63479403
Si      23.83659979      19.71203039      30.32006990
Si      17.26123639      17.42600335      26.21484780
Si      20.02622668      17.81142571      28.61855126
Si      19.91157919      21.47443174      28.41555883
Si      21.00285280      19.61736915      27.47172797
Si      23.19826978      19.10369524      28.13996213
Si       1.11017826       7.85879123      28.53075159
Si       1.90588827       4.18397523      27.31529037
Si       5.34253519       7.04210178      27.99429427
Si       5.10061742       5.52513947      26.21403121
Si       5.83919720       3.31859073      26.55206047
Si       2.03784829       7.35636680      24.99148112
Si      38.57619888       6.14003640      26.24725298
Si      36.30256667       5.88373686      25.70232156
Si      39.84182425       6.78571540      24.37322219
Si       6.55539120       6.52588266      24.66225378
Si       2.89840607       5.21652264      25.45014591
Si       2.72229960       3.63158812      23.72191730
Si      12.17097039      31.05292065       8.39731534
Si      11.05253569      29.96722312       4.72763940
Si      10.99598425      33.56584277       5.69465316
Si      12.47232792      33.20101309       7.48858753
Si      14.70806424      33.55805267       6.85120149
Si      13.63962008      30.52009670      10.15507322
Si      15.83675564      31.17658864       9.63344775
Si      14.14267683      26.93614335       9.59563699
Si      11.85763679      28.21071803       3.38773244
Si      15.19102745      26.40750402       5.31007308
Si      12.69454046      29.90958944       6.41009489
Si      15.09774202      31.91059786       5.21998382
Si      14.97300671      29.65863140       5.88488904
Si      16.17496919      29.61795748       7.90554033
Si      27.82602804       5.61813383      10.69828681
Si      25.65728060       4.71940597       7.38673093
Si      30.83704969       8.01503488       9.96883855
Si      34.01752612       6.42134897       8.04777102
Si      31.41253514       6.94700107      11.98342745
Si      29.46164354       6.29263521       9.14909911
Si      33.07268222       5.30443889      11.70712538
Si      30.78637365       4.37047101       8.86495462
Si      34.87931147       5.78657647      10.28091727
Si      32.45411204       4.84331632       7.27578121
Si      33.73845986       2.90458448       6.92617168
Si      26.59927512       4.05683318       9.43698401
Si      27.81521954       2.04897279       9.56023187
Si      31.83473114       3.52604920      10.79324180
Si      29.76659311       3.34856187      11.89840269
Si      28.57950731       1.33197785      11.66506200
Si      26.38190899       0.46049537       8.58486117
Si      29.42957070       2.67197220       7.96799028
Si      32.47326052       1.07600604       6.16055118
Si      30.70471928       0.71866154       7.66866213
Si      31.72035303      39.94544400       9.64368543
Si      32.87617730      14.14442310      30.43315607
Si      36.82340153      10.96644263      30.09098705
Si      30.93599310      12.73708340      27.33159648
Si      29.65862006      11.37848006      24.07316550
Si      35.37797739       9.59145268      27.07939839
Si      31.50690842      11.34029518      25.52738149
Si      33.91907117       8.20734317      23.76020040
Si      33.53722156      11.83128319      24.44555978
Si      35.72153476       8.12275778      25.26867077
Si      31.00420063      14.91480917      26.44672770
Si      32.78934399      12.49129722      28.76056356
Si      34.80906094      13.19926738      27.78581731
Si      35.26211420      11.69441990      26.03697093
Si      35.10566455      15.45642538      27.19589973
Si      33.58261123      10.27223131      22.68617205
Si      13.98865871       2.02622648      13.12733798
Si      16.50265909       1.96874071      15.66504723
Si      17.50749482      39.19963409      12.25693231
Si      20.42735569       0.97948995      11.30597634
Si      19.09764369       0.64227104      13.21635715
Si      20.34924367      39.69994271      14.97035920
Si       1.92267024       1.48808291       8.95691657
Si       3.18446276       0.70986872      10.78179759
Si       2.16951506      38.98668959      12.01803339
Si       2.05953715      37.07186938      10.65752138
Si       0.08816381       1.71078485      14.08177791
Si       3.33742996      38.44991421      13.98713524
Si       3.39380524       0.22649321      15.52689450
Si       1.15272681       0.78833443      15.96487207
Si      37.71007572       4.56722492      11.45303142
Si      37.84620079       2.22152175      14.57489214
Si       0.01097342      39.61921600      12.70373023
Si      39.00647853      37.77521247      13.76247453
Si      25.27726328       1.07032364      17.49292161
Si      23.77765812       0.07592391      15.97894843
Si      22.71766027       2.01839001      15.18366544
Si      25.27419458       2.14672385      12.34518853
Si      22.48058058      -0.06572909      11.77853572
Si      21.37760654       1.16865139      13.44857027
Si      23.98356837       1.28695083      10.57797671
Si      22.48990711       3.15926256       9.73449311
Si      26.85124785       2.52817969      16.53039495
Si      25.61004065       4.30795495      15.62417564
Si      21.31490017       3.02749937      16.77836499
Si      24.27440053       5.22079249      17.33065029
Si      29.55687897       3.45652462      14.23816310
Si      26.91503255       3.71922093      11.74297028
Si      28.48006057       5.05148860      12.88565145
Si      25.54042882       5.97859824      10.27775812
Si      27.20216296       5.78294264      14.71935001
Si      26.25401816       7.66643630      13.67897017
Si      24.17476986       3.42213923      13.98605008
Si      21.44608665       4.49652529      11.36291688
Si      23.03237418       5.19684993      12.95050592
Si      21.96649283       6.50884798      14.58449008
Si      24.58727780       6.81767062      12.25539576
Si      23.22992263       8.49610505      11.32745188
Si      23.93318047       4.85546404       8.98018010
Si       7.04690157      15.02901337      14.05990263
Si      10.07923571      13.46619863      12.24284315
Si       5.56965756      13.91467838      12.61000250
Si       5.33145309      11.98318787      13.93033307
Si       9.25694931      14.26209132      14.29697105
Si       8.88862577      12.19406901      15.35365062
Si       7.52080727      12.41119330      17.25368717
Si       7.54978856      10.61198489      18.76740876
Si       8.64418183      12.33393435      10.76346996
Si       8.36594278      10.37212626      12.02973450
Si       6.87695256       9.06472481      10.76340330
Si      12.27875398      12.67517622      12.49559974
Si      10.96236729      11.16730276      15.77015268
Si      11.95052883      10.67826120      13.69312624
Si      10.45540130       9.37164234      12.43341606
Si       9.51179914       7.44100066      13.38870347
Si       7.39426520      10.86895593      14.11265995
Si       6.94996057       8.89952229      15.31841540
Si       9.00516298       7.80742456      15.65577154
Si       8.51604061       5.79299259      16.76631182
Si      22.30756429      16.11591201      29.40438214
Si      20.25611287      13.92619861      32.11170643
Si      23.95887730      16.80396612      30.93077622
Si      23.22316715      18.57858029      32.28716802
Si      21.15656203      16.61922077      34.57373371
Si      18.86862536      14.94528683      28.67800793
Si      17.66874043      15.71728620      33.54385429
Si      20.26873372      15.59287810      30.45287547
Si      20.97933906      18.29204683      32.93032796
Si      19.53962567      17.71202159      31.16352883
Si      17.35058719      17.44459268      31.97999973
Si      18.77240612      16.72240867      35.36098761
Si      20.97177001      17.30811482      10.25274897
Si      19.14089978      21.51395118       6.96379892
Si      23.12219894      20.14535889      11.85198296
Si      20.25471276      21.68427543       9.02669133
Si      20.74135240      23.98383677       9.02842952
Si      22.48738603      24.26294843      10.57862147
Si      22.71891809      26.60206739      10.65077713
Si      24.38683790      29.62102447      35.24550533
Si      26.07657477      28.20573458      36.06522595
Si      27.64007014      27.91745917      34.33239804
Si      29.63781955      30.49511267      36.44966973
Si      28.64369795      30.04396079      34.36671121
Si      29.57105447      29.44658819      30.95610433
Si      17.95817552      25.28088013      20.80691314
Si      14.67589390      26.63905927      22.41787570
Si      16.97447183      23.16007581      20.55246890
Si      17.51565621      22.16874939      22.73626935
Si      14.07276017      23.51910163      24.17608128
Si      13.48049725      17.81970179      22.58842912
Si      14.02485299      20.09825416      22.38317097
Si      16.37466616      20.12966198      22.47051231
Si      13.17568117      21.34524506      24.18709385
Si      16.85321243      18.79087187      24.34374361
Si      13.54364386      20.18830282      26.20116090
Si      12.70252099      17.99243455      26.16790322
Si      16.97072568      26.22426738      22.72173004
Si      13.33090962      24.44589425      26.20618218
Si      13.90200745      26.72719165      26.21697173
Si      16.38364162      23.22951286      24.50367456
Si      15.85891305      19.82246189      26.39104516
Si      16.92875316      22.38640706      26.62998824
Si      26.04737312       2.69287353      34.60094520
Si      29.55199994       1.28441975      37.20362374
Si      30.83189902       2.87453723      36.03517371
Si      26.93443531       4.09476176      36.42040008
Si      28.48665742       5.53978037      35.40405008
Si      29.27406465       6.61361436      37.34243073
Si      27.69604375       1.33149750      33.62364095
Si      29.27493691       2.82902431      32.74041543
Si      34.57598474       3.19079593      34.33962882
Si      27.55389016       6.85071912      33.68882956
Si      26.75446855       5.13577602      32.29145934
Si      30.17506971       4.32476994      34.30695572
Si      31.93748781       5.61444588      33.43940512
Si      30.96717786       7.11545474      31.90993374
Si      33.68553086      16.32842233      39.07175749
Si      33.28061711      16.32334427      36.75522755
Si      35.26832851      18.60116266       2.12517798
Si      32.92648840      18.79426142       2.03047845
Si      31.90361836      17.00680050       3.16585604
Si      32.94340030      18.46926225      39.70141977
Si      30.64009490      18.70383086      39.28884337
Si      23.14878713       5.78631771      28.91089428
Si      21.84949365       2.18488702      28.94179831
Si      24.93459185       3.10123178      30.99885430
Si      25.97869679       6.86698836      30.90063983
Si      25.73962279       0.89713631      31.16032788
Si      23.78121616       3.52349785      28.99549018
Si      24.95948339       3.09967414      27.00603231
Si      26.93640526       4.36647750      27.13552561
Si      25.60879013       0.83966644      27.02076355
Si      39.32771432       9.55941818      15.58282416
Si      -0.09116276       9.94226072      13.33687757
Si       2.18996970      12.90215516      14.50361572
Si       1.84333413       8.69504549      12.85795358
Si       2.68105027       8.88268929      10.67041900
Si      38.70392800      13.60555322      13.29492173
Si      38.19655987       9.16239331      11.92607612
Si      36.27402464      10.43435533      12.39134034
Si      38.86046520       9.39943315       9.68253809
Si      36.68305830      13.07063633      12.21723445
Si      37.95411133      13.24581823       9.58984590
Si       0.54704562      12.17812614      12.98447596
Si       1.51647050      12.36401260      10.84988599
Si      39.55975217      11.58270213       9.15821886
Si       0.86241823       8.21485404       9.33759075
Si      36.25556224      19.97728935      11.69807346
Si       0.21225610      21.79696798      11.15449045
Si      39.33435207      23.82366838      10.34695566
Si      37.14592537      21.45474758      13.29645096
Si      37.18754027      20.30448854       9.56388247
Si      35.87220993      19.00904300       8.10712244
Si      36.32090792      22.42423520       9.02903200
Si      36.32532348      21.36788777       5.32801752
Si      39.41362601      22.73810829       6.54924720
Si      37.09547730      22.96301163       6.87491693
Si      36.27205328      25.00205433       6.04141027
Si      33.82984804      22.55257628       8.98408660
Si      37.00561414      24.06374414      10.56968610
Si      36.41214701      26.27543221      10.03429111
Si       8.40435525      11.79796899      36.40202969
Si       9.66692365      13.13692409      34.93915863
Si      11.36176076      12.06028779      33.71544056
Si      10.87551386       8.99907538      36.21711911
Si      10.34695094      10.86567199      31.96251017
Si       8.87915501       9.24397927      32.82584651
Si      10.10245335       7.87884560      34.29933340
Si      12.29459147      10.67014318      35.36671905
Si       0.54999762       5.26685661       9.37527602
Si       4.70705885       7.02235905      10.21486356
Si       5.13781141       6.20168695      12.37621530
Si       2.49582826       3.94652785       9.40730420
Si       2.65549726       3.09873430      11.59508176
Si       4.77510807       2.10321887      11.80816508
Si       7.31233549       4.08028012      14.51403679
Si       4.88676435       1.02679018      13.89593716
Si       0.92459421       6.74107813      11.16841993
Si       1.37781042       6.24609747      13.42172561
Si      37.44689456       6.32788604      13.75803068
Si       1.58249597       7.91923323      15.06094462
Si      39.39071658       5.00899624      13.64691654
Si      39.73130355       4.37978105      15.88713659
Si       3.26017139       4.91321638      12.96360323
Si       5.54876944       2.76158279      15.33870620
Si       3.58860067       4.29616294      15.20947672
Si       3.92374911       6.02287343      16.77053247
Si       1.68850850       3.07586449      15.86458442
Si      24.14572409      16.90980326      39.89041824
Si      25.46651389      18.19920042      38.43279575
Si      22.83709914      17.81508252      35.70347780
Si      24.05050409      19.37972759      36.97241156
Si      24.21852766      16.28530127      34.57151324
Si      25.37687223      20.76345949      35.60981021
Si      25.41209813      17.80033499      33.22583660
Si      26.56145814      19.67120214      39.90445548
Si      26.88823574      16.82498520      37.15862620
Si      26.77187259      19.37303373      34.32490620
Si      28.20615231      18.14596150      35.72728093
Si      29.80826380      16.53024967      35.13470646
Si      29.10772056      15.48065311      15.29950277
Si      31.16864074      15.49240428      18.43603074
Si      30.42368742      17.32539260      14.67043108
Si      32.62581937      15.80484782      13.35867667
Si      32.49979959      17.26214200      17.64463697
Si      29.94620607      11.26372205      19.28625957
Si      30.72201664      12.54122130      21.10190544
Si      31.75275251      10.15141508      18.27177291
Si      32.26558033      14.18587805      20.05468421
Si      30.26890406      14.07753147      16.78721741
Si      32.13892035      13.04323802      15.80578562
Si      33.70915951      14.64106208      15.09096176
Si      33.28871939      11.65243102      17.31368851
Si      32.58348589       9.11600243      20.21289275
Si      31.10357243       8.94730122      16.35901912
Si      32.81681340       7.51910605      15.61398998
Si      21.20721403      39.75298442      38.83879320
Si      19.61296954      35.01538777      38.68465928
Si      21.52991004      38.53180523       0.82224572
Si      22.53172919      36.45344317       0.36736846
Si      21.89700403      36.79903173      36.45482881
Si      20.15754525      31.60315245      36.53625838
Si      23.40063098       0.56827357      38.60528854
Si      24.75702713      37.05018930      -0.10419777
Si      24.82090408      38.72803476      38.24922359
Si      24.12075943      37.55481278      36.33510774
Si      21.90719222      35.41170878      38.35366331
Si      23.30419013      33.55745827      37.97884626
Si      22.22904313      32.62801509      36.10873761
Si      25.30605924      34.79682709      37.92072963
Si      34.40661545      20.20109553       6.38052129
Si      33.37462029      18.11335700       6.70730541
Si      31.16655040      18.48457157       7.42638536
Si      34.70144649      18.26698570      10.35041036
Si      32.41524849      18.61973392      10.77451974
Si      31.06919176      19.88109306       9.31600855
Si      31.36394291      16.53309573      11.04243270
Si      29.95357761      15.10965311       5.82697164
Si      28.83325835      16.29325977       4.13158350
Si      26.85829612      13.40793532       6.88967209
Si      30.08967214      16.29069084       7.85602522
Si      27.87142789      18.09014683      10.50788783
Si      27.90035454      16.70176193       8.60996904
Si      26.93054880      17.84621771       6.79882593
Si      26.76958830      14.65749376       8.87999498
Si      25.72564255      14.67583347       5.26485773
Si      37.82829033       6.40475837       5.39952554
Si      36.73234956       8.28010720       4.49814107
Si      34.18869562       8.69329469       1.57921534
Si      39.14963248       6.32892740      38.61267833
Si      37.73459786       7.55095533       0.24669609
Si      36.71053520       9.28672308      39.03481631
Si      36.64319643      11.11778717       2.26333175
Si      35.26806733      10.46431881       0.47107150
Si       9.99390613      23.20122711      38.04132234
Si       9.29242209      23.03711037       1.68553821
Si      12.62766245      24.65961971       0.86609311
Si      10.46989858      25.07268865       1.70511117
Si       9.87824774      26.89049737      38.13122423
Si       9.65979208      27.27104329       1.90837096
Si       8.00477455      25.45512961      35.70974730
Si       8.26167474      23.44931617      39.61237174
Si       8.38728150      27.10048117      39.93797807
Si       6.88349436      25.35051191      39.48483734
Si       6.24150987      25.68940792      37.24805437
Si       9.76116809      33.69244405      28.10857447
Si      10.57611978      33.78214129      25.90446340
Si       9.00534462      32.86190818      24.41547463
Si      11.92735302      32.80822564      21.85591734
Si      13.05981919      30.88188516      25.95660039
Si       9.20129066      30.54476221      24.76727615
Si       6.73620262      33.46907480      24.53578949
Si       6.41006907      35.73661772      24.00449070
Si       7.22155324      36.15729590      21.83778299
Si       9.67406032      33.37452096      22.21982853
Si       8.49087014      32.15756806      20.59205650
Si       6.98235689      -0.29012809      37.96573406
Si       3.44116914       0.11321044      36.86509356
Si       2.99517094       3.72341957      38.10384553
Si       1.29858927      39.45635243      37.57868838
Si       0.41219215       0.87429134      39.23237322
Si      39.70661331      39.88103437      35.90091138
Si       0.83013872       3.15203993      38.82283177
Si      39.25223554       3.89606261      37.24577237
Si       3.18047846       6.05624223      37.87441857
Si       1.77661388       6.26611455      35.99980115
Si       3.81076726       2.37905979      36.35475385
Si       2.37873380       2.82017662      34.54208690
Si       0.17774667       2.82001683      35.37090992
Si       2.78197499       5.03254637      33.85616691
Si      39.45490434       6.03910696      36.29883484
Si      34.90980997       2.45176681      36.54673392
Si      32.14669730      39.82883675      37.04926608
Si      36.24252287       1.14798757      37.97962706
Si      36.08303624       1.95279941       0.18348637
Si      33.35843756      38.56926498      38.62245311
Si      33.27953464      39.26093263       0.86876922
Si      37.23444225      38.59176246       1.23715761
Si      37.69885594       0.88027793       1.51353366
Si      35.06201054      38.35390313       2.10426449
Si      37.28950110       1.40127729       3.76989415
Si      34.31800072      39.01330421       4.23498702
Si      32.69267006       2.10788745      37.24877367
Si      32.34392482       3.02574853      39.63938265
Si      36.58523938       4.24830562       0.27685063
Si      36.15440635       4.78587827       2.52532147
Si      31.10140487      38.74614158       1.58880660
Si      33.91083797       1.52386826       0.97608091
Si      35.10555629       1.19582027       4.61752172
Si      33.45306442       2.10021241       3.20972494
Si      34.02433995       4.37078460       3.43121913
Si      37.71617502       3.97323199       4.08418759
Si      37.97261527       4.62889051      17.42839898
Si      37.37571730       1.97716775      20.05800509
Si      35.22330701       5.32446935      19.76015726
Si      36.81886471       8.61170140      20.77086442
Si      34.46197043       4.66416132      21.88450267
Si      37.33585833       4.29572210      19.66748690
Si      35.89610534       5.76427723      23.38914960
Si      38.76370515       5.37527305      21.19237932
Si      36.12175111       8.06372248      22.94995944
Si       1.48976390       4.65100733      18.75181725
Si      38.29315568       6.92413899      17.02910933
Si      38.97661216       7.67674802      20.75972542
Si       2.14977811       6.90265580      18.59502310
Si      39.42217428       0.81883043      20.05131585
Si       1.05840757       1.96594316      21.29123710
Si      38.10741723       4.96386671      23.41271598
Si       0.83722519       4.28652088      20.98151474
Si       2.39226817       5.46847551      22.29108269
Si      21.73417438      29.40896795      35.23420129
Si      21.59500207      28.43539365      31.23376779
Si      21.61543827      27.14671104      35.86546231
Si      20.73814804      25.87945735      34.08935563
Si      22.73125795      22.70829314      34.46885116
Si      22.46046822      22.07389934      30.60150992
Si      20.53902035      23.55069471      34.34805317
Si      19.51026162      22.10002140      32.80985910
Si      18.46141088      29.10966432      33.26193993
Si      18.60369753      26.83553554      33.84378630
Si      21.48024208      26.17655990      31.87775558
Si      21.16713392      25.43912258      28.22355014
Si      20.03722279      25.23704069      30.27609040
Si      20.28294022      22.94825239      30.75716212
Si      17.79943198      25.95829821      30.22561382
Si      20.10302156      35.15130323       3.67381945
Si      19.41626991      37.67963235       0.24423152
Si      17.76714766      36.62992204      38.93859641
Si      18.21684513      36.51574832       3.34218840
Si      16.49876740      35.24515631       2.35933942
Si      14.42617606      36.33232574       2.12040895
Si      18.74130066      33.38379814       0.13642517
Si      16.02623437      33.26452948       3.53630216
Si      16.85562752      34.78715537       0.08034322
Si      15.15354007      31.81978784       0.11252593
Si      12.34296150      26.25950910       4.60592302
Si      12.05429510      26.21388386       6.93877833
Si       8.39494128      26.94053307       6.43914539
Si       6.86471636      28.69288704       6.78277280
Si      11.26323253      24.12832503       7.68287858
Si      11.14311113      24.83708725      10.06951541
Si      10.44399107      27.92451981       7.04199934
Si      12.10468328      28.78285263      10.55059866
Si      10.15719371      28.22400376       9.35665296
Si       9.28369637      26.25751404      10.30575464
Si       9.43620043       2.24964804      30.32170827
Si      11.46359965       1.96329864      29.16735519
Si      10.78901849      35.29540532      30.15354754
Si       9.76156951      39.17213340      32.46122738
Si      11.86108861      38.80027247      31.46948088
Si      10.27370050      37.96264890      28.13909570
Si      11.06023796       0.14158780      27.73725298
Si      11.93144324      37.29236550      29.66640827
Si      10.73204207       2.62502788      33.48526995
Si      12.77719854       2.47524092      32.33417345
Si      12.34521570       3.94392737      28.26010542
Si      12.49563383       5.25005242      30.20895174
Si      13.23809495      38.00897783      33.20369646
Si      12.82555681       0.79713179      30.68783537
Si      15.08487248       0.41079063      30.16383562
Si      21.29392326      32.98789624      27.41764673
Si      21.43588395      31.04852067      28.74017170
Si      18.28693688      32.86602293      30.48982089
Si      17.87091469      30.52492477      27.64801975
Si      16.90135633      31.13731317      29.70113849
Si      16.61257408      29.32957672      31.17721651
Si      21.88805000      33.52191331      31.82624005
Si      17.58452489      33.63519185      32.59821446
Si      17.36619383      31.78357976      34.03142945
Si      20.36592962      31.78716540      30.69970664
Si      20.38319405      30.11280990      32.35081670
Si      19.50935265      30.88543408      34.39276477
Si      16.27379293      38.41003832      38.57779309
Si      16.14956925      34.57363813      35.41918906
Si      17.82020581      31.47307003      36.31779261
Si      12.65218441      37.54304786      36.33474490
Si      10.46994299      38.41899383      36.36890416
Si      12.72634601      35.48759451      37.47499726
Si       9.70805919      38.53177251      38.59087793
Si      12.90152442      38.99424467       0.14851686
Si      12.64775013      36.70715224       0.63221674
Si      15.04320693      33.51285713      33.63562891
Si      12.77210452      34.12312425      33.62689202
Si      11.61748348      34.53212944      35.63444602
Si      14.96979540      34.78330418      37.44265106
Si      14.77479853      32.48302208      37.88926238
Si      13.67864200      31.20647137      36.24718077
Si      16.42880288       4.55315307       8.52334143
Si      16.39022137       2.76808790       4.92371787
Si      18.46048570       5.36394758       7.66058358
Si      18.90072552       5.78542663       5.38909576
Si      20.07087871       4.00045882       8.69685836
Si      18.47999331       3.70194467       4.38550640
Si      19.76060653       1.93445130       5.25923928
Si      15.94370103       2.65044900       7.22950216
Si      17.43349835       1.09634345       8.17580498
Si      19.64185871       1.84265235       7.86531261
Si      17.91318294      22.86726130      13.47571197
Si      14.48669514      20.29422072      12.50228261
Si      16.46626836      20.48362669      11.24738067
Si      15.42063093      16.39998402      13.05554469
Si      17.35785211      16.71231083      11.75928027
Si      16.88623336      18.41613673      10.20792571
Si      18.58039662      21.10807757      12.06488898
Si      16.30368356      29.26991493      26.42357332
Si      19.05980849      27.05233404      23.41482246
Si      18.36311749      26.18046944      25.48509774
Si      16.24458265      26.93181697      26.17729204
Si      15.74159869      25.98171749      28.26893732
Si      20.91124479      23.98557333      22.44726384
Si      20.44213274      23.09147409      24.57083568
Si      20.33934821      20.75385764      24.33882545
Si      19.90539157      27.03384898      27.04221400
Si      21.69306839      23.00208373      28.26379951
Si      18.41867120      23.82896186      25.51966029
Si      17.99111228      20.37206433      27.21689967
Si      19.07475826      23.62734052      28.85730174
Si      36.80022601      26.53587618      16.39113396
Si       0.24669085      24.45196887      14.07638050
Si      38.22366028      25.12990586      13.08787095
Si       1.16855855      27.89928132      15.48962467
Si      39.32605404      28.61885151      14.21823227
Si      36.10610566      28.42396051      17.60928518
Si      34.23700468      29.37209230      16.54258882
Si      36.69965856      31.29680203      13.87187075
Si      39.77103128      29.40235922      12.04597997
Si      37.30838529      27.01976818      14.14657378
Si      35.37886721      27.95115586      13.17697898
Si      34.84776460      29.92498248      14.33991549
Si      36.13745601      28.65720258      11.06593525
Si      34.82257735      38.24958204       6.40072151
Si      32.92100555      34.13241151       7.12094240
Si      35.26189714      34.20576128       6.90802207
Si      29.11058538       2.08861650      17.89405591
Si      27.96790252      39.31993054      20.20703178
Si      31.13900466       0.92087229      17.66549566
Si      30.90744187      39.54363157      15.77340878
Si      27.42948920       0.47972407      18.23360225
Si      27.21630863      38.98301271      16.43236429
Si      28.14363515       1.57761711      14.17989807
Si      26.39346949       0.03955804      14.49924699
Si      26.56598195      38.81690370      12.49779716
Si      30.03169013      38.37163418      19.59933878
Si      29.87054833      36.66262962      17.99265640
Si      28.49267373      33.79636721      20.32418444
Si      33.49727929      37.49287155      17.26135925
Si      31.61153429      34.15640214      15.87383747
Si      25.41870238      37.46957063      16.52383080
Si      26.17823393      36.19175529      18.34605148
Si      28.21942100      35.02451244      18.33755912
Si      27.94757215      33.58469157      16.49807024
Si      29.26645241      37.88688883      16.07791130
Si      28.62463926      37.70106349      12.28008480
Si      29.12664864      36.45997632      14.21369926
Si      31.20097444      35.39243404      13.91572804
Si      27.37075632      34.96706715      14.68443799
Si      30.01436660      32.48157361      16.29159992
Si      13.39998864      36.24804849      20.94960108
Si      17.03179596      35.84504174      21.32978713
Si       8.11665732      37.28361184      24.47780650
Si      14.99448403      34.97276262      22.11646019
Si      14.75056083      32.63775350      21.98017043
Si      15.28960216      35.49373741      24.39062158
Si      13.09755872      33.09973992      25.17649396
Si      11.43823396      35.57984499      22.06108731
Si      11.71285964      38.60051063      24.19105841
Si      11.51344841      36.26038549      24.31085216
Si       9.61979922      35.91690733      25.66229803
Si      13.27896520      35.40431388      25.60701925
Si      32.78467988       8.62354805      12.89823366
Si      31.40822989      10.16003077      11.76903333
Si      28.90548442       9.41855879      14.60549540
Si      27.85790886       9.03684634       7.97359146
Si      29.21357618       9.48324144      12.27495588
Si      25.47392795       8.29755599      10.65502855
Si      27.78216445      11.09018079      11.32655895
Si      25.58365601       8.54708072       8.31861994
Si      31.86637431      12.21273277      12.82116891
Si      30.42171720      13.71106020      11.72643215
Si      28.03430630      11.15072028       8.98915371
Si      25.56312592      10.40424295      11.69571408
Si      25.12103162      10.76310715      13.97672283
Si      24.16249390      12.02642176      10.72673560
Si      24.06731977      13.97815348      14.08739535
Si      30.30838731      15.70211692      12.97273068
Si      28.16978636      13.23529974      12.20911082
Si      26.68563248      14.77290076      11.22741206
Si      24.50008693      14.10230668      11.77916139
Si      27.14574162      16.79688104      12.33306383
Si      22.98008875      15.67666504      10.91798408
Si      24.40130280      12.57349424       8.45159347
Si      12.45972453      33.95615337      31.12632820
Si       9.38906000      32.20738388      29.89349502
Si      12.77173221      31.44317036      28.22276689
Si      10.36979997      33.13116599      31.82033679
Si      10.94350857      31.37930948      33.27984735
Si      13.79947595      32.27649025      30.16829528
Si      14.25806821      30.51761852      31.66119040
Si      11.76066799      32.20573926      35.32380036
Si      15.11433053      31.16519928      33.75364734
Si      11.54424150      30.39527205      36.80859732
Si      10.82657523      30.50134516      29.15023662
Si      10.85465037      28.57570961      30.49939184
Si       8.91770753      30.29801534      33.78534380
Si       7.66258271      29.62486922      31.91407783
Si       8.86333967      28.65085345      35.46275268
Si       8.73476757      27.71896368      31.04921151
Si      14.34302217      29.80538088      27.60657650
Si      14.66085041      27.93820618      29.00003568
Si      12.48048112      27.11426169      29.31171085
Si      12.11403629      29.68312323      32.14776191
Si      12.88004719      28.67168709      35.92863468
Si      12.09673760      28.01947428      33.80955084
Si      10.16189425      26.91164222      34.55724446
Si      15.80182555      16.06778266      29.99757321
Si      15.37028682      16.03463152      33.92598447
Si      12.50984053      15.92063863      31.73198751
Si      17.06978121      13.11639102      31.87817678
Si      13.64140362      15.15640047      29.81716389
Si      13.66644921      12.80487927      29.79682985
Si      15.25126935      12.55330652      28.07766212
Si      15.43017849      10.25578438      27.60929169
Si      13.38123162      14.81961562      33.61626260
Si      13.62153911      12.50923110      33.24430090
Si      15.06851298      11.94800735      31.47911305
Si       1.89786511      28.45461568       4.40319560
Si       1.50313261      32.23517341       4.53716027
Si       5.09841998      28.80115107       2.56632823
Si       1.60092048      26.43858158       3.22936822
Si       2.60941743      26.82348925       0.88146103
Si       0.69944846      34.09422072       3.34191598
Si       1.07819022      30.39442888       3.13662266
Si       2.23232491      30.62634835       1.10078520
Si      20.31346687      13.43117388      24.64862010
Si      18.09844012      11.00905620      26.35755171
Si      17.51466872      10.67222731      28.61035800
Si      19.21364423      13.02122200      26.84532775
Si      17.33887613      14.43584778      26.96615551
Si      17.59027984      18.76081569      15.33159341
Si      21.03738156      19.99612642      15.26609417
Si      18.32878515      16.63798390      14.64093395
Si      22.02737969      17.65209192      12.32597512
Si      18.94112108      20.36398032      14.26616716
Si      32.64201278      14.38647202      23.44432790
Si      31.68666363      17.65006037      25.60903946
Si      31.67063825      15.70012791      21.75284755
Si      31.45216508      18.01537326      22.10337702
Si      34.90576036      14.98348806      23.22219922
Si      30.26964754      18.66408524      24.02991712
Si      29.72651676      21.21035682      26.16766940
Si      30.77138517      20.96115490      24.07561322
Si       3.96831656      18.81133771      30.67601993
Si       4.26395745      17.50822701      32.61104459
Si       2.22426461      17.36163979      33.77142767
Si       7.46162904      20.11099606      31.19669971
Si       7.58537689      19.15687798      33.34261442
Si       5.22298046      14.59841079      34.41523128
Si       8.78028547      16.09672559      35.31761431
Si       5.42017713      18.80958319      34.19209548
Si       5.45582504      17.72372232      36.27772308
Si       6.57411463      15.67218200      36.01226732
Si       7.35077298      26.20627593      25.38103246
Si       8.86357378      25.05520206      28.79258869
Si       6.39248823      28.02379513      29.02711962
Si       9.51181807      23.37006587      25.19382832
Si       8.01927904      24.38085951      26.70401949
Si       6.21618408      22.90270678      27.00995607
Si       5.53985302      22.39479890      24.81568334
Si       3.80703221      20.81164223      24.96207248
Si       7.13043389      26.03570718      30.04375375
Si       5.42300397      24.45781164      30.39783675
Si       7.15662275      21.04242197      28.09858877
Si       4.54150570      23.96452995      28.27413468
Si      31.53496608      24.22059005      13.11845285
Si      35.25572192      23.20610819      12.66681162
Si      32.53923871      21.37894827      10.78577750
Si      30.76928892      23.37388242      11.06246608
Si      31.71487420      24.42354505       9.18252160
Si      34.38687911      26.18880729      14.86098485
Si      30.11364738      26.09066113      13.23282496
Si      30.53649576      27.22010159      15.41594072
Si      30.30790173      27.55053782      11.39939478
Si      32.78507411      27.87584053      15.20534579
Si      32.76091977      29.38344082      13.40063295
Si      33.74955037      24.99140923      12.93992001
Si      33.89322769      25.30946574       9.17283791
Si      33.98490220      26.53260673      11.17930839
Si      28.64189635      30.14336084      15.45406555
Si      30.09956246      30.65998101      19.77089103
Si      28.22453450      29.33223793      19.26894708
Si      26.39949455      32.35372697      17.77066808
Si      28.41850932      28.46886770      17.09009230
Si      26.66644236      26.96451872      16.64558123
Si      26.69014111      31.44451464      15.62144686
Si      24.77930236      30.18272999      15.08577596
Si      29.03764959      29.19176493      13.34024890
Si      27.24559882      27.76051490      12.82018542
Si      27.09438361      26.11602367      14.49446056
Si      25.25761574      28.97992000      13.12239632
Si      23.31099409      27.76540627      12.60682164
Si      26.26853494      30.63393922      19.36936608
Si      24.65384246      29.11585430      18.58304697
Si      28.31473338      27.31440130      20.47338167
Si      24.29189529      27.70305129      20.42786520
Si      21.13088984      29.94392065      14.55028193
Si      24.70311425      28.23601184      16.40285737
Si      22.85500470      26.79414207      16.21383710
Si      20.96931617      28.19588171      16.11499681
Si      21.34713653      29.04073600      12.38971451
Si      25.92666601       2.14176437      25.08894200
Si      28.25220572       1.46613235      22.18944144
Si      27.82358597       2.95215402      23.96046815
Si      30.92567305       6.06373174      23.69206738
Si      27.29739565       5.12953347      23.24511427
Si      26.68380933       1.56855442      20.43945768
Si      26.00897225       3.75104889      19.88251750
Si      29.18490805       5.95948726      22.11435153
Si      29.77758905       4.52087410      20.35100390
Si      28.80355180       8.11769336      21.26172987
Si      31.63026151       5.42454449      19.21901990
Si      28.05661727       4.14127809      18.79394966
Si      27.84872846       6.38782680      18.13144727
Si      32.82543490       6.61414014      22.41989743
Si      25.49479953       5.10512322      21.73509679
Si      25.12507944       7.29272313      20.95536060
Si      27.03345219       7.90967019      19.72764544
Si      28.21265044       9.94322275      22.89801925
Si      28.95093156      13.30446366      25.22308725
Si      28.72817112      15.44174656      26.17951462
Si      27.67847611      15.51853920      28.28264512
Si      29.32279024      11.30199296      26.39903785
Si      28.17971482      11.37783554      28.45262081
Si      28.35715173      13.54050564      29.35800918
Si      12.24498843       2.45570559       6.80540680
Si      13.13486703       2.14205587      10.34396254
Si      11.15516155      39.17266579       8.35964397
Si      12.04076028       0.14555219       6.40887874
Si      12.87369531      39.86700165       9.81121181
Si      12.88082179       3.54317095       4.39945940
Si      13.91523176       3.08647659       8.33661353
Si      15.18209604      25.15577870       0.64888747
Si      18.78825642      25.39453540       3.47283676
Si      19.93995057      23.34504106       3.47201018
Si      17.46205079      25.33720827      40.09737756
Si      18.63443020      23.34145198      39.68505241
Si      20.84962363      23.54033474      38.92265822
Si      22.83831163      21.37468481       2.19717081
Si      21.81696015      21.41144802      38.67418915
Si      15.53807168      23.65337463       2.42301117
Si      16.65676395      21.58677101       2.43158167
Si      16.32199254      20.57122010       4.52393167
Si      17.37991448      22.02471689      38.19548836
Si      18.35827352      19.89987947      37.95303786
Si      15.21518588      20.41918444       0.99039625
Si      16.21764202      18.30743801       0.73469087
Si      18.81207412      22.22050817       1.74329600
Si      21.88290317      19.99485650       0.54995530
Si      19.68758135      20.06871184       1.38741938
Si      18.53743192      18.63101165      39.92469712
Si      20.56935569      20.09554730      37.17688193
Si      21.08516567      17.96955712      23.29210120
Si      22.98740571      19.17482097      22.61892370
Si      24.33176275      17.93788923      21.13968340
Si      19.77661249      17.35204870      21.43877186
Si      21.14016853      16.07522605      20.01048226
Si      26.43407779      14.47199980      21.00702892
Si      21.82944853      14.25150542      21.32486578
Si      23.01949606      17.29548924      19.29735089
Si      24.53602187      16.21523292      17.86099256
Si      24.75964896      14.41427396      19.35642838
Si      23.30846014      15.22395827      16.11721772
Si      12.08596547      10.71694373      23.12799975
Si      12.36998121       7.15830842      24.32205415
Si      14.43901213       7.89089162      25.16912465
Si      13.73509677      11.98244340      26.37279972
Si      14.65901728       8.03697181      27.50677936
Si       9.44216455       7.75223350      23.63979127
Si      11.78553121       5.22082819      25.52081898
Si      11.11043238       9.13036014      24.56643882
Si      13.09671783      10.01780200      27.49874166
Si      10.87932858       9.58969988      26.86460607
Si      12.26496014      13.81715176      26.30464940
Si       2.13178877      16.33625343      38.10496776
Si      39.96691725      18.77898883       1.39122125
Si      39.83811825      19.59864573       3.59168107
Si       2.08677383      19.49592868       0.35547260
Si       0.86396732      21.71668033      37.41764312
Si       0.81452993      22.81758157      39.49508972
Si       2.73179649      21.75732289       0.34968090
Si       3.61560710      15.25994609      39.57462857
Si       3.50976489      16.08065882       1.77496523
Si       3.90192443      18.39536970       1.64022771
Si       2.25547603      18.68198290      38.15617000
Si       4.39824958      19.41396038      37.52449799
Si      21.62590333      12.83622160      33.90462193
Si      22.86006860      12.56011019      30.24249656
Si      23.87930532      15.11210706      32.56194019
Si      23.51432263      14.04199563      34.62301748
Si      24.82043538      13.58103007      31.04556906
Si      19.95064177      10.28879768      31.56673150
Si      21.08281518      11.48612880      35.75224735
Si      20.43780104       8.91084061      29.72527346
Si      21.96260639      11.39426168      32.07720635
Si      25.80661767      10.95868298      33.21363699
Si      23.79449308       9.97877814      32.49133487
Si      22.69651193       8.80365801      34.20707182
Si      24.16945785       8.36762684      30.81965925
Si      -0.10075066      17.49800307      33.45305020
Si       0.03024618      17.09461650      38.82678926
Si      38.54562525      15.94100292      34.57532082
Si      37.53863170      17.52739413      35.98496090
Si      37.28983382      14.40184969      38.23100024
Si      38.61797330      15.50316529      39.82337721
Si       0.53678875      19.77957864      36.12513580
Si      38.95251380      18.67711862      37.46718114
Si      37.69991614      19.77350924      39.12913251
Si      39.18299546      20.85104446       0.60222909
Si      39.30408636      24.02486939      38.15663232
Si      25.70052326      13.55486006      16.25388575
Si      28.38160145      12.86666021      20.00227295
Si      26.06947673      12.50591006      19.76985315
Si      25.03293084      11.87312231      17.75601569
Si      28.05110837      13.57636394      16.18715036
Si      28.91776572      11.41713195      15.84487704
Si      28.11256458      10.03175763      17.56616715
Si      29.01871924       7.98066625      16.85749884
Si      25.34148873       8.93329394      15.43680010
Si      20.61598221      26.24517504       9.66081703
Si      17.09951340      27.93275543      10.82560890
Si      20.25397038      24.55499171      11.25594748
Si      18.83084079      22.84291708      10.49703605
Si      18.46640364      27.03940679       9.13334481
Si      17.39714041      25.42561624       7.79779291
Si      18.66916091      24.27898463       6.18543034
Si      16.75893089      26.14942134      12.32033068
Si      15.61310631      24.37483139      11.28660965
Si      15.15105095      26.10503493       7.64077800
Si      13.99354559      24.61179048       6.23953314
Si      13.43719174      24.92057548      10.58058629
Si      12.57125147      23.11196747       9.35204609
Si      16.96023854      23.80485711       9.44508712
Si      16.81861095      21.24017075       6.72116457
Si      15.58195588      22.14971448       8.50207981
Si      15.36478443      19.93036904       9.24605403
Si      13.59658427      22.55683365       7.30999938
Si      11.49132657       6.09586843      32.98835602
Si      12.44982989       4.16763376      33.93349712
Si      15.11141220       5.38101794      36.04314192
Si      11.31729810       3.12025997      35.70834069
Si      15.90719507       4.70055902      31.96717267
Si      14.79861228       4.26763593      33.99549443
Si       2.91550745      30.02398158      17.34858431
Si       6.62482729      30.77125867      17.82274065
Si       5.18842862      27.78964418      19.40438202
Si       6.18153073      30.80845363      21.84422210
Si       8.37078684      32.28850075      18.24707576
Si       5.21187691      26.27363475      21.20201676
Si       6.07185278      29.22989130      23.58403788
Si       6.60568447      29.60834153      19.86669768
Si      29.66601213      28.64361204       5.35228404
Si      32.36185678      29.69241971       2.64494075
Si      30.59004862      26.58902259       4.67945240
Si      30.80950697      32.66413083       5.88436867
Si      29.55603400      31.92919802       4.03535282
Si      32.53502607      31.21272829       0.85916048
Si      30.13403278      33.31954116       2.22906809
Si      28.56546167      32.77536962       0.55811075
Si      30.11310334      29.75626099       3.32964743
Si      28.95478822      37.05027396       7.93807510
Si      31.86531760      38.00274794       4.77735709
Si      29.85372554      36.94024737       4.18131359
Si      29.45298329      34.78282967       7.56341921
Si      29.85181267      34.58835078       4.19497638
Si      27.89875404       0.03278999       5.89115276
Si      27.35845785      37.47432557       9.61197248
Si      25.37868549      36.34494728       9.03283890
Si      29.08622812      37.63460337       2.06966819
Si      27.03064675      36.59034816       1.60864175
Si      28.23550030      37.58092868       5.76290786
Si      26.16831672      34.35037590       5.61355712
Si      26.13563640      36.66938707       5.22430342
Si      24.68051444      15.16034470       1.36756940
Si      26.91604383      14.44878363       1.53677759
Si      26.66180130      12.11217887       1.61636463
Si      25.93660262      11.99566005      37.75829285
Si      28.13291778      11.15718733      37.81549539
Si      23.33589509      14.73912522      39.48285412
Si      21.28377045      15.85442703      39.75944104
Si      23.07069527      12.43586497      39.87655330
Si      23.46553158      14.60073075       3.72791497
Si      25.42720000      11.43472322       3.70998890
Si      24.94016467      11.21100446      35.77794244
Si      24.95256923       8.87403292      36.04034724
Si      22.13753288      11.71478277      37.84169538
Si      21.60107913       9.46136516      38.24238352
Si      25.19265595      11.42272663      39.91436521
Si      23.61490269       8.30011956      37.88740192
Si      27.83333986       8.43829093      36.98806743
Si      24.60846977       6.20600453      37.49009951
Si      25.75030553       8.77239294       3.23909796
Si      28.69087894      10.43048787       0.93654707
Si      23.35431938       5.17858997       0.16297022
Si      25.39949732       8.88391614       0.91663279
Si      26.85583988       6.59086503      38.06573518
Si      26.53183746       6.89519760       0.37523650
Si      28.76540163       6.52543012       1.01192242
Si      25.41469268       5.03732887       1.28748694
Si      23.16613998       4.40633509      37.94966234
Si       1.55729434      39.91611472       4.15492853
Si       3.14757471      39.41844170       0.66973545
Si       0.57490734       2.28184580       1.10917818
Si       6.08459114      38.67478845       6.37814546
Si       3.51296124      39.32382429       2.99092278
Si       5.11881904       0.94656202       3.55499321
Si      39.35659619       2.49713165       4.89661625
Si       1.22159546       4.11605304       7.43786304
Si       1.11689827       2.09574716       3.38986117
Si       2.62099360       3.74814045       4.12263139
Si       0.09293776       6.18526745       4.39972219
Si       3.46222002       1.23123185       6.85914625
Si       5.56833805       0.91060121       5.86318261
Si       3.23658306       3.52265701       6.38087708
Si       0.38094750       6.27388992       7.02801483
Si       2.52251806       1.58197980      39.99222384
Si       4.39005903       2.92374632       0.48693740
Si       7.00217316      -0.05621029       2.56974473
Si       6.79155671       0.23510739       0.24743847
Si      39.79281064       4.41767314       0.51184361
Si       2.18039749       5.92448815       3.34872784
Si       1.67455852       6.01239962       1.05396253
Si       3.82542063       7.49333829       3.95081798
Si       3.52738882       5.05068152      39.97160860
Si       4.60066920       3.16948205       2.99293033
Si       6.88610539       4.18815803       5.49280421
Si       6.41189466       4.64910782       3.23608253
Si       5.72538246       6.84017103       2.72853581
Si       4.18500856       7.16628322       6.25172967
Si      37.05348691       8.68018418      30.59152747
Si      33.41135796       9.51215273      30.82160621
Si      34.22872512      11.97795117      33.73644480
Si      33.66116493       9.77182348      33.14833084
Si      31.70797871       9.21489424      34.33510529
Si      31.21442526      10.48803105      27.95816638
Si      30.45465141       7.79763676      25.20931442
Si      34.54588667       7.39779833      27.17167166
Si      32.92864715       7.21694366      30.61530106
Si      32.61214142       6.73862375      28.33464526
Si      30.98870215       8.20015162      27.46382482
Si      29.27333959       7.16073209      28.69156664
Si      31.45287994      10.70078795      30.28809979
Si      29.59480548       9.89448765      33.55810845
Si      29.38760223      10.07371883      31.22237849
Si      28.93456733       7.78392598      30.93370337
Si       5.34783925       1.20623397      17.86591116
Si       0.99971967       0.89554358      18.30904897
Si       3.76956621       2.64052345      16.87112283
Si       3.80657661       4.38205617      18.45114756
Si       7.46918192       2.14501133      17.47945418
Si       7.20188141       3.65279343      19.57279575
Si       5.88423025       5.43277101      18.78215486
Si       5.54286135       7.08511970      20.41997920
Si       2.87696069       3.22424387      20.49069527
Si      19.52784676      36.25427633      33.22332276
Si      16.39436049      36.90243627      35.63648864
Si      19.76456185      38.40421948      36.31327692
Si      18.58679987      38.74598467      38.31978091
Si      18.70208483      36.51052144      35.41028656
Si      19.20598690      34.45575705      36.43712109
Si      33.16581122      36.85508916       7.31649378
Si      33.34578945      37.36301263      11.42610417
Si      32.34110008      39.05754269       7.36039978
Si      33.88034951      33.49103584       9.32565664
Si      33.87808915      34.04398933      13.12797610
Si      33.30087344      32.55324625      11.40310205
Si      30.97449919      32.20929194      11.38773428
Si      32.53427828      36.27569293       9.50585480
Si      30.25946970      35.68601235       9.57924624
Si      29.81033509      34.25257032      11.38842827
Si       2.21094614       7.73750399      21.70039759
Si       2.36618351       9.86214030      22.69653346
Si      39.09515279       9.01374910      24.46271118
Si       0.27981414       8.37976883      26.39298532
Si       5.28967319       6.49688445      22.68201446
Si       5.80667429       8.74308897      24.43268742
Si       3.72712344       9.06427549      29.30476400
Si       3.61743338      11.44946520      21.49429148
Si       5.82073277      10.88268293      20.89839580
Si       3.53404950       9.30409097      24.66006928
Si       3.93978710      11.19677063      25.99591712
Si       4.89942146      12.99223068      24.81763909
Si      17.83066492      24.94325748      14.57741555
Si      17.89784275      24.07138599      16.76046700
Si      16.11124662      23.50658243      18.18153414
Si      16.08545252      20.08336901      16.56276894
Si      17.67959970      20.93065609      19.77324516
Si      16.60812301      19.15759307      18.66031705
Si      14.65736765      18.84579830      19.93605848
Si      14.40481700      22.90944606      14.59483064
Si      16.59996640      26.93893100      14.75905935
Si      15.13639499      25.64449957      18.27790554
Si      14.57352807      26.21644140      16.06735698
Si      13.10733432      24.85668164      14.82970348
Si      14.90439709      18.37098332      15.46626536
Si      13.11295899      18.18463437      16.97814870
Si      14.88852702      22.09883635      16.74863197
Si      13.37083644      20.79173567      20.23345791
Si      13.00246827      21.69505611      18.09381789
Si      11.85033691      20.15439076      16.74159202
Si      13.14218114      17.23793602      19.13047614
Si      28.81920453      24.85398885      28.10711176
Si      26.34908918      29.62957791      24.04769388
Si      27.29200384      28.54451059      25.90877770
Si      25.85607049      26.71084117      26.24513354
Si      28.31749987      28.77218849      29.08414205
Si      26.93311315      27.18660728      30.13289332
Si      26.66975822      25.79731514      28.25372963
Si      24.94956290      24.08958022      29.08753387
Si      11.39794306      19.67759240       3.51839589
Si       9.38473080      19.56698803       2.30825772
Si       8.43494853      17.41566890       2.31563573
Si       6.46188440      18.76273922       5.32383672
Si       7.72002359      17.88955421       8.73032926
Si       5.76236961      17.98972825       7.43180361
Si       6.53872632      17.84744064       0.99337730
Si       5.75758530      15.64341117       1.23793131
Si       4.62185858      18.56337839       3.87273986
Si       3.44294134      16.55261145       4.18877974
Si       7.91225105      17.06683011       4.58176741
Si       8.38468036      13.51183216       3.78820613
Si       6.89295918      14.96823535       4.87601317
Si       5.11356487      14.83216192       3.34573394
Si      17.74770002      40.01887517      20.96894323
Si      19.95884342       1.39256689      24.70882112
Si      18.07665738       1.77591391      26.06555329
Si      18.70992302      38.71340669      22.67196226
Si      17.15241082      38.32521562      24.39064840
Si      15.57101661       1.92577360      23.27094102
Si      15.21418268      37.57186572      23.29238719
Si      16.45818312       0.50785455      24.92407856
Si      15.50646081      38.96443033      28.35823496
Si      14.81519290       0.36560824      26.60061531
Si      12.97391125      38.97709080      26.14000485
Si      22.17976821      21.03144315       4.94719217
Si      21.30776963      18.08611133       8.05884163
Si      21.73354332      17.21030860       5.91808900
Si      23.15202109      17.71013898       9.46833597
Si      23.17070343      18.90903961       5.15689417
Si      24.94056114      19.09503141       6.69426967
Si      21.59885696      25.07862901       7.13423520
Si      23.70324675      25.21387780       8.17537148
Si      21.73606528      21.29509123       7.24171921
Si      23.30154578      21.53709686       8.97990549
Si      24.54269421      19.53962634       8.96902399
Si      24.84370066      23.15880090       8.25716481
Si      26.48590213      23.05645832       9.93743268
Si      21.10238166      21.35803571      18.21196310
Si      20.40415019      20.77751090      20.38128087
Si      18.96738414      18.96974883      19.93616862
Si      23.37903223      20.18530912      15.16194581
Si      22.84962066      16.35531396      14.10724679
Si      22.33314929      19.63164441      17.19431491
Si      21.05342991      17.66038635      17.10957081
Si      30.89829528       3.10283102       5.20602781
Si      27.09836869       2.78022845       5.53948699
Si      24.95567375       3.41927613       4.81063102
Si      24.94193800       5.76531118       4.64607531
Si      28.83543360       3.68968185       4.24145328
Si      28.93887142       6.97493601       6.33758402
Si      28.44413158       6.00850789       4.25154410
Si      30.23101702       6.61627166       2.84883246
Si      25.14089854       6.90581294       6.69339664
Si      16.24933675      37.98958449      16.97926048
Si      14.92701642      34.89393623      14.99220148
Si      15.05235634      37.26879279      18.87090374
Si      16.50835213       0.30162728      17.32338518
Si      14.49894459       1.38129279      16.74829724
Si      14.11254003      34.26878211      12.87645659
Si      15.35594151      37.20598499      14.94966728
Si      13.27777148      38.27664819      14.68376493
Si      13.27392555       0.62411528      14.88443645
Si      12.54271770      37.19250523      12.59770267
Si      11.16112558       1.47720981      14.29439064
Si      33.37425581      30.85498175      36.86019138
Si      32.63185228      31.90581128      34.89174078
Si      30.62910314      33.10122722      35.19239105
Si      28.96305873      37.71527549      30.01579426
Si      26.20464579      36.87806622      31.71298866
Si      30.04386657      34.58478477      30.18217524
Si      29.31339885      37.69084122      33.50227968
Si      27.05670906      38.34720281      33.58610213
Si      26.36676292      37.44631892      35.64616809
Si      26.63744307      33.70496788      28.58201785
Si      25.75960002      32.95563876      30.62549226
Si      26.50875854      34.58703225      32.13888635
Si      26.68758619      35.15208188      36.05508934
Si      25.83388379      33.87828293      34.27390120
Si      23.50931051      34.13521508      34.51445336
Si       4.27397689      29.98510744      32.70605330
Si       0.41941554      26.53625518      30.78131991
Si       1.13863961      30.56603186      31.16965535
Si       0.10718896      30.86454271      29.07743650
Si       3.37731917      27.53188188      34.18965942
Si       0.98790399      28.29942677      34.28009508
Si       0.61503699      26.19732593      35.26667532
Si      38.31813378      26.68905689      35.37561471
Si       0.67723174      32.48896030      32.44288865
Si       0.60405401      30.35843954      35.35005031
Si      39.90480568      28.47263385      32.01250077
Si      36.97727421      29.06455682      30.31136912
Si      37.69914005      29.08571028      32.54942567
Si      36.84426091      27.16712740      33.60662991
Si      37.66345307      26.53485054      37.93020406
Si      38.24602315      23.73195024       3.98374747
Si      37.14782969      25.67782372       0.05860858
Si      38.02733592      26.83928300       1.90464013
Si      34.93243365      29.20860635       1.89000463
Si      35.08901132      25.99131485       4.26595398
Si      37.42376735      25.93518750       3.98997932
Si      34.39696038      28.21713980       3.95415485
Si      40.00041819      26.43906847      37.68528542
Si       0.29617314      26.73334791       1.29515792
Si       1.09959179      27.72420479      39.31952378
Si      37.37483859      29.08002022       1.61530243
Si      38.32705512      30.30300609       3.38392579
Si      38.99679807      15.12118215       7.99920852
Si       0.32889186      18.44138899       7.19402907
Si      37.28425111      17.95698791       9.66589145
Si       0.94147364      16.42255784       8.23217159
Si       2.54425547      16.31164304       9.94887696
Si      37.98348510      15.74117364      10.02877557
Si      39.36648455      15.82445400      11.92895907
Si      39.21120682      19.19073045       9.12265636
Si       0.43326724      19.45606918      11.11425385
Si       4.33638928      17.80026508       9.62945342
Si       5.61916863      17.51022897      11.57865761
Si       3.56968391      20.80418810      12.79124527
Si      38.17105782      16.79168329      13.70816524
Si      37.36885143      18.99435130      13.52149788
Si      39.18349021      20.35174401      12.89360494
Si       1.18332337      17.28157398      11.60321988
Si       3.06437746      15.07559870      14.29851067
Si       2.48426065      17.29777429      13.79284801
Si       4.33570958      18.62249988      13.20387222
Si      20.90922269       9.93220159      26.63955691
Si      24.27398029      14.85266425      29.14432796
Si      21.85725409      13.36758902      26.81656150
Si      24.44900545      11.00737045      25.89105336
Si      23.71055039      13.18097176      25.38065361
Si      22.53986397      13.27944014      23.34425766
Si       2.71716900      24.34409041      31.48940245
Si       1.63303925      20.92060185      29.77007347
Si       2.04375534      20.22745308      26.40430823
Si       2.69569278      19.28408820      28.45744762
Si       3.32980310      22.74430831      29.87825099
Si       5.56221733      22.11409713      30.26499378
Si      37.85140979      24.19311334      23.94871468
Si      37.25999968      28.64613066      24.94984177
Si      35.67406309      26.91779036      24.81159302
Si      34.61693849      26.55426714      22.74404750
Si      35.98811782      24.64231863      25.31095427
Si      34.30541535      23.00225889      25.39324576
Si      11.86271393      39.32183553      11.85962238
Si      11.89611925      37.51372388      10.36187804
Si       9.66345489      37.12678731       9.73610922
Si      11.07050973      38.48133718      13.90055335
Si       8.87933070      37.74695572      13.47332525
Si       8.74198463      39.20144732       9.12359118
Si       7.89850280      39.65955170      12.52134984
Si       6.45996663      38.83041195       8.69438131
Si       5.57166174      39.34218247      12.40522553
Si       7.81021026      36.96853515      15.41640172
Si       8.64069019      36.26043026      11.66787387
Si       5.34462034      37.91410085      10.55079977
Si       6.35024746      35.91215958      11.26562491
Si      36.00865115      20.21859075      27.86110058
Si      36.93037484      23.74828834      29.37960921
Si      37.94275760      22.52519353      25.60423981
Si      37.41771240      24.23361056      27.13194893
Si      39.07256391      25.89933395      27.01541239
Si      24.75109848      29.33009319      10.85272336
Si      28.51421648      29.46477589      10.41827116
Si      26.55628728      26.42089209       9.13393066
Si      26.58733930      30.78823554      10.67323958
Si      25.98172086      31.83300863       8.65632777
Si      24.54497703      27.63526733       9.23538492
Si      24.00269051      29.02946395       7.42026033
Si      22.72332420      30.48522943      11.14428938
Si      22.31156235      31.98279241       9.37774297
Si      24.16399105      33.31385467       8.80910063
Si      22.13232516      30.44551346       7.60225658
Si      28.27605765      27.94603532       8.63879585
Si      27.80206120      29.16720620       6.68605572
Si      27.85277576      33.17070586       8.17035987
Si      26.19983174      25.03637015       7.26764778
Si      24.23105270      27.81955555       5.41609135
Si      25.80603658      30.40450793       6.79770880
Si      25.31233045      31.66091447       4.87252061
Si      27.37406119      32.70608078       4.44190313
Si       7.87159661      24.48160110      13.79238017
Si       5.01563750      26.89854261      15.08205993
Si       6.53459849      26.36901600      13.36662978
Si       8.01716462      28.19164351      13.46583460
Si      10.65391278      26.34879615      15.49227027
Si       9.44436369      28.21623672      11.59733707
Si      11.80537166      26.24120723      13.44463303
Si      13.46944224      27.90250051      13.48159319
Si       7.86457661      28.73893940      17.01887706
Si       9.44918358      28.36107535      15.32303874
Si      12.20929249      29.87068161      13.21958106
Si      10.85615668      30.23292118      15.10846651
Si       9.65175198      32.25198063      15.05539386
Si      12.18121583      30.26205899      17.05101734
Si      14.85947905      28.42293063      15.30569955
Si      17.32330394       5.40525770      20.37902654
Si      14.94205569       8.12633087      19.26764019
Si      18.96296931       6.05889407      18.82716695
Si      16.39578881       8.49395745      17.45605626
Si      14.16297000       5.48492864      21.81785416
Si      17.74414144       3.03949709      21.27646497
Si      17.53151556       1.70963228      19.34872141
Si      12.38318987       6.92489414      16.45496722
Si      15.11323086       5.82000099      19.69327777
Si      14.99315634       4.32774175      17.87959180
Si      15.29256852       2.18895381      18.81141170
Si      12.82386890       4.69366008      17.04979364
Si      12.48800211       3.10136315      15.35385203
Si      19.12680732       2.43835301      17.78203747
Si      37.62080339      31.60534191      27.74344544
Si      36.92992310      33.49954179      28.95237578
Si      34.81210677      29.35060888      29.43837910
Si      34.14966150      31.26199205      30.63910842
Si      34.66881293      33.29121050      29.56588548
Si      10.72001197      33.26821026      12.32823589
Si      14.30471223      31.51179355      13.18981491
Si       7.47487206      32.72287890      14.30058898
Si      10.87902535      35.23087968       9.05950230
Si       5.73373186      33.37934832       7.89309244
Si       9.42985658      35.84795051       7.31307723
Si      12.52582667      31.89852893      11.70107292
Si      13.83285928      33.24517282      10.28440738
Si       9.57111221      33.74807001      10.33313595
Si       9.03966267      31.73437826       9.24073851
Si       7.70980312      32.21972691       7.36286393
Si      15.56453699      23.51240125      39.01237006
Si      14.68531682      21.78411287      37.68383340
Si      17.36577115      21.98608246      35.33401336
Si      16.38242419      20.42442765      36.79155452
Si      15.68730377      18.55638994      35.54572175
Si      11.74274863      25.11639145      38.73567937
Si      13.53635469      20.60305303      39.35981174
Si      12.74623596      18.62386368      38.37712032
Si      12.82514976      22.48618924      36.42984440
Si      13.78007759      18.98496139      34.23891041
Si      12.31554390      20.48833973      35.29944295
Si      11.18241974      18.93058575      36.64921966
Si       2.48414041      16.74700675      26.98813061
Si       2.03927805      16.00120067      24.80261555
Si       1.93586759      13.65238170      24.75237282
Si      38.53408783      16.68251048      24.91795919
Si      38.22567900      14.35364381      24.81697906
Si       0.45182965      16.20064174      21.64742977
Si      39.84837930      13.93165182      21.78148025
Si       1.72899215      12.76905444      22.58283152
Si      37.71227832      13.52504023      22.67710400
Si      37.52074481      11.18243625      22.75378320
Si       0.31575553      13.79419826      28.06920023
Si       3.67429066      13.70980017      27.87416551
Si       2.04605941      12.76018465      29.28041376
Si       1.45215682      10.50019123      29.01559165
Si      36.33719903      13.78349480      26.09588474
Si      39.93028177      13.10879623      25.85308734
Si      39.57546560      10.78572863      25.93186465
Si      37.59592071      10.37134443      27.13154577
Si      37.16395765       8.06016570      27.12350972
Si      35.53574019      10.70569472      23.92161058
Si       5.61140107      25.29832649      16.69908713
Si       5.67099690      21.91586200      20.72580966
Si       5.15179779      21.65067163      16.56060316
Si       6.80027559      19.85753301      20.57171464
Si       6.37049944      19.64278162      16.68775643
Si       4.23653374      25.82382410      18.53313837
Si       2.72077642      24.04202769      18.77185063
Si       4.36843255      22.14096282      22.66918731
Si       3.27155502      24.20977797      22.45636209
Si       2.82240425      20.38082640      22.87025810
Si       3.43523243      21.71170908      14.95531245
Si       2.33420361      23.78901288      14.93175254
Si       1.24085927      23.58195936      17.00326043
Si       3.86089016      21.98696728      18.70352074
Si       3.60438693      18.14559306      19.02851905
Si       2.40933670      20.17063880      19.05456883
Si      26.25184814      20.02558081      20.69132769
Si      26.22042236      22.24025542      23.91876574
Si      23.26531630      23.27637886      21.11706928
Si      25.42872695      23.82950325      20.37935429
Si      28.27411203      24.47397985      18.09998767
Si      25.90560088      25.92021818      21.34475101
Si      26.57354299      22.17306531      21.59447538
Si      28.88676250      22.54884996      21.79107648
Si      29.12649739      24.81981225      22.35321548
Si      25.97598257      34.48975995       1.67595391
Si      22.25980794      33.89971238       0.84312085
Si      26.72798649      33.84141882      39.53979240
Si      23.31797317      30.87973002      38.29443383
Si      23.56821668      33.77508651       4.29050516
Si      28.03147210      34.21613700       2.76448576
Si      20.45733969      32.55049020       1.50964031
Si      19.65332976      32.84304592       3.69844181
Si      21.64113775      32.58816774       4.92882713
Si      24.10046324      33.12984657       2.09339073
Si      24.55491235      30.82491062       1.97289444
Si      21.58832027      29.57993464      39.21644597
Si      19.72244057       5.69935619      35.04679825
Si      18.31819847       6.20993374      31.46713385
Si      19.55437956       2.80942134      32.54120699
Si      21.28495806       4.39372963      36.22312885
Si      21.03279201       2.09340579      35.80455824
Si      23.49887066       4.76447389      35.52212936
Si      18.67301891       5.65005770      29.21096727
Si      19.91090640       2.45624638      30.24413966
Si      19.93573059       5.11758073      32.77846625
Si      22.08245200       5.58285796      31.93893296
Si      23.79134552       4.56922287      33.19690251
Si      23.44306029       7.11145644      35.65925831
Si       3.41753743      34.88361186      14.07601149
Si       2.31182607      29.68619624      14.47468283
Si       3.60952812      34.40513228      10.05497058
Si       3.19376981      33.22985713      12.24071630
Si       0.58182516      31.26908734      14.29595090
Si       1.01299390      32.34978322      12.25227517
Si       9.72751658       8.67259270       6.12423185
Si       9.76873502       6.33311913       5.88834990
Si      11.99484428       5.74343121       5.41171535
Si      12.24098495       5.44633539       9.16281508
Si      10.68098391       9.49985947       8.10842501
Si      12.85225407       8.84793175       7.48379564
Si      12.83397967       9.11929763       3.95275481
Si      13.94699224      10.06515231       5.79605586
Si      16.03228038       9.22760721       5.10449778
Si      13.56805527       6.27991588      10.91644608
Si      13.47587690       8.58671848      11.36456564
Si      14.25660026       9.38028362       9.29314830
Si      16.57792967       9.08340598       9.06315464
Si      13.17090911       6.52595861       7.29189722
Si      15.45077180       6.03781727       6.98332152
Si      16.11694487       6.88723696       4.89368574
Si      17.05766311       6.78737309       8.89920273
Si      17.28631187       9.90118700       6.97548574
Si       7.73105267      16.36603578      24.53868586
Si       4.03833142      15.59295112      23.63295889
Si       5.56147782      18.97092100      22.74995728
Si       6.20352712      14.70628630      23.87174837
Si       6.43541818      13.63960830      21.78855769
Si      11.40400046      18.60794126      23.36131941
Si      11.77292102      17.74747216      20.97311066
Si       7.67642018      17.94361308      22.79535674
Si       8.24022848      17.08834831      20.67867587
Si       9.94414623      15.56952590      24.53571580
Si       8.67172557      12.93999904      21.99703375
Si      10.27135222      15.93769252      20.96116635
Si      11.08255756      14.94383753      18.99043095
Si       4.00962359      17.34318742      22.06243360
Si       4.38046865      16.17711428      20.05419698
Si       8.13815053      18.73065994      18.99889787
Si       8.53714604      17.42360492      17.08475912
Si       4.89905141      16.95883191      16.31419125
Si       6.60220495      15.44629672      20.29452804
Si       9.30694501      13.69522564      18.08593542
Si       6.98448177      14.50731896      18.17346325
Si       6.98124073      15.86758658      16.25565420
Si      10.67370338      16.45229402      17.23328975
Si      25.30912661      38.62746877       9.59431414
Si      23.79603086      35.31388312       7.63216233
Si      23.31273869      39.70400455       8.97393226
Si      23.76010835       0.62251734       6.85651986
Si      21.89850745      36.67116100       7.35528778
Si      22.08091029      37.54716582       5.18249739
Si      21.63407759       1.60200319       6.63943842
Si      21.71083716       2.88539481       4.35450374
Si      20.51599132      40.02238590       2.56314004
Si      25.23524865       2.45106524       6.93554740
Si      23.92981027      38.99945625       5.16424399
Si      22.33068948       1.51221670       2.55164990
Si      24.23125763       0.31149852       3.23676157
Si      22.33396425       2.46140509       0.40165661
Si      24.47269194      38.75077854       1.49475666
Si      24.15375719      15.83838313      25.40464656
Si      28.02135616      16.54426305      24.22617190
Si      26.72020485      13.53715580      23.14594301
Si      24.58349634      14.41814538      23.58030963
Si      26.01602556      18.71224084      26.74142877
Si      27.49412469      20.51026572      26.40514723
Si      25.89068698      17.32325457      24.84727104
Si      25.25239753      18.79613194      23.12694953
Si      29.53297241      33.36225575      32.12522317
Si      29.01225283      35.50195732      36.08806156
Si      30.67648111      31.67355946      30.95423686
Si      25.77675918      33.01898476      36.45952473
Si      24.21957380      31.95859831      35.05184039
Si      28.17230906      32.38552665      33.77611099
Si      26.61417263      30.99160537      32.69921282
Si      36.66788990      29.00002570      35.06932051
Si      37.03913744      31.34172379      32.48565249
Si      38.26622224      33.08871696      31.49964832
Si      34.86839855      32.04775650      33.05077102
Si      26.64419100      30.39222307       0.71230254
Si      28.10540075      27.22251662       2.41384282
Si      30.59273587      29.44106502      39.51798914
Si      28.92764069      27.99304206      38.70486988
Si      25.90594192      31.30996535      38.67690220
Si      27.31333378      28.15840898       0.40701603
Si      25.30784121      27.02724306      39.92829665
Si      24.63499576      28.04119709      37.91592366
Si      26.20581947      11.58999823      21.93167286
Si      26.49354813      10.19479850      19.84649300
Si      24.20762519      10.05207279      19.31406298
Si      24.91328909      10.59105979      23.62348849
Si      22.82709895      10.09147031      22.65984895
Si      22.79707672      11.73426595      18.47149955
Si      21.38062711      11.79770544      21.93401565
Si      24.01576582       8.74482644      17.36919393
Si      22.03133869       7.77249601      16.56610558
Si      23.18133633       8.61348482      20.86512773
Si      21.04991300       7.91339880      20.15968693
Si      21.22808376       6.44419914      18.33181144
Si      27.96427031      23.88194028       8.30556594
Si      27.79253225      21.43183352       5.81207414
Si      24.36830011      16.68780234       3.12909238
Si      27.77017890      18.38764883       3.31656833
Si      25.45642194      21.61111650       5.61001480
Si      25.45040799      18.77108616       3.26998525
Si      24.72696401      20.15333921       1.51028185
Si      30.99416571      20.31225055       3.84317090
Si      31.87615261      21.82646094       7.89491600
Si      28.81466251      23.52380194       6.14247545
Si      31.15776101      23.39405634       6.29584360
Si      31.92182676      22.45698082       4.10785486
Si      28.39819718      17.58055878       1.19886924
Si      28.65067986      20.50764410       3.82718624
Si      27.74686083      21.71976549       2.02604546
Si      28.48554550      23.93868419       2.27354954
Si      28.82058800      20.97980105      39.84476378
Si      28.90762054      15.91075548      38.54678175
Si      27.30866009      15.13493642      35.57693831
Si      22.27859713      16.10516211      37.21831126
Si      25.70484607      14.57428192      33.94487648
Si      27.97413172      12.87800476      35.61307626
Si      25.41673439      14.14330251      38.56324008
Si      23.24505824      13.73120418      37.35859953
Si      36.80273922      37.96191758      16.18792968
Si      34.77435409       0.52675077      11.79018330
Si      36.46249591       1.14874393      18.05556528
Si      36.36563063       0.25247201      15.88358515
Si      34.03002886       0.34138670      15.62383889
Si      33.93852618       5.97215722      13.91004577
Si      34.61504892       3.72456783      13.76450329
Si      34.15415129       2.79119557      11.65573993
Si      33.65252912       2.66257923      15.62898839
Si      31.35696477       2.32567412      15.24447139
Si      33.07708895       5.70040336      17.38568825
Si      36.62054134      36.96706110      14.06486165
Si      34.33311736      37.14405975      13.54891022
Si      33.86998396      33.65822531      15.44772504
Si      33.07834095      36.01646152      15.18721105
Si      33.63973729      39.39083263      13.50852945
Si      30.91462677       1.64182998      13.03835034
Si      31.37120255      39.33961229      12.89083163
Si       2.75178746      39.07063772      26.91078620
Si       0.79084016      37.80270122      26.63238459
Si       0.10851737       0.12325149      23.41611418
Si       0.95931715      36.01577052      25.11285009
Si      39.22368189       1.43782877      26.84130088
Si      37.96555597       0.36734905      28.51502851
Si      38.70278205       1.76154093      22.48313971
Si      37.67106079       2.95177033      25.93149122
Si      35.60711436       1.83053109      25.81802990
Si      39.49568375      39.46567368      25.58932134
Si      37.60405887      36.60352441      23.47894684
Si      37.34949270      38.57430939      25.22668568
Si      36.23308581      37.60973600      27.05784966
Si      33.00081904      35.53089207      18.45902848
Si      31.95231645      33.66109291      21.29214429
Si      34.94581254      36.31161027      19.52553662
Si      34.85399455      38.41247418      20.57972845
Si      33.81911297      34.39605255      22.51891807
Si      33.58957913      36.36279730      23.78732044
Si      36.60542595      39.15869016      21.96068861
Si      35.64561399      37.03804255      24.70657598
Si      31.18601060      35.43474273      19.95144509
Si      31.32420634      37.36560270      21.28638081
Si      34.03364125       0.00380087      19.05508769
Si      33.76337694       2.02914314      20.21908511
Si      30.10535135       1.07699158      20.79559831
Si      33.25500035       3.79113482      18.74701501
Si      30.75924299      33.38954611      23.30085750
Si      30.48971592      35.50395239      24.29641726
Si      31.90082046      37.88664248      26.51244446
Si      29.47127020      36.79534506      22.61579085
Si      29.42278116      39.80051921      23.67200817
Si      33.28274993      38.16672443      22.31088540
Si      34.91790194       0.36699342      24.11124498
Si      32.70173160       0.19767096      23.34320520
Si      32.05800207       1.87960962      21.83125899
Si      31.26363633      39.68081035      25.13053002
Si      31.82757811       3.78981024      23.18328189
Si      35.63920770       2.66802407      21.48527108
Si      34.00505324       4.61768762      24.19009669
Si      24.61913876      36.96997110      12.05513745
Si      26.44709222      33.59589829      13.01087646
Si      24.66287615      34.62509539      11.87249327
Si      22.73679236      33.84000091      12.96739375
Si      24.62726368      37.62268703      14.31457587
Si      22.63556401      36.87750487      15.31872425
Si      24.49993565      33.63339938      16.32868181
Si      22.67380756      31.50790162      13.26147824
Si      22.69972925      37.64592099      17.54038698
Si      24.35531444      34.45959843      18.52572963
Si      22.63302122      34.52827360      15.21339231
Si      20.71564446      33.69850996      16.29281097
Si      11.22907947       3.03449822      38.05658595
Si      12.44254292       4.85963409      37.20191111
Si      14.45599099       5.22740566      38.79510477
Si      14.27632441       1.40270709      39.65651132
Si      13.13375790       2.22925866       1.53949074
Si      17.39665971       3.81289208       0.39843173
Si      12.07643520       7.68259076       0.86036832
Si      13.07754601       9.67573542       0.11569886
Si      10.95199016       8.24197743       2.84844337
Si      13.38286791       5.72764916       0.82693371
Si      16.51389309       4.34535190       2.51167693
Si      15.00318253       6.14764009       2.47880546
Si      16.35644508       7.92315720       1.73935064
Si       8.12239898      12.67470021      28.93626874
Si      11.97289012      11.33225074      29.09383752
Si       6.01430944      12.62737620      29.97483426
Si       4.36981957      11.59955367      28.64459226
Si       5.82217825      11.03344960      31.69305937
Si      11.45090010       6.86887632      28.68119160
Si       7.47970798       6.14329844      28.38713964
Si       8.43165407      10.40188965      28.42047512
Si       8.57971327       9.13530930      30.39622155
Si       6.42343015       8.79929392      31.27252642
Si       9.28895233       7.04328579      29.58967347
Si       7.33599517      12.10418994      33.55527681
Si      20.93462347      29.43335916      27.10607938
Si      24.64955140      27.25614558      28.89331520
Si      24.84948878      28.68359592      27.03526182
Si      22.75865226      28.46454911      25.98156102
Si       7.35790783      39.22385853      26.02682246
Si       4.74974857      39.48308813      28.50620591
Si       1.95224179      39.29409539      30.69948668
Si       4.05510725      37.34123010      27.82785169
Si       4.99685848       1.76554957      31.72876374
Si       7.09366636      39.57189313      28.33755558
Si       7.62237624       1.79443091      28.89557285
Si       8.26679728      37.94921766      29.57088804
Si       1.27497047      39.21320344      32.94956949
Si       4.25926531      39.73932314      30.79165610
Si       5.28724195      38.01941340      32.02243386
Si       7.62858040      38.12309056      31.82761627
Si       8.40917640      20.01847419      35.83033374
Si       6.53973519      21.83446454      38.66233602
Si       9.05482183      18.60556261      37.59585654
Si       8.02172081      16.54801762      38.07415148
Si       6.23168279      20.52411438      36.55851474
Si       5.92302542      17.33909069      38.78131219
Si      36.75382085      34.20500860       0.49883084
Si      38.45221290      34.01565434      36.90601453
Si      38.87928551      37.18273990      39.01405844
Si      39.51852656      32.43745109      35.52642585
Si      38.18647734      33.05065663      39.03410005
Si       1.38234186      33.93254594       0.39429467
Si      39.92167982      32.09192741       0.29917445
Si       0.87387119      30.63186140      38.72057251
Si       4.92668999       4.91119437      28.89821346
Si       2.68431591       5.23410349      29.52906161
Si       3.30712407       3.24510534      32.42306449
Si      40.07379998       1.01110901      33.87258758
Si       2.46620703       7.00591910      31.05989170
Si       0.17928667       7.10315636      31.59862427
Si       0.51848910       4.97395456      34.49179455
Si      39.67951313       3.60270529      30.93885368
Si      38.61309528       2.06341300      32.36104370
Si      39.17673795       5.21371610      32.57611685
Si      36.89089139       5.76291120      32.62278379
Si      38.97140281       7.85601863      29.50856014
Si      12.32276907      36.85053394       8.15149149
Si      13.74441174      35.11574056       8.86292761
Si      15.24494299      35.99872783      10.74843029
Si      15.20609235      39.57451734       9.81592314
Si      14.08936444      40.06755431      11.82148352
Si      17.64079052      36.97792762       8.30277413
Si      16.67882913      37.80343601      10.28274952
Si       8.53544624       0.77984079      36.56207604
Si       9.01702220       5.34288500      34.14715471
Si       8.05713569       2.87311775      37.52288226
Si       6.25960106       3.97453323      36.48164187
Si       6.90686431       8.41313818      33.80019851
Si       8.72521968       0.70964927      34.21960267
Si       6.90336921       2.02021893      33.51736021
Si       9.22742985       5.46718754      31.63084669
Si       7.35651661       6.67709658      30.87868495
Si       7.25757165       2.12584247      31.19506079
Si       6.93437937       4.25553921      34.24672299
Si       5.06357435       5.45053552      33.47134716
Si       5.43750592       5.34577659      31.15212811
Si      16.64357102      32.80136596      13.13756632
Si      15.96424880      33.79003507      11.11501202
Si      17.43313124      34.48008914       9.41319624
Si      19.60090471      35.05216796      12.40738124
Si      17.97291249      30.98407718      12.45877537
Si      18.79901125      32.60284730       9.03809877
Si      19.66373800      31.91162394      11.11294450
Si      20.50493004      33.09978601       7.49735988
Si      22.79524246      33.92651175      10.61794519
Si      18.63265436      36.14391080      10.56329314
Si      19.68217127      37.44512053       7.23409227
Si      20.53473721      36.62624035       9.26827411
Si      21.58759369      38.56159478      10.09084501
Si      21.76333562      34.71560818       8.65528894
Si      19.42274490      34.10600319       5.66780353
Si      19.61268531      11.03871678       0.16610833
Si      20.48332074      11.09408206       2.34978809
Si      23.11565678       8.60438915       1.40214349
Si      22.07523235      12.78883955       2.70078212
Si      22.72620657      12.73937938       4.95999961
Si      18.64249491       7.42781433       0.19584467
Si      19.60628899       7.34692284       2.33934857
Si      18.66671285      11.34665091       3.82134017
Si      16.90160184       9.99300150       3.05825111
Si      18.89391574      11.41174555       6.16090203
Si      17.88589845       7.99261826       3.80708753
Si      18.14399618       7.87844656       6.14179948
Si      21.23291218       4.74717134      39.24466537
Si      22.29860936       4.64975990       2.19672992
Si      20.24098496       5.24043640       3.17023679
Si      21.08656570       4.92383301       5.34198200
Si      21.27378393       8.93154315       2.82677717
Si      23.59843634      10.60514134       5.42150168
Si      22.04092098       8.88388557       5.04868843
Si      24.23216672      10.36031153       7.67236018
Si      19.99078509       9.33310429       6.10745922
Si      22.50870081       6.72411635       5.85102814
Si      20.41408061       9.13978459       8.41217081
Si      23.23953981       6.91299488       8.07754960
Si      22.43046100      11.34498163       8.81820239
Si      25.74532327      31.23419661      28.53303075
Si      24.95990525      30.76391083      30.87808850
Si      24.37678195      28.48989533      30.87597156
Si      14.06983576      32.03132914       3.10855835
Si      14.32105708      30.22342433       1.62557171
Si      16.51508030      30.03227564       0.80024084
Si      16.69696919      27.44712309       3.83755814
Si      13.29024922      26.91274176       0.98868065
Si      16.57473596      28.24869741      39.26989134
Si      16.75999766      25.65766698       2.31671396
Si      18.80851705      27.72458785      38.75473058
Si      17.47973462      30.86844507       4.52897194
Si      17.70525704      26.35787117       5.66075599
Si      17.86463204      28.16374748       7.15778534
Si      20.01606915      26.02841309       5.37343053
Si      18.67168662      30.26014543       6.46265333
Si      20.84468598      29.65247051       5.79802484
Si      17.60324476      29.32600353       2.75896663
Si      19.85322686      26.82311739       0.65869400
Si      19.76106816      28.53578313       2.26624315
Si      21.07106852      30.28470261       1.39954473
Si      20.87830737      27.89631043       4.23228376
Si      19.67929399      29.71227779      37.84927395
Si       1.32154678      35.97718840       4.60600158
Si      38.69847028      33.18594621       4.17933012
Si       0.07946460      37.10365760       6.25485245
Si      37.95857823      36.55372300       5.40051087
Si       0.67101845      36.55075010       2.42009712
Si      37.44064402      37.61349303       3.36593570
Si      39.71889080      34.23818175       8.23146349
Si      37.41743783      33.98096547       7.82136835
Si      37.15017033      34.34836311       5.51397322
Si       5.66367033      28.92509950       8.79126164
Si       5.79015327      28.52396484      12.78873549
Si       3.21476543      30.71782110      11.26250634
Si       5.76885204      29.53862473      14.91016087
Si       5.38915794      29.89104488      10.91773534
Si       6.75447393      31.79452947      11.12523798
Si      33.45585757      28.73518720      37.87507813
Si      32.19584462      31.20965611      32.68821977
Si      31.89505991      29.71153860      34.47585416
Si      32.56069108      26.08208031      35.36798845
Si      32.56519394      27.63398700      33.60098080
Si      34.77357449      28.02273094      32.89223290
Si      36.14009487      27.00811992      36.20220709
Si       3.99177800      13.27680008      30.97975096
Si       6.38212095      14.20435258      32.40721071
Si       6.61998374      16.50085268      31.96013419
Si       5.15910773      15.61864427      28.53747899
Si       3.46353242      17.15247689      29.08740601
Si       8.82674812      14.91454861      29.04979684
Si       8.70775839      16.64728819      33.03249961
Si      10.41323956      15.13499200      32.45326953
Si      10.83151671      15.43915674      30.15902190
Si      11.47311097      17.65338731      29.69425030
Si       5.31609769      16.07484022      26.23593216
Si       7.15854726      14.63120178      26.01962046
Si       6.19933870      18.17996691      25.67217467
Si       9.33731975      15.11326274      26.76241343
Si       9.81896686      17.31836553      26.10119343
Si       7.08429050      16.37087228      29.65865546
Si       5.76328767      19.87123864      29.58766548
Si       7.68236065      18.58630116      29.14588325
Si       9.73392514      19.17417455      30.13312492
Si       8.14253575      18.78762814      26.84876325
Si      15.36186685      24.95945679      36.02971150
Si      11.67302801      24.34577687      35.56829470
Si      13.38052860      26.80139045      38.64134795
Si      15.37863686      26.86865205      37.40293761
Si      11.71220289      26.37778345      36.75117114
Si      15.15803853      28.99181626      36.41603977
Si      17.49154745      25.15123970      35.05079025
Si      17.73596507      23.54526989      33.35049278
Si      15.79458731      23.17451500      32.07629961
Si      13.68484522      24.69818005      34.40286469
Si      13.80801655      26.60571872      33.03336384
Si      15.73163978      27.25454237      31.84663905
Si      17.08981532      29.42162350      35.14616499
Si       9.22353841       0.55779892      25.50682729
Si      12.80098927       0.38997462      21.59493717
Si      11.56656731       0.75810372      25.52534617
Si      12.21889438       2.83378020      24.63319679
Si       8.67307220       0.17951294      23.25202137
Si       9.26395604       2.26160502      22.10019999
Si      12.97942925       2.06346421      18.40960072
Si       9.22752968       1.73747112      19.80799302
Si       9.47627477       3.72890751      18.58206085
Si       7.96197414       2.31437990      26.43026192
Si       8.92183029       3.92341601      25.00912713
Si       8.13746249       4.19999748      22.80944320
Si      11.58823740       2.21217395      22.45462573
Si      12.30008309       4.14141364      21.31404478
Si      11.77093779       3.98382893      19.02844467
Si      34.58788254      18.82748471      31.34333212
Si      33.74726917      19.18224732      29.17585537
Si      30.24218760      19.76495321      32.07185969
Si      29.78931948      19.60120495      29.77011856
Si      26.12171112      20.08086359      30.73577150
Si      31.32639734      16.11719907      29.02153414
Si      31.55797386      18.44077587      28.74267986
Si      34.85045323      16.27770256      12.75971985
Si      36.30544338      15.57967137      14.47019904
Si      35.75402014      13.66843450      15.72450578
Si      37.94193777      15.16737006      18.29258244
Si      34.36471388      16.08870454      18.46664426
Si      36.20371324      15.54970456      19.82975590
Si      35.70309687      13.59828493      21.04292553
Si      39.44280722      12.77372360      15.58941594
Si      35.31222478      11.92410883      14.21047724
Si      34.68864264      10.13309459      15.60109788
Si      34.63576024       8.18719490      14.28155977
Si      39.84169501      14.47435608      19.49326043
Si      37.64347999      13.19805597      17.04275254
Si      35.13268547      11.82361017      19.60925336
Si      37.07057924      11.34146184      18.36736693
Si      34.78024805       9.78263893      20.72280102
Si      36.61407350       9.60810114      16.84508540
Si      36.28991619       7.61438040      18.04941262
Si      34.40674174       7.84854059      19.43838061
Si      29.23101668      24.66633504      38.07529399
Si      28.81508289      25.62429033      34.17120492
Si      30.44613846      24.02733785      34.73674997
Si      25.97067373      23.50949611      35.46506242
Si      27.59289910      21.88078455      35.96117281
Si      27.90233695      23.12379650       0.14597710
Si      26.69992368      20.88952845      37.89776248
Si      28.68824834      21.49464275      32.42215558
Si      31.90157284      21.10987031      33.34760783
Si      29.62559021      22.86859008      36.61143730
Si      31.16586122      21.18786466      37.18865169
Si      31.52529017      19.63487822      35.45963526
Si       5.03050922      12.51868659      33.33585778
Si       3.20488719      13.98216245      33.07752636
Si       1.49833382      12.36194492      33.05669699
Si       2.80703852      14.69864584      36.56596942
Si       1.07808788      13.11674214      36.78304646
Si      39.16362539      14.33553397      36.17212832
Si      37.33502605      12.88141884      36.44178785
Si       5.02796614      11.61567249      35.50800722
Si       3.17118560      10.20489004      35.81857763
Si       1.77482344      10.63233918      31.48725685
Si       3.83449146       9.55223979      31.83601622
Si      39.76529870       9.41226251      31.42673251
Si       3.28264960       8.74823967      33.97558868
Si       1.63370713       7.08202930      33.79890369
Si       1.34095846       7.69963191      37.81182378
Si       1.24154560      11.39399280      35.18637232
Si      37.74502199      11.29352836      34.75989064
Si      39.49300971       9.83404235      35.33984750
Si      39.67695192       8.35450884      33.52419746
Si      38.81790572       8.75378683      37.31430863
Si      38.15047040       6.76262029      34.33843907
Si       0.00178828      13.70313853       2.59453356
Si       0.92952587      11.53864881      39.92450946
Si       2.04639251      13.24162010       3.66057998
Si      37.22788629      12.40441808       0.38363474
Si       0.32510013       9.47769949      38.96745828
Si      40.08299227       7.59769273       0.35905886
Si      39.20129608      11.78147920       1.50071811
Si       1.10484239       9.65937090       3.87063184
Si      38.95013793       9.97212219       2.98173991
Si       0.72441294       8.10822118       5.59688542
Si      37.39155587      10.53234738       4.65128912
Si      39.19854662       8.27628885       7.37850874
Si      18.07377915      31.74998480      14.67999508
Si      19.89492902      37.10468921      13.51695842
Si      17.58928863      35.10325812      15.84034575
Si      17.50335526      34.14915000      17.98808488
Si      18.32559263      35.86825687      19.36613335
Si      19.82400316      35.67532029      15.38305050
Si      20.44545604      37.29733857      16.96837897
Si      19.23213481      39.31155673      17.00305103
Si      20.61842746      36.31788502      19.09938531
Si      34.12563480       9.78511668      11.35452374
Si      33.76314664      11.39601928       9.67999929
Si      32.17698248      13.00640918      10.32895666
Si      32.10294604      14.71312531       8.71276692
Si      35.77644007      12.53066763      10.11548808
Si      36.09676858      14.42426313       8.75813579
Si      34.29294582      15.92203724       8.94040038
Si      30.19540275      11.19976380       8.06445403
Si      29.89218360      12.82866872       6.39575760
Si      32.04285458      13.76547183       6.56131318
Si      32.09055233      15.42730162       4.89806611
Si      15.03203776      12.59637771       0.93837373
Si      12.87394788      13.48616762       1.21978944
Si      11.09311663      11.18519000      38.81546994
Si      11.56021583      10.49132516       2.52961216
Si      11.42834042      12.80273141       2.94361277
Si      12.71048625      14.04823521      37.57372180
Si      13.19202688      15.79387826       1.54219159
Si      14.26422356      16.76782464      39.68908719
Si      12.98511785      16.37308601      37.75569838
Si      10.85259380      17.23665327      38.24839205
Si      11.35583688      14.57331820      35.72335525
Si      11.37669537      13.44163245      39.40922735
Si       8.35088228      13.40394864       1.43945155
Si       9.28479491      14.49885994      39.57990299
Si       9.74215643      16.70502658       0.25281586
Si      30.48009843      36.41684964      28.77374008
Si      31.59029055      35.58172222      26.87626330
Si      32.43965179      32.55015678      29.66893850
Si      30.14876208      33.93436705      26.01329858
Si      33.94844302      38.56182136      27.45229180
Si      33.04531403      34.24155918      28.15162514
Si      34.61723510      33.13593332      26.79574366
Si      35.41125997      34.77410102      25.30412195
Si      30.18131416      23.68182212      39.98792483
Si      32.57333810      26.56689426       1.52312777
Si      30.41678561      24.59601035       3.44356681
Si      32.50454825      25.65091036       3.68782617
Si      33.87338138      23.74769906       3.87115130
Si      32.08190957      25.43946139      37.57904167
Si      34.27678777      26.27025193      37.43186153
Si      36.11934546      24.81106772      37.51213456
Si      32.16530381      24.93928592      39.87545536
Si      33.49706943      22.12809403       2.20818100
Si      33.63279063      23.11270963       0.07686537
Si      35.83886102      23.77732600      39.60574606
Si      30.60078680      17.80957401      33.32794673
Si      27.17028143      18.22088926      31.72161933
Si      28.16673688      17.18263485      33.58199578
Si      28.24070854      14.83601417      33.44239184
Si      31.26067167      15.60815774      31.31641678
Si      32.00367571      15.07774668      34.79176016
Si      29.84327084      14.18157202      35.03475961
Si      32.77911426      14.13097391      32.78334716
Si      29.93648420      11.84075984      34.83321560
Si      27.38475067      17.51646354      29.48800311
Si      29.23479625      14.41554222      31.35543182
Si      27.64809069      10.64151287      34.96206510
Si      33.15828858      29.95650754       5.49967300
Si      33.76461470      30.69359316       9.14727400
Si      35.75046568      26.84863217       7.40101712
Si      33.44089330      27.12451535       7.74760817
Si      32.38444133      25.60230735       6.29945540
Si      30.06685001      25.44429876       6.66583250
Si      33.35423849      29.49361591      11.12769322
Si      30.89786595      29.74322362      12.01138269
Si      32.56220591      29.30473158       7.67913529
Si      29.56754447      31.32511316       7.86136630
Si      30.25920401      29.09055334       8.10341522
Si      29.60149713      25.43296859       8.97095515
Si      25.83760909      10.34956844      27.81244117
Si      26.92342343       7.09819494      28.75924065
Si      27.18661313       8.61270436      26.97938039
Si      26.06490431       7.05451060      25.62134034
Si      23.69100156       9.64256033      28.46259681
Si      22.73910287       8.45506416      26.66974146
Si      20.50329706       7.84050685      27.63365334
Si      23.89242463       6.44243574      26.28210024
Si      22.99526522       5.46761700      24.33892001
Si      21.02261800       4.62452521      25.30205710
Si      31.94728188      34.66921132      36.34744987
Si      29.51306284      36.16235313      38.96829441
Si      32.44652359      36.75768566      32.69714447
Si      34.19266827      36.91050298      34.26553711
Si      36.27220034      37.08042997      33.18050484
Si      37.91742051      37.00639388      34.85927771
Si      30.17203041      38.63260898      35.47871219
Si      31.65139860      36.31454505      38.00143067
Si      33.74810675      38.57630887      35.86587464
Si      35.56685486      38.51399768      37.35569235
Si      34.05556581      34.81100240      35.31540897
Si      35.74540007      34.81199427      36.95082674
Si      35.44371613      36.49870852      38.56153603
Si      37.71512554      38.74697985      36.42759680
Si       0.35655954      27.76221000       6.26545117
Si      39.28366395      28.80949589       9.82305596
Si      38.10125380      27.35450286       5.73839123
Si      37.13175012      28.45139076       8.94473970
Si       0.36889236      29.49688781       7.85326226
Si      39.51718901      31.51773297       7.00403375
Si       2.10218071      37.99289076       8.02250808
Si      35.54586812      38.74253363       9.64383908
Si      37.39464339       2.24703763      11.23462526
Si      38.36807868       3.29491161       9.36786622
Si      34.42034927       0.80102157       9.48154145
Si      35.41525162       1.33062840       7.41755130
Si      38.06263215      38.72942420       9.83548055
Si       0.83787492      -0.07534574       7.57548105
Si      38.50416961      39.93264009       7.86374795
Si      38.09633587      38.86564596       5.80810365
Si      37.64090321       2.08708919       7.48564789
Si      36.91482223       5.51937741       9.13385712
Si      -0.02142451      35.14800807      31.12356045
Si       1.56459815      35.11802232      27.57752005
Si       1.81103145      32.79846307      27.87534303
Si      39.78506266      32.05266787      26.94575144
Si      39.83003709      38.27569483      28.72607404
Si      38.25361625      36.05194513      32.44144249
Si      38.38840211      38.39809468      32.52942783
Si      38.08373175      38.75778706      30.22550197
Si      36.00556234      38.09358982      29.34787229
Si      39.80839758      35.93163918      28.91302629
Si      37.66733840      35.53156035      28.02693445
Si      37.43595366      35.89817016      25.71598441
Si       1.07305484      30.44071883      24.16239509
Si       7.49004711      29.41489036      26.49335194
Si       3.48930872      29.32262344      24.19069386
Si       3.73070949      28.36255386      26.32331559
Si       2.07161785      26.23206916      22.47854458
Si       2.57828835      25.14277121      24.50018396
Si       5.95032300      27.64123663      26.60949409
Si      39.47279879      28.46482171      24.17939539
Si      40.32741392      27.73082515      26.24196209
Si       3.18287499      29.74723046      28.14312965
Si      39.43243015      28.82550350      28.12021868
Si       2.31514757      26.48725713      26.41078015
Si       2.44649505      25.47468462      28.52872479
Si       7.72164716      25.19851627      32.97355745
Si      10.33928611      24.60144353      27.01858617
Si       9.13218969      25.40178782      31.10292850
Si      10.39609640      23.54665915      30.40186537
Si      14.39934263      25.64045507      30.77416940
Si      11.91269886      24.12578993      28.70039944
Si      15.80920820      23.98940641      29.87038938
Si      13.13708090      22.20223976      28.12482729
Si      11.94487948      23.49416073      32.17078310
Si      14.64558922      21.94616110      29.91068321
Si      13.20186744      21.55707799      31.72581743
Si      11.78561230      20.31291786      27.75814302
Si       3.43988628      29.54888625       9.23430923
Si       1.93954589      33.57108785       8.62454077
Si       3.30643357      34.63098478       7.03119623
Si       2.53015601      30.07837039       7.13137973
Si       3.95888838      31.15080552       5.60202919
Si       5.58138535      29.55456489       5.01048574
Si       3.94374657      25.70329704       7.27119528
Si       6.34153280      27.52372604       4.10037879
Si       3.07968094      26.62360316       5.28703389
Si       7.17497812      25.22634973      10.44971692
Si       7.02838702      23.79996483       8.58562649
Si       9.15328425      23.10465404       7.85637972
Si       6.11562185      24.96265762       6.75648792
Si      35.06771535      22.88690061      30.52672323
Si      34.98564081      25.04978014      29.60592072
Si      32.22218463      23.35126035      27.26567860
Si      31.68446244      22.91233089      25.01877061
Si      34.31594794      24.40686184      27.44521086
Si      33.96576390      26.46442027      26.36187515
Si      13.71450877       6.83769854      37.25011568
Si      17.16771079       3.97517306      38.06328608
Si      17.10429799       6.14811994      38.96033838
Si      15.97814355       7.46477452      37.37010468
Si      15.71415719       9.63454154      38.23791789
Si      15.37835540       9.89544511       0.55086323
Si       9.28900060      20.47647646       6.59544198
Si       9.75339640      21.81823123       4.72062710
Si      11.65180505      23.06143623       5.33786147
Si      11.94952179      24.30250941       3.36268985
Si       7.79383970      23.33777927       4.52506215
Si       8.10619524      24.79345211       2.70464866
Si       9.78774572      38.75481549      15.84784842
Si      11.57635163      36.91994763      15.58134808
Si       8.75812065      34.54167894      15.79754903
Si      10.72795425      35.17766198      16.91359762
Si      12.67066255      32.73403063      14.81086133
Si      12.28576081      33.41966703      17.02718967
Si      14.27814576      34.12156871      18.06065959
Si       5.86714709       2.10798511      24.53615581
Si      22.61029633       2.55616355      12.00424516
Si      16.24604645      27.82369560       1.56006851
Si       8.68917795      19.99695464      24.68901003
Si      35.13298272      39.88920131      34.49139083
Si      13.01474890      28.12755441       7.91077252
Si       4.82218463      22.70951577      12.21848379
Si      33.27024344      18.01477613      12.87980134
Si      10.78102904      15.33482679       2.71416645
Si      20.61104105       9.79822074      33.76954595
Si      39.06931002      30.43569419      25.39615950
Si       5.21597678       4.97248756      38.33742356
Si      15.65166497      11.56792909      33.96902423
Si      35.47244369      14.41047464      31.33270821
Si       5.92901316      20.87141969      18.63821300
Si      28.05838641      37.10342521      19.42567121
Si      30.05895957      30.36594430      17.31761010
Si      25.66072368       9.73505639      38.34490494
Si      19.07082787       8.81605951      38.11423920
Si      39.57165938      13.85911075      38.43560868
Si      26.38920479      36.65805947      24.97135033
Si      22.75445154      36.63257975      29.98399999
Si      20.94092641      20.20434525      10.71953838
Si      10.89577191      31.03845640      26.86227634
Si       7.83764711      14.14410974      12.02927429
Si      32.63686994       0.74195014      39.16044350
Si      24.64178008      34.63184655      29.41366592
Si      39.04778271      20.23693522      30.94728261
Si      21.02457630      39.02250235      25.44120574
Si       4.09901363      26.68358280      23.58139989
Si      28.22842225      23.99466476      24.36367116
Si      12.98477783      29.34378964      29.86391698
Si      31.10591823      36.65648913      11.54714678
Si      10.01867552       4.68601206      21.48436498
Si      18.39672492      20.49521597      16.69961920
Si      23.13719937       3.40158921       6.46077731
Si      25.37656998      24.39497022       3.92955737
Si      28.56876374      30.89155436       1.96720580
Si      20.86364480      10.26521577      18.83778504
Si      37.58421885      28.67198581      15.79717209
Si      15.86387547       5.22948503      25.78510020
Si       9.10390261      26.81493659      27.25108014
Si      21.34266294      13.74251644      38.72728522
Si      28.23542275      32.24627543      29.49954346
Si       2.09269532      13.34324370      20.33162640
Si       3.16520426      21.09413950      31.54567003
Si      15.01697154      36.70299746       7.68660023
Si       8.36577831      38.48248114       6.91639045
Si      21.83779698      15.05730708       7.86662028
Si       1.66345216      33.89116306      22.02895056
Si      11.32673972      17.87693930      15.48005036
Si      27.84709632      31.96998437      36.83172797
Si      22.80862197       3.17325125      24.82079231
Si      30.34935895       9.00720697      23.19533989
Si       6.79506996       3.29602031      11.94660581
Si      30.00254886       7.06639885      18.78809907
Si      23.49126397       6.91950447      18.75577213
Si      38.38956070      11.46136655      12.38213803
Si      39.39635583      26.41846879      15.04647924
Si       4.15475613      26.31594165      38.13311875
Si      30.74446825       6.70858951      14.85311467
Si       3.07209043      12.85949283      35.13443700
Si      18.91352296      27.49938154      31.60905158
Si      29.35702169      16.48838846      30.25192395
Si      33.12242619      15.82708787      25.98910984
Si      35.80258765      30.67718018      23.56607914
Si      10.50174485      19.23539946       8.18305363
Si      32.12659396      27.65873262      39.48888848
Si       4.20532356      23.34103223       3.65215102
Si      33.89110763      35.10949247      11.03175956
Si      31.08136435       4.33668479      29.27232895
Si      36.07272100       2.90631445       9.03481575
Si      16.64167249       1.89650961      11.08561808
Si      20.85550072       7.56288997      39.41212096
Si      36.26199806      31.19321595      29.61419178
Si       4.43018398      31.64459823      39.68049858
Si      39.62477177      16.61073206      36.55910671
Si      11.06701627      35.27495857      32.48838319
Si       3.49098416      28.73540676      39.58925397
Si       8.86754166       9.91034018      35.08048551
Si      10.37584651      33.34087166      18.88166595
Si      24.39091552      20.98681894      23.13640891
Si      15.01781005      18.78867026      37.78860468
Si      16.85487092      25.09096061      37.84037475
Si      34.27893696      25.96406362      39.76339138
Si      14.55344589      38.40545478       3.22070308
Si      34.11780677      10.54783193      28.82683015
Si      23.30985726      23.58447818       6.52606484
Si      25.63946249      22.75730069      18.29692486
Si       3.56587551       8.85411509      26.96806144
Si      24.52456574      36.76955180      28.44173440
Si      35.11509867      24.82571909      34.76559343
Si       1.68599621      11.67151273      26.47159476
Si      15.80512086       8.28958914      30.39633616
Si      38.60596825      33.89120434      26.07546396
Si       7.50415235      27.59716378      19.04287155
Si      16.99719007       1.68949361      29.67659641
Si       1.27807466      27.69262543      12.62567582
Si       9.85887101      16.63406105      12.63923813
Si      24.94225851      16.84628054      13.15319130
Si      39.80240137      11.14781508      17.24997480
Si      16.56200568      19.81845662      13.50050826
Si      27.70265197       8.16529630      24.35055521
Si       8.46320204      19.26575733       0.16578621
Si      22.26327105      38.53136008       3.05623348
Si      24.64209230      29.26476391       0.21447036
Si      14.05972723      22.19414606      34.44954555
Si      17.02827645      36.90340461      12.42639488
Si      32.62802346      23.75878265      20.16461331
Si       5.92084709       4.91041987      16.21861212
Si       8.51791461      26.63283013       4.11092521
Si      13.68929478      24.21021414      37.77609044
Si      17.75223098      32.41950803       2.18084631
Si      14.14844099      25.07375247       3.67837927
Si       1.67505029      20.73924800      33.33004560
Si      24.46505371      15.62910958      21.56739089
Si      13.96279972      29.16582637       3.81935368
Si       1.11503623      14.06532639      34.63073201
Si      13.73829619      38.37404921       5.42768664
Si      36.99505387      39.76432798      11.65747476
Si      24.20507815       7.99113016       4.82937088
Si      15.09768534       6.90029360      32.15698074
Si      11.16156443       8.84544851      39.03296508
Si      34.52581512       3.40571695      27.95867601
Si      36.42627932      21.55481855      20.76261843
Si       4.23368811      26.78570654      12.49746482
Si      16.89226574      17.25870813       2.73001891
Si      14.30557713       9.45390158      35.29059195
Si      14.06350006      21.86757306       2.82801422
Si      25.62934197       7.08695104      17.79147629
Si      16.63550379      39.73911735       3.15513328
Si      16.71860526      13.27024557      16.05465750
Si       2.23426669      28.30479732      32.28553765
Si       6.15920462       1.96544621       1.70670099
Si      32.75373806      38.09932509      19.56979798
Si       8.10286131      33.64253253      26.44182785
Si      32.33897393      32.53172688      14.06288711
Si      32.60021340      30.61380007      15.39833908
Si      14.42798822       0.26564574      35.22985384
Si      27.70583150      17.06827272      18.00133515
Si      23.82223051      25.93060606      14.25189317
Si       8.05960076      30.70904061      36.26877479
Si      32.87643409      16.69651010      23.81829679
Si      33.25500988      25.45224745      16.99895379
Si      12.96505737      16.99067013      11.47592651
Si      19.59641331      18.52141299      25.02621483
Si      18.46648283      14.88285532      24.75702771
Si      25.09490029      35.16446040      14.12221019
Si      20.35262150      29.82237531      10.28171816
Si       8.48546388      37.75360663      17.52814265
Si      25.73517357      10.88630309       9.40146027
Si      25.21946400      14.28602948      36.22450958
Si      35.13223752      17.00055919      24.40986959
Si      36.78777704      38.33503034       7.68880815
Si      11.85466885      21.49484424       0.73787212
Si      12.52400091       7.94853852      26.53118807
Si      12.06086407      25.52838343      30.99662318
Si      17.40301354      37.97457340      19.85878557
Si      34.63554939      35.62203807       8.67747370
Si      17.58363849      22.32293071      30.80954607
Si      32.47027395      19.06299973      32.33846684
Si      20.67722860      13.35175806      29.87033069
Si       2.14863811      27.90759842      29.96913773
Si      22.48348119      11.31665962      24.63782914
Si      14.64367422      14.25100547       2.56447543
Si       6.95029581      27.55469794      10.20462675
Si      24.42865987      34.07669661      -0.03009630
Si      15.42512578      11.03312195      10.48995325
Si       6.73797862      38.78162994      14.36929336
Si      29.02848928      19.21450250      37.65408430
Si      14.31151540      13.72817393       5.51510902
Si      34.32045375      31.34557022      28.29414205
Si      13.45866667      18.70572680       0.74988668
Si       5.62014127      34.26757677       1.09865041
Si       6.39299013      26.29812570      23.23534414
Si      24.81586950      19.72087954      17.34855437
Si       9.22155220      14.10606841       6.56256989
Si      15.86158179      35.69545763      17.32173776
Si      23.68266470      24.98215878      35.95239319
Si       2.52564343       1.04278243      32.16375856
Si      31.99802648       4.88720940      35.67704140
Si      22.72309573       9.46065052      15.08254932
Si      28.64328885      35.51835468      31.82383032
Si      21.91453625      27.66717607      28.31059496
Si       3.05766830      24.43391445      39.70020494
3068
Lattice="40.0 0.0 0.0 0.0 40.0 0.0 0.0 0.0 40.0" Properties=species:S:1:pos:R:3 relative_density=0.96 cell_dim_angstroms="_JSON [40.0, 40.0, 40.0]" n_grains=239 grain_size=8.0 crystalline_fraction=1.0 grain_radius=8.440649961279794 pbc="T T T"
Si       7.34593021       8.73064312       6.04973663
Si       8.70609394       6.89147372       3.04247782
Si      11.87353682       4.54162259       1.46894597
Si       7.28696292       4.24329643       1.85646114
Si       7.18043500       6.83446461       4.83378634
Si      11.64606190       2.02988107      39.83232041
Si       8.78033835       1.48843806      38.64334896
Si      10.08808451       0.45974384       0.25780665
Si       7.24426392       1.12832457       0.24814227
Si       9.60313711       4.64517867       2.56270723
Si       9.75295886       1.51859177       5.41141210
Si       9.20440501       2.57409723       3.46143143
Si       8.69270777       0.71106442       2.02912450
Si      11.35672240      27.38801550      20.52398678
Si      11.63857604      25.45949150      22.44436645
Si      12.24169469      26.73733412      24.35047765
Si       8.30934258      28.20821599      24.20206026
Si      11.67546302      31.10844438      19.58741607
Si      13.65089117      29.11811931      17.83945946
Si      13.34201830      28.33740927      21.27487789
Si      14.32087235      29.96145191      19.87359968
Si      15.30005660      29.44788822      23.91452531
Si      13.68283096      32.15928174      20.06003623
Si      10.42242810      29.91491409      21.20528406
Si      10.53839148      28.19817627      24.79145218
Si      11.14556123      29.96886574      23.46149073
Si      10.15547712      28.67862408      27.12020047
Si      13.30086957      30.82516240      23.79663896
Si       6.67173910       1.38321433      17.94938584
Si       7.40179709       2.30056858      21.26937682
Si       5.35552133       2.89124082      22.29512793
Si       5.98990832      39.95041635      24.42505720
Si       3.81402959      39.85635932      23.31569527
Si       3.21741274       1.20508331      25.05743942
Si       4.69285404      38.03284218      19.52475017
Si       3.36049283       0.01423448      19.72570175
Si       2.92332508      37.56624538      23.73018360
Si       3.51023505       1.61738157      21.42830296
Si      13.55825880      19.07224397      10.06708133
Si      14.60294954      17.08728501      13.60226307
Si      11.69177753      17.81264379      10.58932010
Si       9.98644594      19.35285699      11.29544488
Si      12.69725164      21.04665353      13.06868813
Si      10.20489238      21.20258126       8.37650452
Si      12.43054948      22.80282019      11.24603083
Si      11.25011608      24.03081114      12.89283625
Si      12.63598554      16.04846738      14.21371745
Si      11.89265522      13.89554233      14.66876178
Si      10.02364175      17.85806617      14.13559985
Si       8.91659188      15.02774729      10.97958306
Si       7.43127788      16.52152778      11.97638013
Si       5.89366606      19.51894333      11.21833526
Si       7.86858482      17.19924613      14.18709740
Si       6.02741295      18.33290653      14.98987870
Si       9.28913310      19.26828412      16.91953768
Si      10.27407627      20.07092701      13.45370718
Si       8.92584104      23.50665732      12.90257999
Si       8.18692392      21.38024397      13.65853581
Si       6.19837538      20.00665377      13.42392347
Si      18.47849466       3.63109861      23.16006899
Si      18.71362291       5.96466027      22.86997824
Si      22.64781884       7.61649330      23.68788674
Si      19.49217820       6.42108162      26.41547110
Si      19.94846572       8.58577597      26.05924679
Si      20.40445348       7.81527782      23.73808287
Si      20.20459035       9.41729905      22.08357571
Si      25.75053607      22.12855549      27.75446924
Si      23.49160917      21.95165229      27.00889161
Si      23.05502957      22.52664994      24.68067988
Si      27.88871295      25.20091610      26.76030964
Si      24.30359612      25.71009769      25.99218766
Si      20.89476648      22.88543766      23.46156928
Si      21.84994850      26.50575477      25.75494889
Si      21.23575507      27.49823535      23.69858609
Si      24.75940454      24.10540787      24.42479750
Si      24.27098291      24.98935529      22.40664481
Si      22.19162153      25.87927738      22.44874345
Si      28.12841021      25.69822738      24.37733142
Si      27.24293489      27.19405160      22.81556608
Si       4.77561582      23.13448327      33.26489489
Si       3.56778580      21.48360626      34.29666697
Si       1.25846008      24.67850945      36.18423155
Si       5.24565292      20.45008528      35.40850924
Si      33.45170170      10.05322480      35.99455543
Si      35.53477797       6.75640463      35.39222417
Si      36.51328923       6.16593930      37.52146545
Si      35.63713909       5.00626544      39.37345055
Si      35.63561549       6.53655079       1.09840993
Si      33.75823360       5.74246018       2.32449896
Si      33.51959682       7.88466280      35.16865519
Si      32.49453679       6.89233355      36.94904199
Si      30.62039401       8.04855643      35.92417842
Si      32.94573475       8.18034433      38.86174261
Si      32.51776070       7.67595644       2.74395965
Si      30.66840713       8.37695139      39.17143997
Si      34.94699866      36.03200061      16.82724700
Si      37.61473988      36.37242925      19.72671381
Si      38.21253769      37.02266029      17.54862691
Si      38.87667657      35.02478133      16.55237602
Si      34.65752633      35.03515295      18.90288727
Si      32.76032319      33.50616473      16.65082957
Si      35.81747749      33.05174664      19.18461519
Si      36.34078382      34.75511088      22.59519419
Si      36.37380210      32.66954117      21.49121570
Si      38.07190766      31.17311507      22.21688909
Si      35.08212238      33.92731041      15.64680598
Si      38.94146905      32.76583899      16.53672297
Si      36.88309488      32.29018676      15.62996277
Si      36.56996551      31.35923646      17.71864792
Si      37.75272076      34.36426965      18.62529966
Si       0.64169785      32.00211200      19.38662964
Si      39.84722526      32.92118971      22.78973556
Si       1.59900882      29.95349666      19.82004279
Si      37.14542281      19.96016885      19.70079888
Si       0.25957860      22.07593556      20.40907738
Si       1.07625886      19.95483477      20.64672749
Si      39.01948293      17.25724341      19.35081388
Si      38.19383799      22.80629641      16.99360246
Si      34.81022146      19.52712571      19.50665429
Si      38.89746716      21.69017584      15.11366293
Si      38.76276542      21.23624722      18.58148967
Si       1.38540550      17.37274637      18.16392892
Si      39.61856095      20.01837502      16.55179203
Si      38.71041478      17.87845971      15.98575563
Si       1.82277431      19.56316433      16.16559436
Si       5.20480465      22.67848134       3.91442391
Si       3.49540362      26.17903293       1.98454502
Si       3.91860046      23.90422481       0.91168144
Si       0.31878095      22.55414586       2.38958764
Si       5.85534080      22.68112844       1.66855676
Si       6.87938671      20.23108555       0.78042433
Si      17.06987628      30.38968563      25.37267460
Si      17.19067844      34.38593940      28.89448972
Si      18.27293249      34.42945697      24.80042229
Si      16.71259122      36.05151089      25.47865734
Si      15.27989255      35.11642681      27.30944975
Si      13.67339084      36.89782187      27.68836922
Si      19.39957640      35.53257753      31.69201461
Si      15.61844797      34.44291848      30.61115922
Si      13.90722158      35.98888241      30.13441727
Si      18.76353602      36.18542659      29.42480154
Si      17.20984206      37.83627230      29.72509684
Si      15.34044534      37.54897195      31.08451547
Si      18.41813152      39.77158958      30.02685215
Si      26.77252022      20.23679220      24.12707574
Si      26.65731008      17.79500758      21.73234135
Si      30.27906177      16.92211733      19.16680600
Si      28.20438681      18.54956831      23.39038693
Si      29.50999093      19.65658009      21.60837802
Si      17.16708628      14.41551928      14.31098175
Si      15.12328888      13.04914518      11.96353730
Si      13.54511762      13.71448524      16.25632368
Si      15.37150385      11.40727934      13.80566067
Si      15.42410960      15.02395716      15.73752791
Si      17.80182494      15.59900224      18.38231950
Si      22.32647598      12.40942784      13.56704492
Si      17.74170199      12.15477263      13.84694575
Si      19.20040042      12.29164849      15.80972870
Si      21.06690325      15.30175670      15.65455796
Si      20.12032376      16.17663195      17.78639392
Si      21.48961260      12.98990310      15.72244014
Si      14.31107850      11.60672978      15.96614020
Si      15.89143700      11.60109826      17.55052400
Si      13.12027047      14.56269756      18.46233615
Si      16.91392595      15.80221639      20.75955615
Si      14.00800901      13.42228909      20.28962597
Si      15.04387125      11.45303225      19.71737067
Si      19.30069934      10.18497509      16.64258896
Si      18.38258111      13.35426578      17.74765519
Si      21.92735796      12.24538340      19.68469316
Si      18.50863918      12.02185667      19.60203661
Si      29.26514274       9.09413173      37.47640111
Si      31.23806518      10.39994442       0.03881967
Si      31.33384007      11.22422576      35.79504309
Si      32.82837385      12.80516694      37.10815436
Si      29.51543231      11.81825837      39.87275675
Si      31.93968941      15.03837779      37.07293954
Si      30.59561997      13.61742953       1.05089095
Si      34.25824365       9.97156619      38.20692854
Si      30.38435535       9.96903353       2.09208510
Si      34.65607339      10.60839231      34.20103180
Si      35.07773438      13.27755689      36.24188986
Si      33.13925451      11.69138798      39.31588968
Si      32.55264118      14.86078542       0.93513104
Si      34.07907871      13.15702292       1.10098614
Si      20.05254990       7.03911793      36.89096545
Si      17.92674832       9.86531771      37.71923488
Si      21.24152019       8.69034025      35.74276182
Si      19.06940392      12.98976645      38.19416017
Si      18.30380817       8.19105683      36.04668629
Si      17.66357782      13.19990614      33.46971734
Si      19.63233526      15.81401470      36.57123084
Si       8.16018157      22.07179444      30.68359452
Si       8.48147343      22.69865509      32.90750535
Si       9.89695612      18.16690277      32.57503486
Si      10.67842912      20.01125596      33.90041066
Si       6.80011102      23.58753319      34.27560396
Si      14.15327632      21.17913228      32.60932420
Si      10.82686998      22.25073488      33.11780716
Si       8.78273052      12.11870446       5.13712808
Si      13.13472958      11.64566658       4.50989549
Si      13.79801165      15.28961506       4.12315856
Si      14.20930401      17.55031714       3.83607301
Si      12.34675913      20.24864084       3.70569844
Si      10.97599631      11.40509252       5.84721692
Si      10.95656975      13.63135953       6.54081288
Si       9.93731527      11.67511646       8.99950698
Si      12.05732181      13.23849941       8.44002592
Si      13.23536005      14.99853504       9.41362350
Si      11.83566582      15.27592146       5.29947836
Si      12.33980202      19.26759696       6.01241352
Si      11.53052184      17.20404261       6.72085499
Si      10.32833711      17.15861174       8.76028252
Si      13.28353107      17.32229378       8.36724534
Si      13.00375055      13.95042907      11.49349528
Si      16.26961954      16.50090244      24.72919520
Si      17.82581838      16.60896961      22.92018412
Si      17.72905496      13.51144508      22.64781352
Si      18.58337133      14.14209555      20.69121613
Si      16.77223158      12.44715055      25.39122817
Si      17.80305043       9.39538796      26.33246328
Si      14.07641382      16.32249447      24.24668154
Si      15.57356605      14.20805495      21.83125894
Si      13.86634501      14.26312279      23.44470889
Si      14.36345496      12.29616730      24.71233165
Si      18.37544944      11.69059501      23.79271728
Si      17.88605823       9.85618887      22.53056655
Si      16.96109539      10.44306219      20.45931896
Si       5.07671161      31.92511899      32.34003903
Si       4.79295170      35.28093134      34.30553360
Si       6.96228822      32.60792210      35.87243697
Si       7.53684879      31.02718074      32.88629582
Si       6.84298144      34.36508650      34.50598240
Si       8.34275469      35.34569424      32.87429440
Si      39.82328909      33.37000706      33.73782988
Si       1.27316778      35.33476479      32.97886456
Si       3.73497849      31.33463853      30.50842497
Si       3.62728076      33.05034602      28.80314053
Si       3.84638756      34.42780975      32.42661923
Si       8.99037685      34.75439080      30.51450558
Si       5.00696171      35.78649233      30.98413699
Si       8.86647762      36.17201965      28.49312019
Si       4.94041527      35.21862357      28.53796928
Si       5.55228693      31.76532588      28.26059947
Si      15.02115916       2.22820347      33.22979719
Si      15.86672684       3.67881804      38.17024536
Si      16.69469769       0.69736197      39.50185469
Si      13.52801466       0.74639758      35.24502502
Si      15.54008262      38.91469117      36.46379532
Si      19.18396299       1.96836892      33.88427892
Si      19.93168502       3.58639591      38.04324060
Si      20.32348259       1.25976403      37.76880313
Si      17.27204948       0.57042423      33.82474333
Si      15.20091668      37.32791535      33.33443577
Si      17.26457348      38.22452320      33.67868311
Si       7.22193643       9.45846962      26.30871559
Si       7.57932840       8.44147510      22.29358191
Si       8.62229424      10.45009827      22.52102348
Si       6.64150084      11.56090805      22.26736597
Si       8.14905251       6.20862920      25.74104193
Si      10.34181214       7.07966699      25.93565836
Si       9.04550340      10.01178609      24.79449605
Si       8.60576713      13.66944944      25.76650193
Si       9.47458919      11.61267869      26.49511234
Si      34.27196897      31.10751724       5.94493335
Si      35.57067797      31.24077084       8.04233204
Si      24.45647083      29.55185175      23.12852862
Si      22.28862433      26.92249504      20.44604364
Si      22.59634078      29.80084820      18.72907365
Si      22.27579524      29.44598633      23.99903888
Si      20.70842421      30.50570290      22.61698856
Si      23.58435353      33.06330531      21.62497552
Si      24.03546466      31.65165120      19.62051715
Si      21.90735106      32.37928644      23.15789123
Si      20.82910715      34.29846506      22.59629388
Si      20.22588266      27.11498124      21.55846605
Si      19.33431850      28.29872672      19.86965857
Si      18.45330489      27.46229166      17.90668691
Si      17.98294219      28.80662827      16.08365294
Si      18.36621316      30.44572630      23.28878063
Si      17.17685031      28.61027379      22.61499271
Si      17.39812001      32.17318103      21.87179629
Si      17.14905301      28.17758636      20.34852565
Si      16.36529725      29.87394345      18.92135586
Si      20.73936051      30.07988209      20.15656738
Si      21.03946235      33.61281218      18.65536612
Si      19.73600802      31.58712206      18.70941662
Si      19.42493018      30.69563916      16.35289123
Si      17.51961841      31.89256109      19.51787930
Si      18.40688594      34.24926524      22.47986564
Si      15.65931376      29.57310913      16.49951823
Si       2.45947397      35.48468299      15.09650553
Si       5.45653752      36.81818478      16.01780092
Si       4.44839619      38.49567963      17.14286102
Si       4.65161616      33.36553520      16.36642998
Si       2.97351534      31.76178834      16.83487151
Si       7.00719453      32.70730146      16.91348776
Si       3.88139213      35.52199711      17.01491607
Si      14.95013472       7.07193182      35.67293481
Si      13.76714550       8.24163731      34.11736875
Si      17.13828423       7.30539600      32.56905516
Si      17.63633088       9.72078808      31.45541557
Si      17.04411962       6.60381135      34.88953425
Si      39.60707396      21.06443732       7.45995776
Si       0.46149251      22.98687608       8.73338568
Si       2.40266566      23.79203784       7.79633361
Si       2.24353003      19.80306805       7.86105532
Si       4.19095811      20.68357110       6.80413759
Si      38.32835243      20.53781422       5.52810823
Si       1.68053962      21.75121535       4.30277078
Si       1.60582099      23.57485952       5.72586846
Si       3.85543621      20.94622116       4.53524197
Si       3.33424515      22.89433253      11.04285938
Si       5.26484442      22.06123217       9.64483235
Si       7.19225114      19.32290775       9.37770098
Si       8.76602384      20.83753083       9.96051480
Si       4.49250789      22.84382103       7.70638025
Si      37.39202683      13.58614862      29.04776821
Si      33.62926070      17.40770675      29.48977786
Si      37.86024227      18.95616661      28.02287956
Si      37.87278887      17.33458164      29.77830033
Si       0.48632933      16.33959693      28.75862536
Si      39.96713384      17.77006725      30.49645734
Si      34.46008339      16.33968272      33.10052563
Si      37.03134354      15.32720955      30.41686678
Si      36.91806336      12.61729277      32.86617227
Si      37.96931203      14.69716089      32.46478669
Si      39.53054263      15.53294876      34.02954197
Si      36.80887843      16.57763450      33.17757404
Si      14.57435982      18.29904310       6.47552155
Si      15.52019957      14.72583518       8.85282324
Si      15.99083859      16.23705065       3.07357781
Si      14.35193533      12.90717481       7.70446727
Si      17.11064361      13.70232575       5.47693803
Si      17.94261659      11.25610852       8.57604455
Si      15.59456382      12.25330568       4.39609740
Si      15.97256839      15.88812143       0.79199895
Si      16.78818466      12.76358695       2.36735674
Si      15.98222312      17.11041877       7.82423407
Si      17.87140154      17.17985701       6.33210811
Si      15.72642539      19.18747927       3.24867246
Si      18.82978050      19.11045802       5.37911862
Si      17.68631860      14.25884433      10.32528581
Si      18.45018518      12.93067485       7.15270240
Si      19.30691364      14.52570822       8.68194733
Si      21.23612955      13.54435303       5.39873001
Si      19.61559535      16.53729417       7.61450157
Si      21.58977470      14.43711254       9.04650003
Si      17.67048055      15.70970256       4.57366400
Si      17.94563225      14.74411953       1.64011635
Si      19.42013298      15.98310757       3.10720934
Si      19.70756102      14.28841824       0.16616649
Si      19.39856445      18.30350259       3.18682689
Si      21.39974002      15.50145605       4.23306487
Si      25.65800966      28.23889610      34.44581569
Si      24.08685024      26.50511799      34.30352290
Si      23.37376813      26.24248729      32.20567038
Si      26.57685319      23.69639708      32.56053966
Si      24.11826285      23.91481576      32.06805052
Si      35.84681231      16.25947643      21.20737430
Si      36.20648326      17.33208941      25.91879484
Si      35.50606149      19.57043911      25.65312614
Si      37.59131692      17.01208031      22.41729130
Si      38.81769415      19.07857039      21.77182524
Si      39.19319914      19.26518159      26.09748931
Si      39.97981657      17.34457591      25.01493772
Si       0.49539266      17.98836561      22.91285981
Si      37.89242697      20.88956482      22.91993989
Si      39.77797683      22.14193650      22.79000814
Si       1.19607941      22.40017507      24.76150317
Si      21.36558580      37.05449637      24.75425320
Si      22.95356285      37.20891259      23.14986189
Si      25.29917514      31.46362241      24.44505615
Si      24.73108621      33.74302346      24.70758885
Si      22.68930526      35.53504304      21.49575400
Si      25.62490335      32.96429755      22.68150913
Si      24.55834466      35.43619477      20.03165042
Si      27.54221518      34.16261229      21.82778678
Si      23.50053628      39.45406227      26.44278582
Si      22.70459534      39.22168535      21.96137222
Si      26.11948150      34.48907856      26.46560694
Si      25.57549972      36.41828510      29.83913556
Si      28.25423232      34.92300815      25.55086644
Si      26.91210566      38.94716747      27.22480508
Si      28.85295846      39.12237978      26.00560572
Si      24.61221200      38.02104685      24.51734329
Si      26.59200856      36.22259571      21.28285637
Si      26.43362350      38.15995020      22.91454608
Si      26.45770986       0.27484808      21.76698801
Si      28.01437476      37.12768615      25.15440694
Si      29.11398652      34.45475009      23.43880602
Si      25.45877175      20.11298082      14.12632713
Si      27.07783349      17.27344598      16.59785350
Si      25.35833939      19.74096621      10.86162791
Si      25.79129439      20.99526516      17.11999800
Si      25.23286717      22.46085756      13.38682335
Si      27.35747145      21.20679016      10.40327909
Si      28.89643162      24.13926867      15.16101678
Si      27.01456004      19.49967890      15.71521972
Si      29.65156011      19.44386466      12.32675068
Si      29.16866926      19.61400660      14.70693455
Si      29.01526882      19.78606548       9.68493431
Si      34.72267213      31.65936094      22.81425175
Si      36.48074166      30.04265149      25.85033891
Si      34.59537464      28.94763659      26.52748078
Si      35.09183311      28.47812503      22.58642943
Si      32.87891180      29.20488371      22.79297404
Si      34.46140581      33.02301539      24.61941717
Si      31.46119839      31.56292704      25.47020202
Si      33.15836343      31.00782200      21.21945546
Si      30.98176399      27.89948307      21.89496200
Si      30.97223587      30.25188546      21.27976037
Si      30.17229035      26.81752450      24.02924792
Si      30.38800577      31.35078736      23.27130095
Si      28.68282399      30.60799809      24.74653844
Si      32.74936993      29.66334845      25.19389408
Si      31.89816500      28.00887309      26.44081061
Si      31.51973872      28.90717939      28.53156974
Si      29.85273159      28.60986054      25.48018007
Si      29.50113356      32.38115704      26.47645054
Si      21.48934290       3.79099773      19.73362749
Si      22.07345137       5.40029955      23.08535287
Si      19.71227390       2.33029702      19.57013891
Si      20.58214001       3.61575159      24.02384717
Si      20.22393782       0.39129581      20.52539073
Si      22.91665527       2.56186074      18.43214807
Si      24.07217449       0.85756520      19.69247990
Si      23.03265850       4.22387896      21.47063646
Si      21.29553646       0.99699610      22.59786713
Si      23.04617846       2.56636306      23.01685148
Si      24.28923278       0.88652290      22.02561222
Si      22.31146218      39.34260288      19.63485847
Si       3.09441412      28.96384072      11.56043997
Si       1.32616393      25.98548405      11.51929520
Si       4.25994622      24.56697113      14.80393538
Si       2.95590100      24.51354537      12.77147743
Si       3.24781186      26.48305599      10.10289295
Si      38.87245377      28.32336916      35.01064819
Si      38.19072300      30.28618328      36.01196655
Si      35.06692415      31.21271839      37.08001311
Si      35.80662293      31.24729996      39.41864425
Si      33.33610818      33.61448007      38.35264326
Si      33.67855210      35.07348338       3.62712026
Si      35.50435346      31.31730345       3.89152391
Si      31.59373945      33.97840254       4.37831293
Si      37.52743836      33.33712235       1.90192800
Si      33.04382692      36.59138131       1.89846846
Si      32.63881431      35.59908557      39.78026239
Si      37.74397021      35.32877045       0.80600193
Si      35.14185233      33.27608427       2.53067377
Si      34.38647955      32.82380079       0.35215449
Si      30.45808940      35.75366423       0.50638516
Si      36.09231222      25.13321799      33.56317677
Si      37.15152488      23.25521265      34.29937813
Si       1.17000163      22.67780697      32.79482396
Si      37.15427416      22.72000784      36.72636143
Si       1.73094440      22.67686735      35.06266771
Si      37.10253408      21.99882716      31.35087939
Si      35.16335667      22.95092463      33.13448135
Si      34.95000657      21.06333485      31.80012095
Si      39.42330040      19.75665277      29.55981901
Si      38.77916907      22.35781846      32.94654104
Si      39.01062602      20.03100904      33.50462467
Si      36.76391513      18.19561290      31.49611147
Si       0.77298955      18.68039108      32.67003085
Si      37.04125925      12.92850219       7.40920259
Si      38.19667966      16.41744685       6.62577694
Si       0.50746459      14.37839921       5.57661497
Si      36.42443681      14.95610660       6.84231669
Si      35.24403935      14.73246870       4.74585030
Si      38.68973834      12.94859041       5.97571483
Si      37.87469415      13.47400757       3.89188499
Si      39.84017817      16.55580750       5.05417506
Si      38.42275197      16.68520328       3.07977893
Si      37.24924845      18.53039445       6.04386689
Si      33.94146491      16.47137680       5.24974391
Si      35.21170791      18.34970867       4.79114978
Si      37.85010622      18.95306294       2.83621381
Si      39.84909473      15.46436048       1.72458202
Si      36.66634009      15.15341134       2.94717228
Si      36.28072885      13.68317575       0.88240114
Si      13.34190114       4.02232052      27.51803712
Si      13.64716337       5.71193704      23.41769423
Si      16.78943537       8.68631324      24.34964920
Si      15.04322817       1.85698995      28.75209930
Si      13.80107844       6.13836285      28.48593495
Si      15.86574562       7.00291285      29.11612266
Si      15.21013030       2.97064622      26.75453361
Si      17.70667187       6.61717000      24.80453637
Si      17.02191714       4.26022524      27.31209449
Si      18.87445301       2.88168721      26.79120632
Si      29.34995202      22.40475471      29.39614157
Si      29.46431642      23.53645558      27.28019794
Si      32.90833071      23.84060223      31.56952466
Si      34.80624068      25.37150565      31.55119519
Si      30.98225266      24.09836816      29.99280164
Si      29.51507528      25.98838524      30.33142402
Si      27.24233506      25.52402478      31.24087394
Si      30.86501167      28.12353810      30.82179171
Si      25.95241174      23.93234224       1.81505251
Si      26.67425560      23.48402418      38.15286118
Si      24.85809527      22.91970965      39.86459654
Si      27.93141116      25.27426617      39.02125711
Si      23.26084247      25.73739788      37.32084387
Si      28.15662110      27.00713308       3.59503703
Si      25.86470454      26.56886197       3.80092253
Si      24.32277495      22.11314101       3.84157262
Si      24.82010749      25.08450723       5.87011899
Si      22.04532151      28.15017361       5.12409579
Si      25.38736810      26.10747310       1.63571225
Si      22.23403646      25.36565795      39.38388625
Si      23.26518837      26.59423149       1.24008505
Si      22.31249531      25.50486218       3.11948694
Si      23.17638912      29.08570133       1.65917997
Si       2.65429696      32.93321228      39.42480221
Si       1.23697313      33.28525873      36.61856528
Si       1.28753576      30.99311904      36.90092871
Si       3.52238866      30.23460097      37.22579590
Si       4.21250313      28.98826616      39.31159521
Si       4.92228509      29.26876403      35.49601121
Si       6.93780318      30.46726571      35.17876424
Si       3.41188450      32.53245431      37.32701890
Si       5.50819950      33.52526462      37.28485504
Si       6.72215197      32.79895854      39.18128866
Si      16.97771354      13.52284434      37.06282572
Si      19.83122251      16.31312679      38.93736188
Si      15.94336579      14.26469409      39.04505679
Si      17.86361644      14.76344238      35.26037588
Si      15.30828329      12.30407132      35.53106683
Si      13.69273889      13.95976699      35.29548478
Si      15.13604575      16.31662319      38.10363195
Si      23.94611938      23.35202839      18.53239818
Si      21.21629271      23.28660386      15.43488029
Si      20.66508849      23.49098876      18.79743850
Si      22.03800587      24.63834572      20.17774126
Si      19.86968078      24.44013877      16.90599150
Si      20.12391412      26.70488482      16.63525182
Si      24.42362800      22.20602541      15.55659204
Si      21.32916693      23.85213448      13.16006750
Si      23.21990541      22.65739878      12.34384915
Si      21.11768645      26.11977468      13.30312481
Si      25.32556360      24.74550613      13.87674772
Si      23.13802602      24.11413297      16.52755300
Si      19.02548031      26.73050201      14.58329452
Si      38.81393056      39.60092103      21.90993685
Si      39.42322348      37.45591607      20.68581257
Si      39.72782937      34.79752982      24.28815273
Si       3.61407081      36.12835112      20.65849081
Si       1.31911333      35.93992020      20.70058636
Si      21.59447524      34.40011471      29.39975090
Si      22.54052014      37.34087787      26.73379639
Si      23.07564402      32.22638833      25.27554163
Si      20.57115121      34.89451263      24.82492816
Si      20.63955220      37.60954953      28.03858794
Si       3.99161401       4.16351608       7.44818624
Si       5.69039957       2.45532649       9.59112953
Si       6.52550108       5.73651173       6.70980273
Si       7.53123066       5.88118421       8.83802515
Si       7.45524571       1.84880861       6.23738748
Si       8.80071705       2.14742790       8.10737275
Si       6.55624613       0.25279801       9.71974920
Si       6.80279730       0.65639755      13.78627687
Si       9.25595004       0.12669788       9.04432801
Si      10.14041907       0.71849297      11.04956647
Si       9.55429531       7.33333661       8.74079200
Si      10.45444060       7.03075676      10.90486345
Si       7.75965119       3.60891119       9.53116988
Si       8.42977579       3.37367217      11.73782466
Si       8.83562574       1.31899186      12.77636465
Si       9.88203680       5.22443899      12.33791355
Si       9.99471088       1.58034372      16.44533633
Si      11.13079161       5.32595636      14.42956311
Si       4.98942385      35.84467992      39.61248489
Si       5.50408024      30.55281569       2.08634599
Si       0.81844349      38.13334901       0.73954419
Si       3.29274958      34.54498447       0.86905236
Si       4.13509220      34.20848044       2.98867826
Si       2.39426356      33.71602344       4.46862881
Si       7.86953980      34.38239611       1.99106113
Si       7.75483358      29.85447716       1.65572133
Si       6.70637673      37.13858142       0.46461526
Si       4.69734536      36.48317961       3.55221435
Si       6.81351735      37.30059733       2.74932102
Si       4.72660078      35.97124507       5.78021735
Si       8.88177498      36.32122639       2.88688137
Si      10.12376205      36.15209156       4.85735232
Si       6.03944995      32.80236802       3.14586680
Si       7.13078016      32.77520589       5.25671961
Si       9.29634493      32.49196787       4.73869796
Si       6.64305346      34.75588986       6.28944038
Si       2.71050137       8.61404872       3.18718268
Si       5.77084738       9.07183089       4.37798833
Si       3.32947228       7.60149014       1.09113688
Si       3.78607305       8.29539489      38.84340946
Si       7.31918598       9.85737197      39.10185982
Si       4.72893719       6.80055770      37.20597098
Si       5.53821381       7.95723978      35.17182341
Si       3.90927683      10.41958253       3.75912382
Si       3.90279582      11.23293350       1.46753063
Si       6.80987559      11.13130265       4.19736821
Si       5.61797696      12.92931993       1.70382436
Si       5.06427679      14.78817935      39.31696716
Si       5.02099391      10.31678666      39.54120592
Si       6.15137526       9.88637160      36.46254203
Si       5.43558788      12.43861021      38.41287657
Si       7.64537677      12.94639087      37.68518856
Si      25.04943386       3.42887238       0.11958213
Si      26.93172111       4.56629251      39.77572233
Si      29.09785835       4.03819402       0.23788356
Si      23.98908050       2.53709241       2.10116016
Si      26.60379661       0.90517902       0.99998778
Si      24.86521321       2.50101306      38.00414996
Si      27.18104283       1.90149068      37.26224539
Si      26.65321323      39.97915056      38.80338115
Si      28.56397797      38.72400038      39.56573240
Si      28.90231671       2.33292484       1.91753922
Si      30.02229759       0.38834030      39.05748929
Si      30.75113860       0.79578250       1.22995657
Si      13.90680883       9.61553620      19.33863741
Si      12.23653681      14.05875386      21.76549901
Si      11.38711580       7.73586617      20.64450545
Si      13.06070812      10.09859352      17.26263692
Si      11.34850055       8.75121354      16.65684933
Si      11.33397190      11.60331058      17.24697797
Si      10.00060952       7.98148734      18.32779164
Si       9.71481260       7.38610243      22.24270717
Si       6.63454022       8.72951709      20.22129593
Si      12.52930815       9.70313597      21.23850968
Si      10.99247635      12.45448394      22.66151100
Si      10.47543347      10.83572399      21.15600806
Si       9.80802265      11.07667085      19.02348996
Si      35.57754508       2.73786418      32.12170347
Si      34.21282929      39.23496427      30.68547063
Si      32.99785223      38.85120371      33.86616281
Si      35.05697393       5.64099171      28.07014286
Si      34.62543924       1.49061815      30.34845518
Si      33.08934574       2.07647794      24.66238882
Si      32.65629025       2.52037523      29.12939898
Si      34.12252138       4.83658291      25.43769628
Si      34.23135028       2.89266699      33.97974615
Si      32.02279925       3.15873573      32.96585642
Si      35.34413094       5.03713670      31.89852197
Si      34.01425641       5.82201416      30.08603421
Si      32.18303808      38.67005794      31.61286939
Si      30.55053070       0.21364977      30.73689358
Si      31.69617485       1.85781662      26.62284202
Si      31.18764863      39.44668601      26.23616897
Si      30.22506285       3.70859079      26.06083572
Si      29.79041288      39.91487184      28.44650964
Si      28.30260766       1.61569710      27.36320331
Si      28.61099285      39.75642335      31.91189928
Si      31.08852136       2.39916783      30.81281688
Si      30.08062963       5.63508497      31.26892820
Si      29.21344028       3.73349462      30.04455115
Si      28.68082143       3.81501861      27.75326634
Si      27.07675509       3.49542598      31.08128336
Si      30.99911141       5.34127700      27.76020083
Si      10.83502697       6.00335743      39.98275029
Si       7.30480464       5.13299816      39.79553585
Si      10.66996657       6.01436228      35.49453057
Si       8.63500400       8.20553174      38.10023333
Si       8.66584682       6.89671485      39.93050463
Si       7.34443279       8.27186602       1.29569404
Si       8.21865116      10.11403728       2.54508501
Si      12.73029061      36.27971846      18.93583599
Si       8.34873980      37.62994711      22.59331514
Si      14.08670701      38.42304904      21.27433322
Si      10.27321995      36.44208921      19.02835999
Si      10.74847218       0.11402681      18.31004985
Si       9.52649960      39.05409683      20.01570661
Si       7.39770734      37.85591498      20.01747828
Si       2.25299538       8.99411492       7.50961380
Si       6.35834233       9.43164207       7.95215801
Si       1.95863022      11.18384275       5.01606277
Si       4.33810034       8.39410048       8.04560753
Si       3.55289220      11.49873560      10.68671114
Si       1.64165108      11.20388730       7.39007336
Si       2.28592966      13.26831437       8.12951917
Si       0.21217649      13.75605739       9.24816313
Si       5.66557360      11.10247514       6.48098921
Si       5.95789892      12.99281445       7.73380815
Si       8.12711167      13.19413056       8.52237698
Si       7.06533390      13.59579486      10.55592540
Si       2.41188231      14.99819523       6.68515133
Si       3.09813745      14.89447713       4.35779874
Si       4.25453258      13.33891603       9.35640434
Si       4.30118499      15.26913283      10.90329229
Si      33.62694742      19.51785822      17.53034786
Si      34.56192423      23.31983499      17.57979680
Si      34.72205132      17.00908917      16.24735832
Si      31.15957577      23.94689175      16.16140706
Si      31.34704581      22.48397841      14.43386803
Si      29.14357148      21.94253954      14.09822534
Si      29.15261665      21.68293966      11.82441403
Si      36.51640090      24.24048283      16.68647378
Si      33.41252866      21.66563003      16.53099914
Si      34.74602463      18.86173198      14.74091505
Si      34.78698734      21.09715053      14.83839061
Si      32.95208927      21.11524849      13.46516959
Si      37.66276848      24.77833019      21.48462430
Si      36.36661789      28.57771512      20.64317745
Si      35.62107356      23.93606671      22.16800903
Si      32.84455494      25.29555752      22.26769085
Si      35.20641474      25.82335933      19.06119981
Si       0.62559341       0.12035387      29.47529067
Si      36.55587488       2.99330211      27.96365348
Si      36.93970069       1.61951675      29.83046480
Si      37.28100086       5.07798155      28.13782563
Si      38.51588688       5.49715034      29.94976803
Si       3.85054442       2.11945148      28.90829827
Si       1.42386019       2.33739980      29.10824025
Si      11.70364809      34.85661820       3.75008793
Si      10.21460031      34.30339644       1.97185955
Si      11.44255377      30.95259912       2.39832207
Si       9.59853698      30.45762605       3.70866544
Si      11.70020515      32.54414718      39.06417982
Si      10.42720684      36.31811479       0.97930532
Si      12.80202255      36.32991263       0.22854365
Si       8.46928892      35.37861461      37.71259886
Si       8.37371900      33.09304300      37.56523031
Si      11.72791530      28.78778957       1.57730206
Si      13.55958369      29.41539294       0.50518381
Si      10.09768838      28.71531643      39.77005154
Si      13.43504080      31.15201143      38.96145869
Si      10.43166846      32.39228724       0.92055634
Si       8.42050696      31.47516509       0.12497763
Si      10.11130967      30.87030766      38.76336347
Si      37.04318187      22.42035702       1.75155755
Si      36.28232404      20.13001502       1.54098906
Si      34.67661794      22.18875500      37.95209273
Si      33.25402234      22.83848251      36.20580455
Si      34.50623775      21.62596393      34.73680952
Si      34.68076644      19.87310834      38.55859156
Si      34.67906034      18.42119509      36.71236952
Si      36.01918588      15.21434767      37.27337570
Si      33.91167077      19.45221797      34.71020966
Si      13.68751684       4.58094885      14.50798122
Si      15.16748467       3.26871844      13.37845306
Si      16.45849858       5.10778586      12.32012288
Si      18.48350626       2.38548772      15.33816102
Si      19.20121330       4.66621478      14.69364222
Si      19.51457497       3.25835452      11.07300560
Si      17.36574052       3.96121893      10.55985955
Si      19.29293279       7.21013420       9.04245875
Si      15.40218755       5.30380559      15.95485135
Si      15.95901463       7.64937158      15.22086103
Si      12.29538130       4.87794162      12.56941266
Si      15.95201601       6.68520206      10.70307537
Si      14.34613189       9.19859580      13.43736088
Si      20.31643339       4.29407950      16.70385878
Si      17.62823856       6.47751453      13.90273414
Si      19.92677113       7.29580821      11.24308398
Si      18.67333953       8.37762894      12.90963601
Si      21.21393261       9.01430042      10.41394852
Si      17.56627813       9.88468338      11.02042283
Si      20.39882695       9.25881453      14.71003358
Si      18.51077138      12.11012598      11.43791004
Si      20.17500317      11.10552614       9.97896937
Si      26.55876945      38.26666658      29.28095865
Si      24.74621868      39.54041711      28.50156132
Si      23.25018310       0.03356430      30.17843468
Si      21.33878976      39.90299521      27.73159773
Si      19.20450757       0.78123836      27.93462441
Si      23.22112816      37.62556412      32.97399537
Si      22.85107436      36.28442591      34.88319483
Si      24.30992653      39.59856727      33.53559742
Si      23.14477172       1.39639237      34.42740135
Si      22.09950753      38.15667931      31.05776891
Si      20.20823434      39.21740210      31.83686711
Si      21.89584857       1.01556488      32.27507389
Si       4.37568734      33.98203634      23.72798464
Si       4.50843973      36.01674173      22.73464215
Si       4.55980041      32.51483179      21.87017043
Si       2.67216781      32.54876465      24.81576175
Si       3.31388977      31.02703150      23.17398123
Si       1.63715041      29.79674078      22.13854423
Si       3.41534230      33.79813656      20.21445287
Si       2.15230423      33.21489858      18.26609044
Si      30.31558750       9.86570345       7.17543472
Si      28.44595905       9.98340290       3.79709659
Si      28.70262269      12.28420071       4.14483649
Si      30.67936769      12.12146767       2.98736400
Si      30.27128287       8.97640903       5.11807637
Si      32.71496319       9.27272284       4.47949852
Si      35.09565179       6.36762877       5.93576641
Si      32.49436338       8.86832611       7.75866637
Si      35.26494160      11.54871893       6.77104819
Si      34.85193895       9.41477616       7.35266780
Si      37.17635244       5.85530324       6.98049059
Si      34.97669637       8.54968134       5.19348388
Si      32.58613880      11.77797737       4.30546254
Si      34.43348147      12.80284249       3.48988522
Si      35.85781675      37.72097337      11.02742234
Si      38.75023745      35.10214294      11.20347155
Si      35.64155215      34.60329814      13.47503993
Si      37.00720929      33.23757800      11.95554476
Si      35.72561182      32.78098436       9.87871331
Si      37.44117058      36.45459587       9.88036017
Si       2.51832176      27.67168308      17.96498057
Si       1.78721819      26.70655507      15.96166338
Si      39.33065089      24.83785217      17.06479418
Si       0.37156520      28.22491317      18.71512470
Si      38.86942527      28.10128238      20.53836883
Si      38.50410675      32.24807822      18.70647198
Si       1.39817220      24.10190153      20.05520483
Si       0.28290606      27.92564873      22.52414369
Si      38.18598825      28.71064477      22.95269526
Si       1.20418969      25.23328358      22.09525215
Si       0.36900599      25.75971942      18.83839198
Si      38.36272414      26.03378510      19.76660569
Si      34.75387200      28.11080765      19.02658098
Si      37.02890916      26.92293696      22.01312047
Si       1.13933053      34.91164415      16.96128876
Si       1.93149106      36.37430236      18.47228005
Si       0.20301613      37.93472845      18.47910286
Si       9.88917852      23.78511603      22.83124331
Si       8.11293840      24.32871016      21.51279590
Si       9.10632544      25.51980871      19.62992243
Si       7.71355831      23.66129569      16.89750539
Si       9.96256430      21.77221941      21.79816519
Si      10.88335658      20.16839210      23.38714870
Si      10.68239224      22.01157828      19.51881217
Si      13.65545861      24.20254927      22.24683036
Si      12.61905599      27.01962924      18.25847549
Si       6.99080247      21.89067151      15.65325231
Si      10.22832114      19.80709637      19.02293751
Si       9.72967407      23.78653839      18.19251195
Si      10.85268349      24.58615108      16.27036789
Si      39.27877000       8.80401058      17.00218849
Si       3.12041495       7.77408675      19.63015316
Si       3.24153788      10.30241966      18.92057934
Si      39.13844628      10.44088617      18.86002982
Si       0.69805255      12.42181985      18.86818002
Si       1.37025291      15.69601746      19.89374364
Si       1.19303603       8.05791712      16.00941906
Si       1.76087791      10.29100349      15.65748121
Si       5.25595875      11.26062840      17.78636505
Si       3.29249569       9.92526152      14.02120386
Si       2.34934125      11.84443822      17.15595724
Si       3.04372878      14.05996764      16.59084626
Si      33.07222752      23.02497190      23.15055059
Si      34.09796927      17.51338912      20.57177235
Si      31.73088318      19.51172061      20.85790427
Si      34.73343381      22.30403268      19.86337078
Si      31.53555552      24.90748244      24.06985966
Si      32.98156482      26.39543501      18.71811215
Si      31.63250577      18.78457694      18.54180240
Si      32.80321509      21.74623141      21.02175536
Si      31.08357154      23.16417439      19.95993337
Si      30.99590995      25.37881083      20.82195489
Si      29.93898080      23.15738379      17.90726779
Si      15.22037579      39.22103683       7.75101766
Si      18.10932115       1.04630983       5.96667756
Si      19.24055045      39.40885810       7.17842358
Si      19.92149558      37.71502618       5.40850800
Si      13.13632348       1.31049337       4.25462062
Si      13.15796353      35.53951655       8.34544194
Si      12.09888739      39.25312922       4.42361298
Si      12.86294349      36.86503905       4.18968913
Si      17.98410117       0.67363200       3.80559905
Si      16.95519017       2.62869405       3.09657745
Si      18.43813827      38.79985859       1.67562376
Si      14.70988688       1.95552057       2.73732914
Si      16.18507433      39.20685057       1.04588370
Si      16.02887643       2.33226173       6.14319589
Si      18.67342032      35.75989831       6.12970831
Si      16.92770528      36.10065552       4.43896298
Si      14.95878851      36.82855273       5.38180935
Si       6.53159185      35.65618778      36.45772339
Si       6.12154292      37.18431960      34.64619422
Si       2.75428377      36.02139500      37.96444210
Si       8.87227793      36.76824755      39.45373178
Si       6.38909440      39.31021642      35.71507852
Si       4.05298507      37.83293730      38.80731532
Si       1.95789673      33.81875558      34.51449556
Si       0.85239524      37.35419199      38.52865533
Si      39.30069426      37.42635197      36.81489467
Si       2.93349664      35.79875308      35.54754567
Si       3.87644113      37.82039305      34.59027497
Si       0.31983025      37.12489575      34.53729844
Si      17.51792811      17.85701610      28.17034700
Si      18.17297130      19.45891123      32.20945926
Si      20.17071658      20.40316279      31.61730360
Si      16.64816732      20.24256536      28.75077699
Si      21.75994326      15.72640247      26.95058610
Si      23.78898895      20.55810322      30.05692448
Si      16.73928330      18.40005309      25.92463550
Si      20.06241820      17.37123831      27.83836475
Si      20.52925861      20.97414432      29.06061327
Si      21.01576301      19.35942900      27.04132623
Si      23.45826101      19.75864633      27.71456460
Si       0.94827699       8.69467584      28.22857139
Si       1.20374375       4.22281373      27.76483150
Si       5.05416697       6.05042627      27.44199800
Si       4.88804660       4.63035484      25.69991487
Si       6.10281372       3.13179353      26.97210431
Si       1.65366808       6.85710063      24.64617563
Si      37.89605326       6.20247241      26.30073526
Si      36.09145635       5.97650369      24.85046955
Si      39.46397911       6.20847981      24.66619659
Si       6.59669807       5.17515383      24.06793313
Si       2.39541455       4.65124853      25.58396181
Si       2.05027082       2.98073823      23.87244498
Si      11.46890707      31.77319411       8.05222770
Si      10.63838595      29.02953315       5.38057840
Si      10.82543569      34.02214548       5.57867847
Si      12.56808716      33.66202814       7.12530415
Si      14.96421263      33.54781603       6.83158137
Si      12.63404084      31.36358998       9.94493150
Si      16.30142604      32.18542606       8.44944144
Si      14.59911178      26.82311514       8.72041526
Si      12.22954911      27.94181697       3.97773907
Si      16.00849310      26.94745377       4.75189470
Si      12.23723446      29.77451061       6.97891657
Si      14.87937542      32.10095507       5.12505690
Si      14.43788605      30.00264657       6.13698065
Si      15.97269264      29.88522370       8.06523211
Si      28.07388112       6.42985073      10.44990565
Si      25.62362492       4.64607001       8.03252242
Si      31.17369201       8.81417743       9.64656601
Si      33.32766141       6.66069854       7.45394767
Si      31.32970935       7.45433602      11.43087610
Si      29.89369259       6.77662297       8.80399495
Si      33.38753531       6.27949011      11.52416906
Si      31.27497557       4.71017240       8.89656896
Si      34.51422242       7.11556785       9.57534402
Si      32.30418666       4.59781702       6.80881097
Si      33.45661960       2.67427578       6.01357136
Si      27.03959590       4.47931798       9.84836218
Si      28.08532980       2.55238098       9.47216353
Si      32.26468318       4.25544482      11.04828641
Si      30.27575191       3.44051426      12.36064753
Si      28.73524847       1.85306663      11.57442565
Si      26.87169686       0.96159905       8.34716335
Si      29.87537926       3.03265272       8.19742300
Si      31.52674170       1.48046661       5.47438291
Si      30.31791274       0.97660829       7.34800796
Si      31.62898078      39.58855342       8.75474129
Si      33.00516406      14.38918313      30.87100117
Si      36.88332863      11.70549544      30.58195619
Si      31.27138859      13.51310927      28.54500635
Si      29.85603019      11.83477754      23.57897378
Si      35.59329796      10.57665962      27.48036808
Si      31.20473775      11.64828636      25.46042867
Si      32.88325846       8.40240252      23.07189441
Si      33.06238871      12.27250538      24.14466900
Si      35.63985652       8.22638627      25.37247014
Si      30.84486407      15.25197774      26.91275025
Si      33.64453904      13.28715140      28.90802962
Si      35.41992511      14.28107580      27.72146898
Si      35.10237661      11.61882886      25.33476233
Si      34.55249552      16.44110107      27.40859014
Si      33.87479820      10.43715376      22.64075572
Si      13.34796215       1.81662813      12.70243192
Si      16.25536658       3.00851152      15.40836128
Si      18.07733395       0.03084727      12.08658755
Si      20.19094997       1.03431792      11.19601722
Si      19.00493109       0.29053609      14.13024466
Si      18.67815218      38.15807581      15.12798433
Si       2.59235058       0.70474478       8.61939447
Si       3.47031157      39.80722072      10.82084418
Si       1.89566485      38.23992065      11.75208021
Si       2.31503158      36.63219764      10.03649418
Si      39.26809989      39.38451247      14.23719732
Si       2.60396862      37.67680984      14.03213693
Si       3.14247162      39.50988143      15.42241944
Si       1.04393227       0.07374565      16.07118632
Si      37.16513670       3.65447281      12.68768469
Si      37.91396669       1.30727837      14.51383771
Si      39.58084401      38.94308657      11.83028970
Si      38.48191859      37.13548428      13.05476667
Si      25.82982519       2.42080210      16.75691802
Si      24.68527247       1.05616241      15.05309770
Si      22.47359031       1.76881159      14.71823366
Si      25.05033010       2.17695296      12.93660242
Si      22.60352382      38.95420967      12.02436857
Si      21.19240760       0.38325261      13.28062969
Si      23.89206470       0.80384520      11.36275019
Si      22.27850239       4.13569581      10.22377425
Si      27.33443945       3.53130858      15.37533858
Si      25.17619902       4.53219946      15.70786301
Si      21.43195378       2.21068091      16.73921559
Si      24.35803571       4.15102472      17.86222925
Si      29.94277572       3.64868083      14.68521303
Si      26.71093762       4.22087058      12.17466693
Si      28.86998256       5.26321904      12.31443112
Si      25.50497188       6.86287982      10.65008151
Si      27.76445212       7.00802411      15.25237031
Si      25.59133322       7.62953118      14.38304523
Si      23.70517653       3.62598482      14.06757545
Si      20.86685375       5.15846883      11.68343889
Si      22.54749965       5.34617640      13.22650671
Si      21.31922888       5.69344995      15.14560346
Si      24.20389598       6.93252691      12.61572428
Si      23.09536795       8.91875211      11.76106901
Si      23.93081499       5.50540396       9.25003917
Si       8.38974014      15.53908498      15.71749805
Si       9.16530194      13.08411359      12.30486292
Si       4.77327025      14.15328912      13.02062606
Si       4.47165076      11.75149705      12.84824801
Si       9.55946980      13.89740475      14.75544795
Si       8.41250125      11.70245103      15.17971037
Si       7.67041196      11.48485653      17.46990970
Si       8.21204490       9.43171523      18.51094899
Si       8.41182340      11.63981061      10.82008081
Si       7.68853524       9.71380335      11.95543468
Si       6.15127205       8.71912510      10.33006451
Si      11.50227597      12.60736477      12.75641674
Si      10.46985842      10.44378647      15.35457349
Si      11.71523858      10.16399740      13.38947366
Si       9.82324257       8.58814939      12.62716973
Si       9.24402777       6.65981595      14.12440838
Si       6.57406294      10.75599726      13.79826408
Si       5.21031011       9.65214415      15.53458604
Si       9.64254885       6.39621712      16.52517097
Si       8.25984021       4.48496359      16.88779168
Si      22.81237879      15.56883413      28.88862658
Si      19.84203985      13.10482227      30.53062464
Si      23.88789018      17.21045750      29.99251483
Si      23.43051425      18.84911968      31.49941535
Si      20.95858572      17.26504545      34.02630824
Si      19.25610177      15.25934908      27.12438396
Si      17.49909532      16.77690855      34.07051213
Si      20.45837352      15.03508732      29.37271772
Si      21.25165015      18.44690463      32.06602757
Si      20.06560237      16.64255059      31.05141208
Si      17.94999625      17.19166061      31.81614443
Si      18.95102979      17.76176018      35.63490755
Si      21.18122113      18.68496497      10.15235045
Si      18.38046446      20.97642274       6.79179578
Si      23.08941867      20.33104856      11.66340015
Si      19.56281616      20.55614176       8.84426251
Si      20.53714269      25.12409252       9.04718368
Si      22.89077509      24.30486601      10.65021746
Si      22.85658208      26.74109078      10.52796324
Si      23.34947097      29.91987768      36.54082773
Si      25.36830006      28.86360402      36.59584523
Si      27.90398337      27.74746722      34.38980338
Si      29.77150432      30.07038706      35.26276508
Si      28.24787304      29.83788581      33.42649487
Si      29.52521053      30.13918436      31.33462421
Si      16.29945166      25.89820673      20.15277185
Si      14.21153310      27.50927865      23.26446845
Si      17.11976772      23.35291467      20.17158182
Si      17.04275654      21.80421563      22.37165718
Si      13.68626131      23.00473205      24.21320446
Si      13.46086270      17.59286258      22.43700578
Si      14.09602517      19.77636673      22.60978253
Si      16.33185976      19.55005876      22.28491245
Si      12.89718677      20.83316613      24.29296810
Si      17.87493007      18.65850420      23.90064539
Si      13.53599869      19.68179484      26.26658039
Si      12.58724962      17.60503021      25.43964833
Si      15.47498414      25.76445805      22.33739366
Si      12.40530473      23.79700872      26.03618182
Si      12.84193387      26.00220364      26.50622573
Si      16.00729889      22.50185874      24.36390423
Si      15.96094488      20.64963841      26.00926468
Si      18.31846168      23.70011258      27.07464435
Si      25.04095161       2.99790075      34.06643036
Si      29.20752482       2.51350847      38.35516396
Si      30.93517699       3.05538662      36.88706168
Si      26.56128716       3.82741575      35.89050592
Si      28.01100854       5.32117413      34.66492907
Si      28.83410674       6.60368162      36.38773336
Si      26.78556415       1.62512904      32.30296266
Si      30.41479999       2.71149430      34.62017931
Si      34.32036866       5.21110878      34.00315097
Si      26.74468396       6.79746346      33.33323706
Si      27.77772229       5.55872183      31.74259627
Si      30.32489215       5.00805725      34.68943491
Si      32.11649556       5.56816821      33.21885187
Si      32.15978024       7.55136407      31.64479803
Si      32.65887779      16.27160719      39.11984134
Si      33.98329148      16.24185265      37.28801976
Si      35.49767361      18.22595258       2.55699928
Si      33.10448473      18.62800752       2.22520228
Si      31.96848713      16.53263008       2.55989790
Si      32.65439080      18.50231712      39.90673476
Si      30.20741268      17.77530190      39.83024479
Si      23.28444277       5.83849942      29.23686275
Si      21.78576879       1.65308921      29.27878151
Si      24.68534452       3.36461082      31.14325674
Si      26.86184561       7.59539853      30.99751745
Si      24.63431296       1.00324861      31.72020805
Si      23.63855692       3.45335212      29.03722705
Si      24.83532486       3.48840749      26.92343403
Si      26.63769463       5.02910676      27.38193104
Si      26.18694876       1.14688469      27.92020907
Si      39.43478965      10.67944422      15.70673596
Si      38.97763226      10.64158612      13.52498832
Si       1.54130223      13.93549863      14.70081102
Si      39.70694943       8.01326873      11.68269423
Si       3.82101210       9.09389143      10.34341626
Si      38.87177382      13.90592161      13.17943671
Si      37.82527453       8.67044935      12.78799514
Si      36.10325525      10.13331919      12.06349195
Si      39.68374310       8.74718517       9.53139567
Si      35.81038423      12.99535930      12.73608893
Si      38.17864297      12.52906344       9.28964041
Si       0.63867237      12.32673878      13.05735915
Si       1.24094370      12.23304745      10.80795736
Si      39.94753653      10.97099769       9.17727952
Si       1.86705779       7.97065972       9.54839905
Si      35.44057380      20.54277949      11.31268848
Si       1.04303579      22.14596732      10.83472931
Si      39.77145793      24.24349687      10.68389761
Si      36.04441225      21.87369422      13.07060224
Si      36.67978371      21.06709488       9.43176911
Si      36.12283644      19.52520614       7.77632842
Si      36.37970108      23.24830792       9.10859364
Si      36.49270797      22.11215494       5.55558257
Si      39.21307528      23.07234147       5.87066713
Si      37.21818961      23.83365327       7.00281699
Si      36.24055476      25.78212886       6.11319455
Si      34.03217927      23.20808507       9.55719922
Si      37.31186942      24.51312564      10.82695990
Si      36.13248060      26.47686995      10.36856178
Si       9.07321159      11.55816374      36.58802897
Si       9.80774995      12.51992514      34.67663320
Si      11.40889461      11.11897610      33.67743410
Si      10.41705500       8.22930026      36.37552785
Si       9.59639276      10.45469149      32.15081717
Si       9.28770646       8.69183844      33.67075138
Si      11.44789456       7.32356837      33.74952317
Si      11.92497799      10.09886318      35.72528639
Si       0.11206228       3.85199989       9.23110762
Si       5.93859715       6.41168612      10.49763548
Si       5.38374121       5.15311106      12.64161708
Si       2.37108371       3.01421919       9.13085925
Si       2.54143230       2.92883808      11.43980773
Si       4.26387693       1.64882820      12.06690689
Si       8.14783708       2.71212798      15.45021104
Si       4.16041613       1.60315876      14.39854609
Si       0.72463231       6.10202612      10.56698658
Si       1.15566303       5.85002197      12.82520958
Si      37.26475157       6.85285668      14.12136933
Si       1.47588163       8.09350008      13.50568117
Si      38.87729963       4.99475692      13.69063726
Si      39.13369632       3.36826609      15.44403050
Si       3.04741211       4.60696176      12.84701321
Si       5.67251312       2.97924420      15.65436088
Si       2.91779077       3.52208565      14.84631995
Si       3.67874859       5.06201978      16.54738177
Si       1.30550184       2.34018924      15.88854965
Si      23.63931064      17.90399835      39.20445324
Si      25.33023113      18.36238365      37.70875705
Si      23.09416740      17.12353937      34.95077566
Si      23.93083659      19.24205770      36.06976111
Si      24.57347426      16.02042405      33.34959995
Si      25.21044371      20.81259727      34.78113861
Si      25.33108947      18.09343626      32.59979849
Si      26.66878058      19.67438434      39.11901870
Si      26.91804246      16.76088434      36.95816625
Si      26.94957144      19.19968009      34.07479229
Si      28.49349292      18.35761572      35.89347731
Si      29.84033490      17.46321653      34.11929240
Si      28.55019317      16.24431656      14.91533502
Si      30.92199199      15.17124021      17.86958590
Si      30.46468153      17.43546600      14.73595100
Si      33.40622147      15.41219877      12.88104323
Si      32.69549650      16.76864271      17.56128611
Si      30.02622029      10.53435080      18.84982872
Si      30.85901411      12.49959230      21.21965225
Si      31.93196628       9.86146905      17.86512388
Si      31.73604592      14.36919489      19.95615530
Si      29.96262500      14.32900617      15.75986457
Si      32.16735748      13.23395732      15.34375057
Si      33.88296669      14.92515146      15.12067277
Si      33.23284930      11.61468335      17.05160076
Si      33.10849559       8.68241993      19.69121858
Si      30.85366145       8.45937414      16.27817269
Si      31.84288304       6.63265687      15.47631562
Si      21.80677778      39.58083964      38.59953174
Si      19.41650917      34.75796596      38.63650732
Si      21.57656456      38.07789298       0.64692961
Si      22.58617448      36.05337726       0.62401807
Si      22.19999468      36.76197347      37.01638248
Si      20.79903058      31.35684854      35.67899422
Si      23.59267047       0.94349673      39.12527774
Si      24.66003490      37.24377070       0.29306347
Si      24.52069820      38.84889328      38.61890346
Si      23.99097994      38.12316176      36.38130740
Si      21.87416292      35.07204980      38.65463742
Si      23.58333451      33.38703140      38.21677965
Si      22.95790151      32.11835610      36.27437938
Si      26.93377219      34.05910243      37.66735017
Si      34.38711093      19.89811884       6.33904366
Si      34.36265108      17.49982871       7.17434508
Si      32.28220372      17.73620761       7.98585393
Si      34.79655466      18.47028331      10.84548179
Si      32.66105328      18.72295814       9.95024923
Si      31.45467910      20.59077381       9.63049585
Si      31.56380873      18.22143884      11.88379637
Si      29.74240185      15.56098618       5.71528940
Si      27.64416905      16.45899532       5.01286511
Si      24.85521717      14.61198800       8.05187953
Si      30.57583911      16.16218436       7.76856688
Si      28.79403561      17.80652302      10.96517668
Si      28.62377410      16.93466446       8.76619131
Si      26.94102006      17.19244800       7.10751747
Si      27.02297075      15.18567699       8.79290442
Si      24.89783794      13.65990692       5.72773490
Si      38.13358470       6.47460596       4.76750648
Si      36.97049295       8.43437845       3.60943764
Si      33.99734904       8.23100189       1.01221817
Si       0.11043111       6.01928252      38.81758334
Si      37.77882608       7.68887209      38.78288008
Si      36.44208298       9.52989873      39.13957904
Si      36.45624407      11.71162444       3.58271466
Si      36.05114243       9.34417450       1.44548173
Si      10.97340041      23.38029997      37.44329302
Si       9.45065930      23.22017067       1.15249635
Si      12.15604202      25.04484992       0.72271358
Si      10.36028478      25.08419962       2.20034105
Si       9.97925303      28.20880527      37.51145665
Si       9.10415253      27.03398133       2.70560159
Si       9.44365251      25.34359155      35.14365866
Si       8.72791468      23.62293655      38.85730341
Si       8.28421690      27.70944253       0.67961349
Si       7.96603326      26.00068390      38.66154807
Si       8.47147063      26.98522306      36.44959107
Si       9.05382154      33.84945834      28.16573501
Si      10.49701248      34.01334700      26.35537330
Si       9.29061659      33.10221292      24.57186667
Si      12.99498240      32.65225172      22.38829711
Si      13.25231087      31.24965681      26.04888150
Si       9.62405372      30.92633401      24.90615770
Si       7.17716608      32.70933639      25.20600719
Si       6.42441737      34.74576998      24.56821806
Si       7.08132465      35.66484069      22.51302676
Si       9.06549012      33.94220433      22.33824122
Si       8.56539497      31.79500165      20.97637873
Si       7.63236187      38.93869839      37.74013937
Si       4.25400505      39.27483980      36.52219705
Si       2.56413459       2.89677026      37.73535079
Si       0.62857375      39.66891118      38.24831611
Si      39.53936268       0.71823920       0.06699488
Si      38.46205526      39.77155548      36.52793817
Si       0.07385079       2.56972389      38.56853397
Si      38.54201498       2.80215418      36.88970079
Si       2.95271068       5.14655082      36.98439857
Si       1.33085290       6.40553504      36.05811250
Si       4.00049913       1.75038800      36.34825503
Si       2.36666235       2.65082241      34.69540363
Si       0.08923889       2.62480871      35.15371508
Si       3.05332997       4.68513266      33.63021499
Si      37.79204445       4.87431485      36.07663226
Si      34.67970427       1.51796567      35.88861748
Si      31.58643239      39.90539620      37.29586993
Si      36.55912290       1.59284851      37.55340587
Si      36.23680196       1.77400907       0.21115693
Si      33.17042616      38.73259775      38.39559614
Si      32.98730839      39.19297769       0.61867453
Si      36.71992664      38.24514924       1.39658000
Si      37.59068054       0.35378523       1.54003055
Si      34.48048012      38.36844918       2.10837295
Si      37.56161212       0.57854725       4.23587758
Si      33.84947674      38.91467275       4.33279115
Si      32.79245988       1.78539895      37.54962152
Si      33.54742993       4.47758613       0.35808398
Si      37.23332739       3.80274162       0.56679633
Si      36.66746052       4.96362704       2.51252848
Si      31.16295935      38.47773631       2.08481003
Si      34.24150669       2.47507993       1.36028379
Si      35.33815144       0.72109457       4.99623191
Si      34.47808174       2.59758635       3.89581744
Si      34.97321119       4.82512608       4.03597418
Si      38.67149008       4.68224455       3.47920274
Si      38.08800874       4.86408250      16.97592965
Si      37.57927986       2.17196352      19.44832166
Si      35.28570100       5.14448636      19.49378864
Si      36.42196050       8.68745907      20.08135524
Si      35.02085549       4.27860334      21.74713918
Si      37.63115726       4.56928398      19.17319969
Si      36.53995067       5.67466718      22.65505129
Si      39.54511289       6.00401470      20.07054978
Si      35.37109337       7.63935709      21.92020752
Si       1.13967347       4.81715805      18.62521326
Si      37.69884372       7.10704507      16.44740172
Si      38.64313812       8.95997969      20.65784001
Si       2.31882910       6.65211908      17.63649825
Si      39.58382313       1.11722651      20.32368467
Si       0.27315169       2.22152254      22.30383094
Si      38.71502368       4.69229011      23.04623881
Si       0.66532802       4.94180446      21.78091847
Si       2.76928446       5.16216670      22.83469498
Si      21.62917913      28.91551086      35.48469229
Si      20.87940909      28.49981344      31.36783300
Si      22.19842024      26.78071449      35.56274298
Si      20.47495581      25.83280875      34.49272541
Si      23.43772707      22.85278335      34.16623667
Si      22.70022425      22.54810196      30.70436690
Si      20.86546189      23.42933230      34.77363443
Si      19.67152693      22.44107307      33.02648925
Si      18.26296093      29.99532157      33.17000632
Si      18.65330476      27.10692946      35.45939252
Si      21.06944014      26.39296516      32.33815374
Si      20.68247471      24.98112328      28.70089360
Si      19.80694093      25.15280498      30.83733968
Si      20.28314998      22.99575173      30.95252680
Si      17.83949973      26.12946289      30.23122791
Si      21.43333322      33.90205368       4.57649550
Si      19.48394419      38.10890328      39.87120656
Si      17.99764788      36.59264890      39.20098125
Si      18.54844359      37.44281520       3.53440113
Si      15.85990008      35.40759198       2.48074744
Si      14.24068315      37.25165838       2.44961534
Si      18.65410696      33.04633185       0.21237104
Si      15.46088605      33.16551763       2.94659195
Si      16.91859144      34.96865097       0.35132178
Si      16.27045050      31.04870479       0.90885624
Si      12.17023913      25.98209686       5.31834970
Si      11.00345028      26.28735956       7.36463665
Si       7.25006868      26.93096480       6.21469781
Si       6.46968261      29.19211355       7.01910584
Si      10.39341073      23.92942743       7.70991047
Si      11.94166907      25.14575994      11.08588530
Si       9.34949916      27.85887648       7.13421487
Si      11.82641625      29.29127392      10.57332685
Si       9.59886793      29.12624788       9.80666223
Si       9.92238854      25.55829590       9.97310570
Si       9.02220981       2.43487693      30.82772415
Si      11.15078493       1.45160293      29.98457563
Si      11.13374931      35.32301739      31.07949575
Si       9.35221356      39.14779103      32.68410087
Si      11.67033633      38.56649550      32.53442467
Si      10.24008741      37.85874783      29.28089632
Si      10.33808009       0.04314051      28.38238669
Si      11.98450477      37.28388531      30.68856159
Si      10.42146694       2.31445093      33.93066321
Si      12.67984129       1.69708094      32.99934907
Si      12.91106242       2.93405740      29.48732539
Si      12.27880986       5.21798217      30.00284420
Si      13.28400708      38.47151847      34.29327549
Si      12.62641391       0.25697009      31.23967672
Si      14.90360631      39.65739856      30.30457421
Si      22.11436612      32.56537492      27.82290848
Si      21.27270213      30.90589528      29.27682711
Si      17.70698012      32.59005239      30.56088444
Si      18.01606959      29.82158089      27.69414264
Si      16.75608435      30.46945475      29.78069206
Si      17.49744859      28.85807541      31.27533332
Si      21.30113625      34.08375177      31.64764170
Si      16.89860957      34.12484732      32.49431822
Si      17.56599998      32.16216535      33.64117332
Si      20.14551189      32.20267795      30.95052475
Si      21.68877922      30.59277713      31.71507072
Si      20.58029023      30.08737936      33.70019277
Si      16.93819051      38.73410787      38.24740554
Si      16.32041971      35.04285822      36.27977068
Si      18.71778857      32.14495705      35.65745342
Si      13.22890822      37.83311864      36.56370495
Si      11.57256958      39.35792084      37.35485568
Si      13.29272779      35.68023801      37.99825994
Si       9.79078131      38.70053184      38.74009422
Si      12.95235690       0.31981575      38.99365110
Si      14.00617397      38.35983109       0.35264903
Si      15.07983960      34.16140435      34.41057890
Si      12.39372660      34.38498315      34.89789678
Si      11.59683526      34.21560458      37.24574047
Si      15.41140012      34.51557637      38.44454533
Si      15.49053813      32.12225437      38.74919370
Si      15.40545187      31.11707238      36.59433412
Si      15.74910383       4.58985039       9.09783803
Si      16.54905483       4.17567693       4.73888960
Si      19.01953941       4.91643625       8.62119747
Si      19.37616815       5.85979210       6.39956727
Si      20.58840642       3.26885413       9.03665293
Si      18.84557987       4.36311508       4.82434423
Si      20.00300995       2.41392392       5.74002899
Si      15.20959064       2.60313707       8.21238490
Si      16.45115124       0.80905855       9.03649260
Si      20.82194499       0.85020707       8.54576898
Si      16.13266003      23.30060233      13.28193954
Si      14.28624545      19.19347012      12.39081258
Si      16.68515214      19.54719720      12.80594395
Si      16.03185164      15.30245005      12.54806848
Si      18.07960370      16.12217434      11.75397921
Si      17.53804116      18.42250460      10.98571149
Si      17.78259020      21.62068224      12.71066157
Si      16.25467576      28.71070624      26.82380746
Si      17.58321851      26.34233525      23.39640070
Si      17.62378177      26.35838131      25.68897837
Si      15.68039785      26.27542450      26.90213851
Si      16.89284936      24.90876970      28.48072100
Si      20.22919839      24.88633165      21.55868213
Si      19.70852506      24.94313298      23.74475160
Si      19.00921234      21.68231991      23.93247217
Si      19.75822747      25.57895709      26.71495217
Si      21.98092379      22.90144188      28.60673700
Si      17.74129346      24.12997021      24.96377019
Si      18.10632152      21.36203082      27.31953883
Si      18.60825996      22.07441561      29.50655181
Si      37.49664443      26.10363830      17.67061511
Si      39.50059741      23.63464340      13.97718760
Si      37.37569989      24.78659522      14.54546761
Si       2.19415506      28.43227255      14.59697310
Si       0.15669359      29.46876131      15.30847451
Si      35.81320559      29.22711745      17.23165274
Si      34.24367091      29.56499480      15.52018664
Si      37.35814684      31.20939967      13.44701322
Si      39.63574817      30.16548910      13.12942370
Si      38.07212210      27.08376081      14.60159775
Si      36.12449362      27.34623609      13.53449284
Si      35.57211624      29.60624381      13.63518859
Si      36.25737019      28.51256103      11.46377425
Si      34.27437672      36.89297512       5.32563042
Si      33.05631947      34.01800923       6.93898075
Si      35.45462731      33.54226300       7.07352776
Si      28.56536913       2.71455448      17.20014970
Si      28.47675132      39.52365684      20.44741373
Si      30.57660688       1.76402019      17.57166653
Si      31.30915128      39.93452036      16.21862040
Si      27.24457873       0.87899898      17.55359642
Si      27.23444501      39.12849321      16.11711471
Si      27.25436001       2.07689563      13.47805917
Si      26.51797016      39.91059679      14.04053507
Si      27.71057210      39.77289574      11.93147193
Si      30.45758031      38.27202556      19.84095747
Si      29.57633890      36.81688356      18.22615303
Si      28.87137879      33.47246562      19.91550330
Si      32.72169017      36.85864867      17.01826243
Si      30.59293305      33.67495545      13.89201028
Si      25.20960848      37.77120314      16.68972184
Si      26.04458767      36.41503640      18.41969389
Si      28.09026860      35.05739436      18.34184614
Si      28.32435887      33.71175529      16.62716980
Si      29.44256915      38.13632548      16.14193256
Si      28.74965370      37.67992435      11.87894394
Si      28.72589295      36.94290810      14.16264494
Si      30.52640294      35.90582117      13.33301058
Si      27.78701077      34.98833151      14.85490609
Si      30.48142947      33.05315761      16.05657724
Si      13.03237221      36.25557462      21.20094908
Si      17.13865779      36.05045493      21.59585070
Si       7.69212003      36.77732218      24.97041190
Si      15.03306697      35.13130701      21.79343580
Si      15.12981072      32.93113412      21.74201204
Si      14.98532132      35.68708784      24.03199097
Si      13.09221610      33.63586537      26.67842852
Si      11.49547832      34.92072783      22.60976885
Si      12.02224365      38.87893288      24.53964390
Si      11.41657993      36.52522632      24.57359489
Si       9.64333537      36.13981478      26.11712939
Si      13.25107458      35.70938276      25.58711898
Si      32.90885716       8.92299522      12.23069188
Si      31.17911525      10.29234456      11.83617290
Si      29.13505776       8.85183372      14.76251089
Si      28.05636941       8.86083625       8.01338557
Si      29.53172248       8.94035653      12.48657076
Si      25.01218670       9.12730145      10.44786146
Si      28.37887744      10.87643548      11.33337013
Si      25.51504310       8.99543167       8.10301003
Si      32.18209231      12.17104097      13.02997749
Si      30.93157146      13.74057628      11.70014806
Si      28.16396123      11.01981712       9.00336170
Si      26.11194416      10.99774741      11.29585870
Si      25.76283978      12.98542351      12.87442832
Si      23.77272183      13.33157668      11.92226334
Si      24.10688010      13.59812806      14.47824024
Si      31.24316949      16.10002964      12.68152447
Si      28.59919804      13.12856985      12.22210154
Si      26.85528868      15.02478149      11.25452179
Si      24.47337788      15.41281754      11.79187717
Si      27.48588506      16.83914582      12.59713794
Si      22.59293100      16.06326790      10.62079414
Si      24.10051049      13.00412975       9.65970919
Si      12.93198874      34.16594751      31.71084647
Si       9.50609908      32.50560569      30.04720814
Si      13.63261855      31.55496934      28.99701703
Si      10.88085556      32.87646120      31.90953049
Si      10.23689804      31.25410591      33.43945210
Si      14.27549395      32.62355996      30.84908243
Si      14.07267005      31.03978303      32.52372000
Si      11.79020897      32.32169710      35.75756233
Si      15.41403139      31.89968489      34.38008507
Si      13.17657814      30.76696959      36.73360518
Si      11.29775821      31.21757272      28.98387144
Si      12.13843440      29.23186090      30.04579712
Si       9.33098292      29.14318796      33.76935291
Si       7.30397872      28.78003727      32.76188647
Si       8.97738919      29.68484388      35.92883390
Si       8.04030288      27.56395804      30.95661062
Si      14.35527551      29.77461211      27.62732294
Si      14.05952180      27.41411890      28.23054996
Si      11.82934124      26.92599615      28.59136145
Si      12.06996522      29.76124098      32.54224905
Si      13.37591516      28.62956663      35.97921235
Si      12.71496689      27.93121519      33.97733207
Si      10.36099501      27.27343591      34.43578213
Si      16.58961284      16.35261608      30.12319283
Si      15.34680822      17.41163879      34.43000373
Si      12.67230895      16.32792432      32.12276232
Si      17.66815680      14.09875161      31.09879360
Si      14.04740727      16.15022398      30.19070816
Si      13.83343262      13.52830115      30.01937225
Si      15.02194406      12.14752822      28.53902897
Si      14.74838210       9.73190232      28.70293580
Si      14.31285444      15.51206544      33.63091197
Si      12.91221065      12.83518233      33.41472441
Si      15.84604416      12.76384381      30.99692118
Si       1.19653062      27.78234646       4.87609646
Si       1.46355048      31.68072532       5.18105759
Si       3.83864344      28.65853441       1.89274059
Si       2.04368755      25.84025776       3.69141524
Si       1.91668064      26.11846725       0.36000638
Si       0.54047503      33.75955966       3.18676075
Si       0.47698030      29.99702299       3.68801295
Si       1.36333368      29.90794968       1.27889911
Si      20.70422497      12.04730916      24.59743490
Si      17.96427459      11.55487528      27.21693124
Si      17.00608847      11.33195526      29.49327415
Si      19.84990517      13.04248249      26.48862430
Si      17.27991777      14.77196374      25.91391146
Si      17.78116580      19.83508380      16.87026584
Si      21.26149854      20.98135287      15.44350052
Si      18.98319681      15.88876347      14.10468772
Si      21.91888486      18.06264201      12.22376987
Si      19.02159745      20.69611468      14.63905391
Si      32.77654970      14.55107305      22.89583916
Si      31.73082193      18.67735876      26.05286161
Si      30.84683886      15.83956077      21.44598161
Si      32.27942935      17.58202238      21.96229461
Si      35.05436818      14.74191421      22.72537716
Si      33.15451989      19.93728579      24.82063847
Si      29.19343303      22.08407292      25.48130079
Si      31.64087624      21.83030236      24.74619965
Si       4.58025667      18.39145282      30.73611014
Si       5.20986906      17.16478286      32.74861365
Si       3.65620978      15.94806401      34.13934717
Si       8.26778841      19.89635348      31.22176795
Si       8.00522907      19.16866253      33.47914577
Si       7.00576214      14.29099794      35.81416508
Si       9.36185378      16.69072796      35.13400823
Si       6.00781442      18.49475942      34.40712812
Si       5.26768949      17.69885592      36.50882080
Si       7.32411837      16.46090425      36.15583774
Si       7.36620383      26.22537414      25.12236751
Si       8.16981340      26.09949108      28.99077854
Si       6.00605184      28.44750744      28.35378953
Si       9.06936236      22.48501637      24.75938163
Si       7.92161247      24.85793419      27.00785802
Si       5.85031503      23.20055637      27.37374024
Si       4.63485035      22.55997744      25.17603856
Si       2.81164450      20.74918824      24.59954907
Si       6.17144855      26.74638742      29.90175869
Si       4.63502786      25.01860493      30.43621323
Si       6.28374070      21.79960198      29.38775040
Si       3.82537726      23.91078097      28.64415815
Si      31.58894954      24.31709445      13.06382074
Si      36.03765044      24.10092719      12.77065775
Si      32.80917464      21.74019207      11.15356070
Si      30.96764150      23.03887331      11.33337213
Si      31.24149278      24.01452028       9.35092138
Si      34.17326914      26.21081405      14.68967066
Si      29.89799481      26.00729657      13.17340417
Si      30.38438954      27.45846924      15.09192463
Si      29.96855713      27.26927293      10.97542152
Si      32.73733816      27.87511094      14.97087989
Si      32.66999839      29.29894868      13.21355618
Si      33.82460455      25.07200583      12.82415324
Si      33.09593527      25.31832927       9.45050304
Si      33.92775898      26.55242709      11.09593712
Si      28.68956456      30.23333545      15.30692137
Si      29.85174984      31.16340868      19.20577773
Si      28.24206637      29.48801819      19.09545160
Si      26.42502636      32.26394836      16.76417719
Si      28.68278877      28.34241385      16.74728693
Si      27.19020123      26.65600093      16.33409728
Si      26.71097690      31.47960252      14.68022121
Si      24.97978150      30.00659935      14.75792612
Si      29.35595920      28.92557714      13.61098331
Si      27.56145550      27.77858730      12.68369697
Si      27.42093304      25.79453152      14.12633092
Si      25.50055588      28.80954693      12.87630592
Si      23.51955573      27.67724555      12.52007985
Si      26.21119603      30.91406384      18.76282363
Si      24.81850091      28.99826529      18.75141028
Si      28.74169551      28.30905307      21.26909090
Si      24.47358336      27.96285013      20.86061059
Si      21.29841472      29.86015729      14.87110421
Si      25.21186316      28.00787703      16.58409610
Si      23.44049187      26.60179459      16.25202468
Si      21.93140520      28.32083697      16.63739321
Si      21.81333343      29.21870622      12.45517580
Si      26.34155820       1.93172310      25.79219098
Si      28.32085425       1.58127687      22.34704088
Si      28.00960305       3.19817520      24.26106635
Si      30.69768717       6.24130410      22.77976788
Si      27.00561291       5.08876665      22.93006068
Si      26.34002347      39.90462970      19.41275537
Si      26.03936426       3.36138487      19.21706138
Si      28.68681975       5.98717031      21.61844733
Si      29.94101125       4.64284283      20.32350803
Si      27.93609119       8.01028239      20.81372992
Si      31.16673925       6.46949733      19.60849304
Si      28.11010217       4.34502399      18.73853446
Si      27.59716406       6.43883428      17.58395037
Si      32.56457044       6.91198042      21.35352053
Si      25.22579834       4.89686600      21.00669254
Si      24.70276832       6.97473154      19.94377895
Si      26.51118740       7.94234708      18.99114172
Si      27.50187327       9.02173104      22.83196005
Si      28.17725177      12.93515702      25.01839783
Si      28.50873729      15.06383604      26.14728023
Si      26.97884105      15.22853478      28.14731670
Si      29.63601287      12.58294841      27.02056484
Si      28.20528313      11.75470147      28.83586039
Si      27.94976669      14.10940034      29.92063850
Si      10.87953825       2.63395809       7.09268664
Si      12.05126767       2.06048089      10.73490267
Si      11.25634666      39.21071809       8.25470472
Si      12.00423568       0.49228133       6.55235909
Si      12.65792112       0.02180687       9.82736602
Si      11.35691603       2.94503084       4.46866648
Si      12.78430933       2.91622336       8.67983855
Si      15.45491642      24.27979105       0.59112827
Si      20.33373718      24.32736127       2.86401730
Si      20.28352571      22.33744946       4.01485874
Si      18.78348380      24.60202257      39.30475450
Si      19.33001327      22.44669618      39.76205120
Si      21.54954711      23.12119107      39.88408541
Si      24.54004276      21.25855792       1.60020711
Si      22.97760197      21.47380948      39.26955493
Si      15.35381465      23.20790225       2.66319185
Si      17.12605675      21.77011694       2.90711052
Si      16.99848779      20.32474495       4.67106539
Si      18.47822227      21.10553994      37.63620954
Si      20.09079614      19.49711623      37.47101775
Si      15.89973383      20.55730532       1.38412211
Si      17.08370053      18.87032303       0.26797250
Si      19.25875386      21.56357144       1.97906783
Si      22.87682350      19.69132942       0.80055964
Si      20.42753900      19.54554776       1.46122923
Si      19.37494007      18.59333544      39.56024036
Si      22.25930211      20.56146224      37.19406423
Si      21.22936279      19.36166949      22.30662028
Si      23.51923062      19.14685627      22.42746076
Si      24.40940035      17.58713406      20.95128372
Si      20.10789807      18.20471473      20.44220530
Si      20.19571969      15.72157827      20.13266144
Si      24.55101186      13.65110625      20.57397219
Si      21.77785874      14.29985788      20.93469384
Si      23.78924124      17.65484540      18.64002781
Si      24.93030744      16.10357700      17.19157014
Si      25.12326848      13.80316769      18.32412545
Si      23.46922183      15.79081640      15.20866379
Si      12.82332121      11.05841713      23.32959345
Si      12.10426599       5.83548296      25.23719572
Si      14.44228829       7.70530520      24.54506135
Si      13.42146702      11.99799568      26.85523353
Si      15.98377017       8.22156604      27.19463009
Si      10.48261908       8.34698359      24.14697643
Si      11.77926607       3.72312935      25.86758803
Si      12.59027879       9.17131951      24.47232437
Si      12.59058376      10.20071131      28.26608920
Si      11.62600254       8.97892181      26.54993362
Si      11.31635405      12.80645885      27.33795523
Si       2.32202681      17.12463775      38.03831989
Si      39.57024207      19.75580871       1.39690973
Si      39.87405239      20.54559115       3.61180560
Si       2.02069125      19.83766260       0.79660727
Si       0.38180556      21.73312212      36.65062160
Si       1.24647436      22.65390409      38.70798880
Si       2.03367752      22.18844206       0.90877620
Si       2.85153975      15.33388185      39.37324101
Si       3.29904466      16.36121799       1.38626509
Si       3.75424289      18.56711484       1.74298343
Si       2.51234449      19.41082681      38.51834881
Si       4.91782286      19.89324615      37.63879189
Si      20.90958319      12.92692945      32.63176702
Si      23.12344477      11.62905456      30.00312976
Si      23.32506144      15.51294150      31.50987059
Si      21.23086868      15.34997510      32.56039476
Si      24.36300497      13.56063161      30.60549200
Si      20.07388344       9.41899406      31.57358287
Si      19.61002964      11.88568881      34.22627760
Si      20.76090138       7.80111965      30.09656758
Si      21.95469077      10.96770955      31.80737645
Si      25.31412888      11.68217105      33.82359539
Si      23.79270306       9.75018508      32.64337927
Si      22.50958464       8.25220937      33.94080009
Si      24.61409693       8.12641109      30.61452357
Si       1.38894315      16.95734779      34.09953086
Si       0.03895616      16.82731171      38.19166124
Si      38.12130017      17.36371550      34.95260251
Si      36.83915659      17.39244084      36.77938538
Si      37.27844861      13.96164815      38.73723766
Si      39.42839567      14.91981887      39.36401721
Si       0.43982596      19.55041683      37.24996396
Si      38.44357913      18.51012302      38.20372381
Si      37.14248327      19.97934991      39.48474157
Si      38.79139179      21.74364469       0.45579688
Si      39.44822346      23.65782669      37.63425322
Si      26.19251793      13.07430769      15.29717885
Si      29.35494288      12.65325271      19.42656462
Si      26.95947087      12.61055128      19.51188329
Si      25.98242024      10.98825881      16.12823332
Si      28.43943763      12.87915427      14.66704582
Si      28.17585256      10.71918983      15.49651856
Si      28.29576191       9.87461585      17.59866098
Si      29.32877246       7.84765380      17.87463252
Si      24.57925360       9.63115535      14.85975720
Si      20.27784396      27.14426599      10.31527406
Si      16.36476105      27.98733742       9.73984679
Si      20.48525508      23.77016660      10.92573128
Si      18.79058667      22.18541629      10.46660663
Si      18.44992036      27.20644799       8.62529942
Si      17.68494213      24.91545214       7.68754891
Si      19.19137662      23.28941691       6.33353582
Si      15.60015335      26.90634397      11.98900327
Si      15.73807600      24.56012474      11.28370123
Si      15.68894925      25.92756452       6.84936796
Si      14.03414872      24.72420570       5.84943513
Si      13.91912742      24.87177153       9.89135216
Si      11.95186879      22.61287182       8.83516013
Si      16.94754027      23.38056011       9.44757241
Si      15.91034932      20.41800938       6.62838823
Si      15.38250766      21.57516060       8.47651841
Si      15.78666316      18.97093177       9.36284293
Si      13.48501579      22.62016094       6.95856203
Si      11.55709884       5.44614473      32.24686258
Si      12.63059859       3.88267585      33.65066729
Si      15.99541328       4.52385518      35.90314192
Si      11.95608493       2.61680015      35.47942843
Si      15.55101375       4.54282451      31.91682472
Si      14.76498130       4.31089739      34.01969502
Si       3.62730809      29.79666469      17.96795077
Si       7.25450886      30.56242027      17.93559320
Si       5.70209060      27.38154396      19.83203206
Si       6.36888842      31.02966599      21.44914579
Si       8.57680606      32.37100760      18.69228960
Si       5.19094264      26.51540714      21.92856370
Si       6.79364464      30.25832874      23.73723261
Si       5.61169700      29.74883051      19.44894470
Si      29.34186340      28.89721474       4.07313769
Si      32.35991477      29.42683638       1.50353236
Si      29.55349334      25.57950179       4.59558874
Si      31.93684242      32.28118937       5.93394988
Si      30.18533276      32.57900636       3.20669727
Si      31.30490505      30.17840033      39.34065342
Si      29.79286462      33.70484105       1.21521643
Si      30.34861238      32.41332299      39.37546018
Si      30.54333413      30.35346450       2.70230968
Si      28.78623844      37.19054679       7.67722727
Si      31.48549550      39.08223573       5.05091949
Si      29.63673879      37.74771421       4.11138818
Si      29.10837547      34.98754198       7.28935042
Si      29.66872085      35.37194781       4.73087639
Si      28.02824221       0.47961059       6.40782657
Si      27.51359555      37.27219470       9.83870948
Si      25.36320751      36.50502821      10.30322488
Si      28.97136760      37.50244934       1.70543666
Si      26.69365899      37.07709293       2.58429200
Si      27.97727711      38.18940657       5.73750443
Si      26.41743710      34.21001071       5.40612215
Si      26.19864517      36.93940773       4.90815373
Si      25.30238498      15.00946892       1.40798015
Si      27.29464019      14.36349122       0.61611214
Si      26.96680036      12.25964931       1.90168479
Si      26.31236153      11.19607658      38.14727166
Si      28.64245122      11.42145501      37.70853437
Si      24.57749076      15.84150080      39.47181746
Si      22.03008039      16.41431109      38.42526352
Si      23.74782849      13.35291791       0.65421480
Si      23.70157540      14.91991658       4.16372805
Si      25.87696838      11.72985417       4.26199164
Si      24.16933701      11.95059202      35.96710046
Si      24.41584174       9.78863697      37.26625429
Si      20.50558921      12.42866780      36.40071259
Si      21.76578067      10.57749141      36.87703994
Si      25.45086445      11.86051827       0.26299772
Si      23.17425121       9.33491009      39.37851313
Si      27.28394579       7.76826972      37.79981872
Si      24.30747948       6.39077458      37.73018812
Si      26.19377868       9.34954268       4.04729695
Si      28.28281073      10.38644507       1.40141344
Si      23.94059138       5.60297965       0.11657847
Si      25.61324891       8.80948944       1.76792958
Si      26.43758392       5.54206529      37.68433807
Si      27.29753196       7.77559640       0.25481840
Si      29.46605480       6.76280690       0.56904797
Si      26.02812142       6.06214877       1.15931984
Si      23.48718849       4.31471291      37.32862793
Si       1.89470878      39.89550363       4.88266353
Si       2.96818304      38.92746440       0.80809554
Si       0.77508864       2.13951292       1.31751016
Si       5.86459473      38.06625696       6.37539626
Si       3.43962566      38.67688696       3.21255682
Si       5.12060278       0.34160701       3.47677185
Si      38.97245800       2.69210330       4.83152359
Si       0.35528739       3.42829684       6.85370476
Si       0.83659234       1.76908417       3.66527514
Si       2.55998423       3.29264128       3.76470068
Si       0.42686596       6.28424676       4.98893007
Si       3.44146090       0.92316812       6.40156568
Si       5.62344759       0.27776887       5.72071571
Si       2.59292672       3.05516432       6.05572754
Si       0.72245256       5.67861316       7.13731340
Si       2.16425330       0.92309663      39.94895940
Si       3.58927118       2.73757300      39.76590838
Si       6.75240796      39.47316222       2.12031040
Si       6.14858849      39.25144819      39.74577726
Si      39.64535573       4.05919274       0.25461203
Si       1.91142161       5.47326588       3.35624115
Si       1.65806757       6.10829287       0.98847244
Si       3.50499184       6.78457582       4.40249238
Si       3.13198395       4.92086220      39.33073810
Si       4.65313416       2.59628217       2.90829901
Si       6.00175244       3.69095208       5.99836951
Si       5.84902225       4.48491798       3.70711024
Si       5.47596327       6.88299728       3.30649912
Si       4.21255786       6.40896137       6.78205924
Si      37.74869926       9.38201479      30.41875660
Si      33.09984634      10.13204475      30.36613955
Si      34.81708796      12.93245467      33.95295312
Si      32.96776213       9.60066898      32.65812284
Si      31.07589045       9.52698509      34.12363828
Si      31.60572875      10.07533161      27.06976874
Si      29.56850096       7.62361420      24.46720834
Si      33.98855902       6.89436498      26.31748232
Si      33.17690545       7.88950383      29.58757356
Si      32.13005058       7.32020363      27.46886385
Si      30.21605183       8.32139361      26.68135062
Si      29.52576342       6.95894828      28.39656599
Si      31.23792748      11.07546282      29.22535986
Si      29.16570540      10.17028320      32.91873379
Si      29.36378701      10.19774451      30.46580418
Si      30.18957439       7.84818283      30.37430741
Si       4.58582190       0.62123023      17.95125928
Si       1.07002753       0.03616962      18.63447796
Si       3.59639364       2.41626339      17.03172941
Si       3.44955501       4.02629602      18.57057725
Si       7.69876260       0.57811638      15.99085087
Si       7.17097139       3.41327592      19.27299116
Si       5.57895816       5.04847047      18.70806064
Si       5.23198869       6.79309709      20.18042127
Si       1.50575363       3.19648363      20.64432932
Si      19.36772125      37.34112734      33.18919399
Si      17.00922894      37.26917623      35.73333262
Si      20.77114111      38.44407742      36.55215298
Si      19.10921173      39.33353018      37.87968736
Si      19.32060779      36.77269583      35.57279918
Si      18.57533645      34.46699280      36.47726994
Si      32.82825443      36.36221316       7.00200342
Si      33.61981094      37.64584089      10.78496642
Si      31.12033038      37.94001560       7.22009567
Si      32.39042832      34.09152208       9.08320722
Si      33.53459443      34.23341002      12.72384036
Si      33.19216214      32.15823945       9.92376682
Si      31.27175282      31.48300917      11.22794266
Si      33.80159607      36.00761210       9.09689125
Si      30.08528876      34.43288259       9.45755726
Si      29.20496873      32.60715516      10.87782031
Si       1.75266125       7.18058742      22.17883238
Si       2.73469717       9.14955171      22.89001397
Si      39.20926850       8.64816469      24.69611859
Si       1.28226949       9.05254975      25.86624962
Si       5.05510580       5.31062815      22.20140522
Si       6.38539847       9.81816628      23.98398880
Si       3.77297787       9.66629013      30.01987789
Si       3.17600677      10.77474800      21.19506272
Si       5.44520625      10.74717895      20.36764353
Si       4.26297127       9.29719575      24.70305894
Si       3.91116266      11.27124858      25.83989310
Si       3.35748401      12.93784543      24.18291683
Si      17.39996173      24.89188022      14.59259871
Si      17.52252602      23.96202304      16.63668785
Si      15.68601721      23.55737370      18.17640739
Si      15.56708586      19.86479191      17.02149227
Si      18.87884656      22.12517566      19.02402857
Si      16.35936812      20.05011808      19.17722037
Si      15.55355067      18.30860807      20.17861549
Si      14.04456986      22.42987055      14.61669509
Si      16.38368163      26.88307122      14.31961787
Si      14.76210444      25.77114538      18.34629390
Si      15.02294102      25.66626574      16.02829589
Si      13.12510532      24.40684187      15.38568302
Si      15.44071065      17.83465402      15.69398642
Si      13.29805773      18.11723978      16.89637607
Si      14.39738516      21.86099738      17.03277213
Si      13.41156799      19.52935121      20.42303293
Si      12.76658652      21.18415539      18.73637539
Si      11.68974481      19.84573557      17.17366621
Si      13.94257277      16.84977605      18.76504029
Si      28.74858356      26.71581492      28.24939224
Si      26.44814462      28.86370673      24.28926379
Si      29.39275322      28.81551722      27.75109424
Si      25.70351484      27.64974741      26.23474539
Si      28.29383068      30.33229464      29.25597575
Si      25.53820222      26.00966156      29.44107475
Si      26.71738750      27.67398420      28.38567726
Si      25.73115965      24.58376582      27.59165886
Si      10.46181692      20.81185692       2.37674001
Si       8.98764587      19.46658431       1.30339853
Si       9.27356766      17.13933667       1.61179595
Si       6.69415872      18.68592299       5.19623789
Si       8.54422539      17.76849448      10.25416286
Si       5.70013228      18.81827610       7.54935713
Si       5.65630766      18.18338741       0.59079934
Si       5.55320353      15.82935135       1.43269244
Si       4.52176972      18.89290993       3.98160140
Si       1.76644150      16.23836559       2.96996517
Si       8.07134790      17.01804692       3.93074619
Si       8.81317050      13.61694463       3.39248878
Si       7.38892072      14.96491262       4.59528984
Si       5.34268146      14.53726420       3.42295623
Si      17.89752188      39.63029435      20.57384601
Si      20.44179671       1.13829592      24.69083319
Si      18.23984804       1.94223869      24.84190368
Si      18.35296614      38.33643883      22.58508987
Si      16.90257549      38.30446715      24.38036341
Si      14.83734383       1.79422494      23.94241349
Si      15.67291545      37.48097765      22.72363980
Si      16.33911477       0.47355298      25.13097767
Si      15.44536057      38.38153333      28.30161791
Si      15.05501217       0.21983887      27.06964333
Si      13.12217546      38.99142493      26.56630905
Si      22.31706246      21.15740918       4.85937600
Si      21.28994002      18.12023206       7.35119601
Si      22.12354773      17.21593879       5.51841050
Si      22.76623846      17.54965077       8.95036143
Si      23.76651422      18.80462682       4.84024322
Si      25.22995473      18.97048796       6.70724663
Si      22.09685942      24.38723577       7.17496941
Si      23.93406106      24.58166686       8.65522074
Si      21.51284546      20.48221956       7.18477547
Si      23.37032523      20.80121504       8.47240302
Si      24.50796811      18.91820206       8.86742096
Si      24.86117741      22.54099413       8.68570834
Si      27.21550728      22.21062994       8.32807705
Si      22.21255771      21.90821130      19.16483343
Si      21.92242552      21.61213962      21.62288359
Si      18.63467070      19.78417876      19.07257672
Si      23.42306691      20.02183068      15.31171189
Si      23.82500504      17.06964701      13.23634489
Si      21.58561444      20.26954872      17.69822834
Si      21.41183953      18.04688308      18.52004398
Si      30.32626849       3.43349659       5.95991897
Si      27.02786844       2.24795844       4.91944816
Si      25.08771239       3.43127965       4.06300414
Si      26.20013494       5.61620616       3.54467991
Si      28.81544909       3.65221278       4.20313808
Si      29.15789736       7.32081319       6.46978757
Si      28.52116706       6.05952583       4.29353976
Si      30.15746965       7.51124807       2.62673604
Si      25.17803823       6.91817361       7.10727579
Si      15.79392047      38.95870919      16.89166999
Si      15.21666452      35.47298613      14.78958759
Si      14.25083839      38.01356021      18.46752937
Si      15.23267348       1.37508903      16.73031762
Si      12.97128278       1.81602847      16.35927134
Si      13.13644540      35.40303019      13.76357502
Si      16.43522575      37.57603349      14.66956921
Si      13.24154311      38.55202129      14.51682094
Si      12.35766910       0.69462692      14.49301566
Si      11.91318300      37.14828495      13.11073168
Si      10.12399801       0.38436195      14.41497970
Si      32.80544972      31.41697244      36.21004275
Si      32.54978522      33.18674698      34.64085049
Si      30.28511911      34.25465579      36.04670595
Si      28.72927970      38.50418339      29.89495984
Si      25.16843384      36.68228870      32.17362544
Si      29.33322254      34.65700679      30.42992551
Si      28.39654822      37.82729361      33.14161614
Si      26.22418726      38.18158744      33.84180910
Si      26.19660979      37.85962764      36.11867708
Si      26.35850752      32.89964822      28.58693725
Si      25.02040975      33.00931375      30.57502726
Si      26.10147079      34.59191099      32.23129277
Si      26.75290552      35.72091416      36.11589703
Si      25.77763639      34.49159300      34.38766786
Si      23.44751201      34.15582537      33.95165230
Si       5.11671590      29.61518910      33.20693654
Si       0.94845698      26.54499466      30.07312359
Si       1.44210529      30.58876892      30.63899946
Si       2.01734407      30.16700140      28.30826379
Si       3.78565783      27.85454186      33.84478903
Si       1.11835137      28.23819664      34.51928532
Si       0.14684448      26.18374898      34.99034438
Si      37.40471677      26.51722259      34.77013311
Si      39.94938507      31.55124182      32.25611704
Si       0.16035892      30.33503038      34.78432526
Si       0.38029974      28.48205229      31.23488704
Si      36.52977345      27.84997687      30.18767608
Si      37.97261573      28.87868548      31.80868381
Si      36.56044486      28.08317868      33.40972240
Si      37.35714353      26.32594132      37.86426181
Si      37.71291213      23.36119543       3.81840925
Si      36.30960778      26.48166131      39.85491937
Si      37.78739501      27.41514756       1.35933334
Si      34.68957893      29.63620368       2.41992072
Si      35.23313353      25.64905463       4.00655190
Si      37.48335705      25.86408123       3.39217463
Si      34.19492307      27.72285396       3.66019048
Si      39.27240762      27.16030193      36.94766923
Si       0.21890273      27.73702212       0.70218339
Si       0.34583713      28.45722714      38.57045916
Si      36.77750267      29.67026552       1.31725371
Si      37.89276988      30.61957842       3.31652757
Si      39.38572757      15.85903650       8.58897374
Si       0.55242653      18.45819449       6.67117187
Si      36.78673376      18.32772791       9.60496907
Si       1.38924946      16.68429927       7.98279981
Si       2.35292049      16.64240557      10.12350284
Si      37.70752623      16.33032442      10.03969450
Si      38.91072302      16.15179630      12.13585151
Si      38.60576668      19.97427991       9.53192637
Si      39.78918171      20.13345807      11.56628532
Si       3.62706946      18.27060352       8.95083308
Si       4.49468139      17.72040323      11.09496703
Si       3.86496559      20.44329202      13.15351395
Si      37.89340233      17.51540588      13.75497028
Si      36.41391988      19.12961055      13.10535392
Si      38.03699840      20.73567327      13.25493999
Si       0.90963610      17.59713141      12.02535051
Si       3.64605124      15.37714936      14.76856037
Si       2.15069600      17.40524417      14.28525716
Si       4.09667438      18.20706905      13.38386225
Si      21.07500520       9.31748875      28.16789377
Si      24.81658268      14.28399335      28.43814008
Si      21.84921457      13.33618079      27.33411660
Si      25.00466764      11.44778283      25.54043531
Si      24.00856313      13.50371662      26.43441935
Si      22.04301444      13.16960717      23.04883760
Si       3.03793026      24.34679722      32.22472442
Si       1.52560411      20.65572164      29.13724947
Si       1.09830686      20.58149941      26.24340813
Si       2.65252546      19.51806111      27.52530684
Si       3.54098089      22.69032445      30.57143843
Si       5.66199945      23.14253365      31.13532681
Si      39.06722053      24.21196308      23.15284617
Si      37.56124310      28.17002983      25.15437395
Si      36.11717669      26.37347557      25.34393082
Si      35.34247526      26.21687209      23.26068906
Si      36.94784115      24.21104326      25.27210602
Si      34.64253302      23.24122604      25.33247363
Si      11.68101225      39.15362396      11.57359547
Si      10.94227254      37.10353061      11.00526762
Si       8.62891720      36.91200618      10.36786677
Si       9.95093223      37.99521643      13.89927051
Si       7.96303860      36.75262468      13.48753502
Si       7.76843809      38.39412241       8.82860389
Si       6.29845386      38.32524701      13.07326433
Si       5.48679565      38.63807624       8.48369587
Si       5.44030598      38.68500694      10.99810214
Si       7.66920227      36.11988926      15.81073041
Si       7.45726089      35.12657323      11.35151083
Si       4.62404497      36.93691911       9.75133207
Si       5.41241351      34.75485614      10.02289586
Si      36.02792066      20.47241261      27.66624175
Si      36.71174111      23.32835507      29.43012138
Si      37.48362684      20.71092432      25.26105424
Si      37.29135304      22.56644854      27.03187851
Si      39.43075233      27.29405112      28.43254883
Si      25.28923033      30.07662925      11.04043445
Si      28.13156229      28.58270382      10.43670411
Si      26.30279364      27.73439857       7.90820944
Si      27.42900249      30.97552478      10.22272181
Si      26.18680624      32.07460206       8.48926149
Si      24.74798482      28.23756408       9.58038579
Si      24.14130148      28.97472334       7.52527210
Si      23.15738491      30.96645781      11.66298928
Si      22.27398286      31.87992757       9.44383459
Si      24.10822208      33.18370840       9.09603665
Si      22.08187220      29.91947226       8.34337531
Si      28.52742436      27.87449212       8.25777784
Si      27.68450506      29.31494195       6.59314522
Si      27.61440012      33.29814572       7.15657812
Si      25.95348347      25.50352176       7.75469791
Si      24.19983704      27.40548544       5.58953561
Si      25.72748567      30.50133453       6.72935025
Si      26.11769680      30.97663892       4.33305955
Si      27.86781061      32.63249057       4.22150728
Si       8.87459265      24.41664853      15.01211935
Si       5.78602739      26.24372197      15.21273139
Si       7.51358409      25.77619365      13.84388773
Si       8.42488477      27.72870594      13.21599735
Si      11.19986620      26.80227183      16.11703229
Si       8.83255251      27.37154129      10.98872319
Si      12.16339742      25.96368344      14.06299125
Si      13.63843576      27.66606644      13.27791519
Si       7.79774067      28.65628975      16.72176275
Si       9.59268199      28.38736704      15.21668435
Si      12.52558457      29.73277092      13.03987263
Si      10.90779160      30.27185100      14.96283756
Si       9.97458981      32.49661970      14.50043839
Si      11.58628498      30.00267596      17.34068318
Si      14.57444100      27.79645924      15.39954043
Si      17.92012790       5.50992651      20.49143110
Si      16.08593383       8.62755789      19.14454545
Si      19.97567258       5.35784023      18.82086764
Si      16.96567451       9.37534087      16.98645228
Si      13.17515578       6.05884346      21.16285042
Si      17.97929688       3.17684093      20.89454173
Si      16.29543574       1.56555773      20.68087830
Si      11.93912196       6.61147780      16.09913478
Si      15.59803258       6.29154939      19.84357474
Si      14.84279968       4.78046323      18.18695316
Si      14.84492981       2.30551667      18.80150509
Si      12.57588562       5.22897934      17.85548649
Si      12.11611845       3.92703994      16.04175554
Si      19.41039679       1.34843958      17.36459867
Si      37.58222262      31.20698176      27.69610960
Si      37.06573644      33.21992570      28.93581626
Si      34.79170589      29.20059777      28.79090764
Si      33.53800713      30.44702281      30.26505703
Si      34.70554811      33.68961071      29.96825139
Si      10.37212233      34.14300033      11.75367782
Si      13.44970355      32.03428584      13.30754193
Si       8.89812642      32.58047617      12.47223448
Si       9.58884553      35.78805831       8.59681372
Si       5.74273482      33.45417596       8.01450807
Si       8.62228299      35.88722533       6.56027434
Si      12.29348837      32.97661202      11.46175210
Si      14.84067673      32.31882851      10.15104660
Si       9.06899722      34.08545171       9.93187321
Si       9.04631992      32.06040187       8.74833125
Si       7.18089334      31.57494594       7.31503755
Si      15.46335630      23.29174516      38.38622414
Si      14.37523330      21.31422106      37.97506050
Si      18.70096090      22.67934607      35.86608665
Si      16.23002060      19.95705028      37.27566124
Si      16.43123597      17.71734480      36.41561938
Si      12.92277125      26.03775606      38.71121472
Si      13.82987870      21.32946102       0.32446730
Si      13.00623498      19.01996789      39.08286579
Si      12.51973549      21.64101526      36.47621033
Si      14.19678493      19.40898164      34.21709996
Si      12.22652726      19.54585019      35.50274526
Si      11.44668398      18.44834740      37.42701035
Si       2.33001443      17.16666622      27.75099360
Si       1.97269050      16.20106666      25.65002914
Si       1.58415425      13.95277344      25.27702492
Si      38.02087733      16.22814262      24.62639070
Si      37.91418432      13.85025288      24.66977354
Si      39.86062002      16.26942315      21.46906213
Si      39.89063458      13.83240627      21.87712065
Si       2.20353691      12.74933435      22.12085027
Si      38.01322765      12.60575264      22.57837750
Si      38.13790943      10.06113153      22.87484534
Si      39.68467657      14.06990029      28.37522603
Si       3.40074993      13.13458018      28.30593575
Si       1.51997739      13.03305142      29.60636115
Si       1.77656263      10.65824671      29.32031586
Si      35.77696010      13.74716862      25.48022012
Si      39.60028070      13.18062210      26.13194423
Si      39.91088944      10.89457876      26.61285981
Si      37.92501594      10.10638625      28.02831274
Si      37.65679459       8.44825218      26.41343969
Si      35.81937178       9.96289541      23.79649877
Si       6.23110561      25.50373929      17.27449970
Si       7.51489293      22.01474668      21.90278502
Si       4.67029930      22.35238935      15.82994015
Si       6.76754160      20.07623400      20.86190427
Si       7.18930645      20.24866857      17.12250983
Si       4.24945170      26.01816990      18.55136434
Si       3.18318418      23.91098995      18.56519345
Si       5.54517928      23.25550901      23.11222487
Si       3.78716765      24.58583244      21.87110418
Si       2.39022741      19.30913270      22.53784892
Si       2.82864085      21.33687359      14.93554598
Si       1.72851169      23.37421998      14.48844240
Si       2.55739542      24.61932898      16.27059656
Si       4.01896752      21.68231967      18.09550274
Si       3.39706498      16.14759019      18.02732195
Si       2.32323524      19.57804695      18.57645430
Si      27.52135937      19.40420149      20.27326911
Si      26.40887998      22.04100495      22.73763639
Si      23.85527634      23.34134130      20.86016549
Si      26.10437254      23.70173851      20.24028026
Si      27.88629075      24.43759722      17.31345026
Si      25.90853065      26.09884446      21.25463200
Si      27.43511720      21.82439741      20.73957785
Si      29.63979664      22.01524378      21.33187079
Si      30.05709354      23.82437526      22.64169721
Si      25.97333068      34.83701789       1.73250329
Si      22.12391358      34.19704686       2.19941238
Si      29.05746887      33.07809739      37.56661949
Si      24.38212419      31.19678222      38.71411407
Si      24.71150309      32.73634401       4.71058744
Si      28.06110165      34.24262923       2.68451893
Si      20.90917479      32.47148709       1.12780183
Si      20.90689493      31.86713266       3.38418712
Si      22.50984631      32.01996075       5.20062381
Si      24.27387391      33.31856301       2.56627977
Si      24.71609409      30.92017740       2.39435071
Si      22.74181627      29.46746562      38.66627958
Si      19.03418314       4.30647493      34.21546109
Si      17.73182853       5.28615182      31.45743544
Si      20.10905370       2.34418535      31.79882477
Si      20.70275379       4.20629948      35.79425441
Si      20.95988854       1.82269231      35.48540179
Si      22.92887250       5.25687488      35.23405111
Si      17.53297239       5.53232632      29.21975318
Si      19.21393982       2.33389478      29.64900547
Si      19.89980296       4.58606073      32.05212907
Si      21.85627486       5.83146729      31.19553608
Si      23.95125885       5.01963172      32.90388396
Si      24.14907238       7.62515822      35.66855585
Si       4.26960802      34.29933575      14.12681329
Si       3.96181860      29.59357976      15.67124216
Si       2.97183571      34.28401194      10.46978096
Si       3.04476616      32.95649822      12.48061100
Si       0.85805716      31.68376121      15.66355612
Si       0.86989078      32.25252170      13.37553790
Si       9.59394656       8.39010949       5.94571777
Si       9.68358191       6.16311432       6.66176697
Si      11.62479983       5.23543902       5.71288343
Si      13.43226698       5.16345607       9.11624966
Si      10.83651728       9.46800359       7.56842419
Si      13.06546791       8.73899754       7.31031411
Si      12.00927261       8.63763636       3.14278349
Si      13.50641432       9.43557952       5.00031334
Si      15.83231407       9.54181965       5.16366084
Si      12.69583958       6.46316514      10.94312894
Si      14.24763908       8.15397499      11.25214857
Si      14.45171948       9.50556777       9.37658315
Si      16.58137934       8.65255194       9.02429119
Si      13.31275798       6.30844336       7.08526672
Si      15.55107373       5.98523881       6.47003485
Si      16.06721631       7.31465113       4.62254622
Si      16.85510787       6.42501015       8.44233404
Si      17.32354900       9.50995486       7.09061509
Si       7.77462134      16.56828030      24.50236081
Si       3.94042021      16.35473482      24.36213567
Si       5.78259511      19.10053229      22.94403533
Si       5.07743551      14.36812352      23.81916940
Si       6.99528565      13.83583150      22.55709156
Si      11.40535781      17.89111077      23.33668523
Si      12.49193800      17.40769921      20.33833639
Si       7.88293461      18.28985536      23.03661768
Si       8.57429105      16.79041083      21.29268214
Si       9.96150375      16.17513766      24.14151034
Si       9.29604715      13.94591129      23.59138175
Si      10.83234743      15.87306875      20.82848821
Si      10.69355587      14.74052417      18.75332267
Si       4.03637841      17.60715146      22.34406392
Si       4.31064839      15.87076194      20.35340801
Si       8.43016164      18.60900854      19.96374282
Si       8.27609011      17.49812372      17.98008585
Si       4.91367318      16.62900717      16.24035163
Si       6.67506019      15.25862265      20.73773232
Si       8.84322178      13.10400230      18.90011163
Si       6.73881618      14.01718971      18.82687941
Si       6.78852196      15.76631586      17.28261817
Si       9.99538649      16.24063138      17.19737247
Si      26.50593964      39.32631362       9.92374385
Si      23.89118734      35.49838589       8.61205304
Si      24.26909219      39.72066234       9.27017032
Si      24.09130260       0.41557400       6.97415919
Si      22.64134695      37.06282297       7.27979050
Si      22.13187875      37.07277447       4.92814415
Si      22.12402172       1.72506084       6.81421304
Si      21.67618090       3.21010618       4.38867758
Si      20.04252923       0.18933857       2.78842448
Si      25.40004422       2.52664097       6.68442986
Si      24.15254764      38.42938362       5.27517381
Si      21.61159779       1.96778673       2.36075688
Si      23.82567848      39.67064070       3.34420640
Si      21.78146235       2.29402662       0.09614275
Si      25.44258580      38.87355037       1.86414190
Si      23.66016820      15.69373581      25.47533930
Si      27.52864207      16.30183532      24.39611432
Si      26.53366969      14.21245655      23.59756212
Si      24.05183168      14.42122843      23.68118889
Si      25.80287663      18.79031722      27.02122684
Si      27.13193576      20.79414909      26.34662878
Si      25.52693902      17.14705576      25.39029518
Si      25.32637187      18.55981962      23.62786636
Si      31.05881509      34.40676408      31.94179002
Si      28.99401996      36.08081274      36.49549636
Si      31.19421543      32.18536404      31.39207310
Si      26.36149267      32.74477682      35.73187261
Si      24.48616071      32.10306262      34.65242222
Si      29.89217020      34.90264491      33.81480589
Si      25.74850106      30.33445463      33.32597163
Si      36.12639566      29.34648539      35.23436817
Si      37.02746214      31.14271102      31.57967649
Si      38.47076379      32.91212733      30.94254929
Si      34.78582802      31.89785776      31.49769847
Si      27.50798309      30.11425882      39.74175270
Si      29.44203937      27.31681739       1.69209666
Si      30.50610416      28.76860853      37.43855412
Si      28.84226143      26.98251369      37.61346517
Si      26.58197584      30.43859158      37.66392907
Si      28.17187387      27.96296853      39.79693251
Si      26.34375985      26.71740707      39.72485810
Si      24.81894376      27.24151965      38.08071676
Si      26.30369264      12.69097655      21.78704931
Si      26.30933373      10.59800867      18.47573581
Si      24.04280459      10.06510476      18.27883028
Si      25.72636637      10.71560184      23.11147223
Si      23.71889724       9.54539564      22.38393854
Si      23.25222651      12.30304170      17.77801207
Si      22.05617746      11.10838221      21.88788486
Si      23.63646560       8.51483838      16.53464390
Si      21.46144229       7.74073478      16.10963514
Si      23.38533740       8.88939300      20.23036793
Si      21.03316123       8.87731721      19.91235000
Si      21.25984020       7.15183058      18.35286036
Si      27.94133994      24.37158349       7.96328781
Si      27.66600352      21.19358835       6.04132948
Si      25.62082499      16.02533461       3.41222673
Si      28.12337634      18.17123908       3.54453284
Si      25.35423649      21.19236019       5.70854827
Si      25.64191291      18.32972393       3.09440072
Si      26.29653180      19.91890853       1.42776020
Si      31.73931256      20.52959279       3.17283313
Si      32.32951596      22.24565332       8.21623892
Si      28.88548840      23.13415921       6.17057509
Si      31.29117785      23.20245174       6.45862903
Si      31.83395228      22.57381185       4.36393605
Si      29.79022467      17.17294768       2.08133662
Si      29.18229955      20.25873278       3.84784532
Si      28.41345177      20.94609118       1.68071109
Si      28.25071605      23.28954987       1.97948266
Si      29.02481910      19.71264135      39.57736868
Si      29.29407331      15.48923498       0.65627958
Si      26.75577677      14.78920030      35.60383896
Si      21.94938392      15.65596062      36.24176297
Si      25.52304183      13.81564506      32.70637415
Si      28.37451452      13.11809814      35.91985907
Si      26.41218200      14.96083728      38.47233719
Si      22.52898884      13.48000807      36.63309553
Si      36.46845455      37.68020877      16.06512715
Si      34.23788010       1.00344934      11.35124891
Si      36.42720023       0.40048305      18.21284103
Si      36.14228652       0.05922643      15.94175862
Si      33.81919912       0.58497135      15.47977741
Si      34.87921340       6.36894512      13.58417249
Si      34.96210378       4.01657365      13.73511919
Si      34.34730477       3.29942816      11.51764046
Si      33.99865799       2.93409177      15.84967722
Si      31.71082626       3.41816616      16.26888060
Si      32.48755706       5.80908842      17.69154370
Si      36.19824692      36.92954852      13.81050546
Si      33.94898519      37.73816170      13.12773791
Si      32.49172526      34.71001802      14.67593634
Si      32.23092830      36.94346325      14.60740239
Si      33.33935366      39.96595430      13.27716139
Si      31.87880554       2.66662052      14.08482566
Si      31.15469881       0.46893789      13.90923980
Si       2.64765186      38.75033710      25.76384929
Si       0.30373929      38.05912280      26.15006650
Si      39.56508309       0.23084374      24.15785202
Si       1.41782324      36.20308315      25.30709919
Si      38.61356395       0.86068986      26.35932896
Si      38.38428721       0.21498604      28.77945487
Si      38.33998349       2.27649098      23.50388937
Si      36.97911586       2.33138304      25.81496679
Si      34.70933208       1.60632534      26.11936728
Si      38.38267100      38.25467907      24.67136380
Si      37.99143574      36.18249420      23.63143444
Si      36.26323100      38.43037729      25.64749904
Si      37.39533998      37.07184884      27.23034026
Si      32.41484487      34.94067199      18.42867479
Si      32.77210535      33.39638281      21.36938266
Si      35.42057858      36.52434497      20.43804927
Si      34.07062832      38.39592094      20.25686189
Si      34.01049139      34.63901915      22.96050206
Si      32.95153496      36.58200440      23.61478299
Si      36.77451845       0.78816763      22.51079372
Si      34.31678162      37.08409103      25.39005487
Si      30.90827497      34.49356464      20.47340568
Si      30.96865609      37.62892679      22.03875253
Si      34.19199250       0.24779003      18.86531783
Si      33.70284792       2.20952190      19.86577410
Si      29.96506774       1.38734840      20.16585905
Si      33.86907803       3.84265877      18.10903246
Si      31.04279436      33.46252640      22.83987327
Si      30.52004506      36.14688054      24.11763708
Si      32.78052988      37.73935604      27.09385168
Si      28.81563296      37.48366053      23.01041496
Si      28.84675122      39.69230314      23.71778853
Si      33.11349430      38.49382743      22.31298764
Si      36.11983433       0.51349834      24.73735233
Si      32.58930891       0.67705992      22.91939396
Si      31.81881878       2.10101481      21.29665488
Si      31.04203651      39.35894174      23.79407059
Si      30.86653445       3.88155002      22.59002820
Si      35.79921151       2.25885227      21.00896366
Si      33.17632803       4.08194258      23.40180381
Si      24.61553201      37.61468788      12.47156241
Si      26.56973418      33.77552898      13.39409180
Si      25.00411822      35.22501199      12.14920592
Si      22.32129530      33.42938777      13.20717738
Si      24.42627635      36.87198404      14.69670380
Si      22.34224269      36.64013035      15.61746597
Si      24.45216638      33.53157505      16.60978592
Si      22.94160582      31.28817515      14.03562004
Si      22.92484980      37.56230729      17.99259965
Si      23.55089686      33.67957541      18.71086084
Si      22.61677154      34.28845676      15.32720997
Si      20.63391732      33.67321508      16.38625469
Si      10.77856908       4.05519004      38.57548816
Si      12.00109696       4.56179876      36.68501730
Si      14.91710241       5.57052969      39.12054052
Si      14.73849534       1.86790490      39.08227163
Si      13.48824885       2.75333659       0.94088342
Si      18.00869435       4.10998687       1.64689317
Si      12.33852440       7.45279696       1.08845234
Si      12.49206307       9.41302694       0.05227474
Si       9.85199173       8.75765766       3.72853825
Si      13.82308899       5.84080461       1.21017006
Si      16.02547453       4.96654475       2.58254731
Si      15.17367856       7.12546967       2.52708351
Si      16.26467870       8.83977985       1.35719848
Si       7.68466896      12.80860566      29.46771506
Si      11.78887941      12.14167687      29.51369955
Si       5.31854782      12.68858333      30.00851116
Si       4.66597640      11.19964313      28.34577053
Si       5.36189314      11.27865070      31.91850163
Si      10.42368712       5.77010188      28.67929966
Si       7.19023603       5.55599439      27.66317883
Si       8.13103917      10.80538982      28.20309309
Si       8.71773700       9.31898038      30.02889890
Si       6.83681819       9.36126976      31.54961751
Si       8.43750471       6.75239751      29.51101619
Si       8.08108797      11.73059741      33.38040907
Si      20.45810377      29.11289271      27.91833795
Si      23.64098407      27.50653056      29.06696749
Si      24.35842233      29.03326827      27.44023229
Si      22.18983041      28.91203100      26.32718049
Si       7.00604182      38.75953355      26.27170302
Si       4.57715573      39.63158977      29.03142695
Si       1.59891203      39.85181442      31.59014068
Si       3.83553783      37.57430481      27.64924503
Si       4.51083841       1.82903515      31.11753101
Si       6.94902392      39.50044657      28.77317437
Si       8.38459487       1.38119604      28.71335415
Si       8.36385184      38.48058945      30.52135201
Si       0.15350208      39.03342460      33.18580119
Si       3.92186142      39.56527968      31.24543447
Si       5.07905356      37.83744838      32.35754732
Si       7.56658312      37.56530585      32.55763388
Si       8.88216822      20.15453284      35.34836997
Si       7.13388092      21.78574390      38.00948613
Si       9.18752096      18.98556947      37.47630593
Si       8.09781006      17.03716989      38.15681438
Si       7.22376133      21.74977585      35.68863648
Si       5.89371251      16.93487012      38.60352404
Si      35.64722729      34.79263444       0.01491006
Si      37.43373416      33.89802155      36.95306589
Si      37.89686797      35.84302998      38.10156517
Si      39.01177493      32.59285378      35.82698263
Si      37.13406318      33.11121471      39.07417760
Si       0.79705619      34.59658476       1.02711098
Si      39.12390662      32.78927078       0.17446409
Si       0.32197340      30.77169507      39.19106744
Si       4.56838647       4.51477712      29.33223655
Si       2.37716962       5.08147036      29.75892882
Si       2.86258886       3.54788700      31.58547684
Si      39.00921508       0.84135747      34.12362168
Si       2.29418521       7.85070231      29.94306352
Si       0.41537265       7.33577536      31.27744837
Si      39.76875442       4.97977917      34.92857655
Si      39.65271401       3.59592802      30.94199500
Si      37.90905936       2.21986359      32.00432930
Si      39.64417000       5.37187253      32.45155765
Si      37.36965847       6.07858788      31.91207819
Si      39.11644663       7.73438988      29.40338370
Si      11.50895279      36.96666356       8.81127465
Si      13.63001764      34.29258926      10.19159576
Si      14.40408986      35.59642857      11.77884407
Si      14.77245370      39.20854237       9.98956634
Si      13.85854240      39.60745110      12.44612336
Si      16.84070225      36.51407609       9.09327614
Si      15.75162179      37.36494660      10.98099515
Si       9.35093177       0.20396228      36.74811761
Si       9.24182220       4.37179685      34.25023037
Si       8.36225738       3.65112927      38.34148354
Si       6.21915526       3.46813280      36.96041152
Si       7.26515186       7.67183250      33.18156038
Si       8.95110977       0.69089791      34.42651783
Si       6.84009623       1.50315903      34.19565157
Si       9.42388917       4.58049008      31.95580688
Si       7.66816186       5.93560122      31.53260912
Si       6.77128687       2.03096741      31.83519857
Si       6.93600530       3.80694485      34.82455318
Si       5.36062103       5.04708322      33.51430414
Si       6.01603988       4.33310400      31.39140045
Si      15.60858027      33.15964884      13.76946489
Si      15.81585519      33.84572166      11.64519250
Si      17.56905423      34.85168574      10.50387452
Si      20.12759220      34.31720446      12.94981527
Si      17.54671777      31.88006199      13.69791668
Si      18.37378927      32.93919191       9.67668803
Si      18.98738724      32.24780535      11.87042435
Si      20.50794856      33.37359653       8.70333693
Si      23.35286865      34.09933312      11.21314179
Si      19.18227910      36.07354306      11.63873430
Si      18.79576761      37.24913592       8.04155231
Si      21.03356739      37.14792195       8.95534222
Si      22.04053681      39.08963809       9.77294995
Si      21.77740934      35.10938095       9.74052278
Si      19.79482280      33.56930932       6.33681042
Si      19.17859830      11.09493990      39.40884074
Si      20.33720408      10.89501656       1.53907977
Si      23.52803481       7.77000039       1.10515615
Si      21.64007730      12.88769764       1.58750546
Si      22.68875984      12.90212620       3.78640627
Si      18.10957263       7.71678813       0.50491549
Si      19.54172185       7.32458580       2.29128193
Si      18.68063713      11.50093408       3.16735053
Si      17.12376374       9.84125570       3.27905008
Si      19.68621824      11.82870408       5.51459718
Si      18.20566429       7.99384929       4.04850439
Si      19.00996133       8.20410154       6.13056168
Si      21.80441248       4.34728793      39.02057277
Si      22.51147854       4.23589096       1.25473910
Si      19.89973738       5.14051261       2.72934198
Si      21.12704529       5.41466539       4.70696458
Si      21.45988590       8.75301043       2.24178625
Si      23.73591834      11.04458169       4.86619432
Si      22.27493634       9.14695765       4.45075109
Si      24.07268797      10.84891191       7.41258707
Si      20.75015092       9.66377631       6.15633105
Si      22.87763564       7.01539662       5.13636264
Si      21.28528252       8.36844003       8.18850767
Si      22.87794143       6.78220567       7.51802216
Si      22.15389339      12.13410483       8.79193842
Si      25.87903287      30.51949901      28.95125087
Si      24.84613403      30.48132180      31.13256128
Si      23.27940030      28.41312286      31.02455983
Si      13.39955591      32.11860906       3.29679268
Si      14.55916939      30.31428043       2.35444459
Si      17.13801440      28.97053108       1.08621318
Si      18.20063807      26.95789348       4.17827998
Si      14.06618714      25.85289057       1.56234431
Si      17.67139787      27.62941478      39.34793939
Si      18.23141109      25.29427422       2.61248676
Si      19.35821135      27.74476660      37.69847321
Si      18.81523290      30.93855136       3.68511130
Si      19.62939496      25.19331901       4.89076150
Si      17.97978224      29.23437714       7.15103760
Si      21.70116188      25.92176428       5.40153231
Si      19.16923949      31.06561039       5.97997481
Si      21.35256736      30.19762916       6.19803752
Si      18.65691303      28.77190389       2.76198824
Si      20.23596114      26.45473733      39.40299105
Si      20.27899044      28.22479142       1.25967399
Si      21.49281825      30.12887713       0.47438756
Si      21.80714824      27.79624499       2.92652186
Si      20.70428755      29.67966520      37.42864591
Si       1.19797598      35.69537369       4.38617665
Si      38.45934644      32.86895834       3.87165870
Si       0.06935042      36.03608327       6.47152819
Si      38.13074470      36.39679080       5.10051740
Si       0.29318085      36.50493123       2.26844627
Si      38.06500250      36.75786553       2.61442499
Si      39.83892658      34.68842444       8.50742495
Si      38.24505103      33.21521120       7.62829449
Si      37.30309178      34.11609253       5.61144186
Si       5.97745013      28.62467540       9.31315969
Si       6.30254841      28.59707334      12.86816280
Si       4.07405925      31.09082587      11.37171363
Si       5.91857608      28.54953173      15.17738902
Si       6.26543705      30.18248064      11.10911544
Si       8.43762433      30.98625408      10.69674438
Si      34.00182221      29.50825892      35.97789327
Si      32.84401578      31.80663623      32.89398853
Si      31.99391254      30.12770942      34.25759232
Si      32.16879690      25.88692201      33.84285843
Si      32.52345234      28.05160741      32.71399479
Si      34.82226201      27.62640479      31.96697710
Si      36.01738946      27.25837177      36.34195152
Si       3.29912526      14.31321829      30.56965040
Si       7.09058126      13.83157459      33.46231697
Si       7.11088223      15.76137243      32.05043070
Si       5.17185523      15.38341237      28.25484435
Si       3.68835268      16.49201069      29.51057697
Si       9.10925857      14.81987773      29.28844127
Si       9.31186639      16.04273924      32.98052363
Si      11.34680592      14.63665309      32.71927223
Si      11.38236513      15.83299799      30.05504491
Si      12.21234463      18.04708895      29.65069883
Si       5.32419473      16.61991733      26.24567173
Si       6.50716029      14.80448887      25.47666739
Si       6.72002387      18.30049689      25.50243147
Si      10.05008367      14.75541736      27.19556024
Si      10.53481301      16.79335563      26.25191512
Si       7.19716529      15.99379005      29.57973455
Si       6.45845138      19.46511381      29.74873775
Si       8.05824211      18.08995740      28.81366426
Si       9.86127226      18.42932231      30.29561636
Si       8.87510374      18.48316643      26.54712083
Si      16.11439107      25.62716027      36.80415544
Si      11.51189656      25.13665648      35.96141283
Si      14.39735100      27.41373852      39.83715561
Si      15.90271929      27.48235533      38.10339533
Si      11.92291709      27.15876043      37.05813821
Si      15.67557115      28.89784125      36.36854373
Si      16.81345873      25.73481011      34.66976130
Si      17.47899289      23.34931908      33.83928679
Si      16.03995039      22.50591120      32.03600741
Si      13.48634158      24.63037905      34.84385474
Si      14.72809767      26.41099937      33.61263231
Si      15.92678711      26.94688690      31.54124837
Si      17.71903642      29.37756284      35.30301911
Si       8.78310537       0.16886218      25.60514064
Si      13.14550436       0.21097497      22.84763172
Si      11.11076199       0.33826889      26.22263390
Si      13.01341972       3.33718782      23.94914331
Si       8.07788971      39.90482350      23.42275176
Si       9.13146106       1.88849878      22.73252589
Si      12.44514728       1.75586331      18.63511025
Si       8.19736507       0.96692260      19.52494003
Si       9.18631024       2.96465027      18.39325438
Si       8.20217322       2.27860227      26.60712377
Si       9.40684834       4.09870016      25.82890711
Si       8.59429170       3.90285427      23.70190082
Si      11.61628479       2.13245827      22.38047179
Si      11.66621197       4.17222923      21.17239973
Si      11.28983657       3.69965769      19.02644961
Si      34.68997674      18.90510977      30.96185206
Si      34.14971962      20.32685337      29.13125582
Si      29.96060712      20.66228017      31.60010280
Si      30.09826199      20.11578527      29.35700053
Si      26.13663290      20.80814086      30.02067678
Si      31.01555957      17.03038856      28.47234156
Si      31.99628544      19.28373367      28.25960268
Si      34.35947132      17.43605562      12.87493078
Si      35.95061909      16.50080075      14.32055339
Si      36.04132159      14.26451434      14.69309724
Si      37.81896415      15.27043974      18.50572997
Si      33.69543339      15.60327555      19.32046853
Si      35.90077710      14.74865938      19.59713454
Si      35.99111057      13.14232602      21.20403830
Si      39.48163591      14.46586599      15.46742387
Si      34.45321347      11.28970760      13.34692762
Si      34.32958626      10.20241141      15.42132507
Si      33.46417982       8.05501737      14.42980635
Si      39.59454119      14.17669522      19.61695972
Si      37.58036236      13.79676471      16.58022779
Si      35.22806747      11.95096350      19.06002600
Si      37.20985499      11.61442983      17.77755474
Si      34.71027033      10.19345032      20.42951584
Si      36.40155772       9.93862114      16.35504986
Si      36.11674203       8.10818198      17.76010093
Si      34.24958510       7.05817347      18.51184808
Si      30.28413670      25.12825801      37.12854054
Si      28.70433985      26.48378518      32.69645273
Si      30.12536077      24.69571377      33.39803537
Si      26.51027770      24.28072047      35.70871677
Si      27.15313824      22.10986440      35.71980373
Si      29.33797267      24.99743022       0.83373331
Si      27.51590119      21.40329525      37.83453592
Si      27.77087551      21.92542157      31.27650468
Si      33.10177467      21.86444691      32.94811552
Si      29.45978063      23.43594294      35.38974346
Si      30.98687609      21.78815220      36.02323065
Si      31.83951573      20.48021567      34.31309844
Si       4.99632879      13.03629111      33.42545284
Si       3.08536447      14.17028026      32.91614806
Si      39.87724901      12.25461547      33.91538795
Si       4.76730542      13.93503018      35.54193390
Si       1.03458765      13.03698020      36.73727851
Si      38.83185731      13.00354233      35.92473749
Si      36.95204625      12.01755239      37.00839266
Si       4.42883554      11.75940652      36.43334927
Si       2.21451999       9.03061404      35.84072714
Si       1.51945512       9.72737060      31.29311049
Si       3.43881764      10.19227896      32.38064783
Si      39.45570323       9.21788355      32.13565287
Si       3.54961701       8.54353098      34.06236941
Si       1.89221480       6.91790430      33.93324363
Si       1.60960252       7.81005158      38.01330786
Si       0.57678195      10.47854734      35.19852000
Si      36.98623616      11.04637402      34.72154914
Si      38.58598637       9.49532108      35.53846665
Si      39.38847842       7.84111510      34.06483683
Si      38.46284866       9.71383587      37.89931158
Si      37.56069860       6.37170132      34.19037346
Si      39.77174596      13.39939400       2.68670290
Si       1.33036344      11.41797119       0.35430777
Si       1.61520875      13.19932848       3.98616690
Si      37.05671412      11.50093333       1.38485459
Si       0.41914655       9.44581196      39.11779198
Si      39.63562827       7.56967180       0.38053758
Si      39.32259279      11.39625284       1.79201160
Si       0.75753897       9.39058867       4.24951616
Si      38.68176392      10.00547898       3.65416176
Si       0.65096626       8.18902512       6.09927380
Si      37.59572843      10.99480821       5.50144494
Si      39.06387617       7.35111338       7.58537669
Si      18.50279812      32.70022846      15.66066193
Si      20.17409356      36.36233992      14.60465987
Si      17.41846757      34.59569576      16.84655954
Si      16.49159235      33.96154744      18.79306960
Si      17.66669533      35.98703471      19.40668787
Si      19.54326560      35.62717917      16.61012799
Si      20.60610312      37.13993371      18.00502575
Si      19.18638108      38.87551809      17.31380558
Si      20.02033504      35.61138583      19.63383067
Si      34.54038360       9.43773771      10.46021946
Si      34.29302175      11.63518481       9.21634265
Si      31.80542585      12.73037711       9.48147232
Si      32.17192303      14.40849886       8.01422002
Si      35.94931755      13.10628134      10.29673683
Si      35.79032362      15.17871880       9.14705500
Si      33.59214964      16.04527384       8.93250548
Si      30.00861741      12.01514570       7.98317662
Si      29.69354577      13.25250450       6.00439774
Si      31.96140428      13.62857439       5.69877777
Si      31.81809170      15.77765422       4.68102141
Si      15.25654122      12.40330987       0.44874546
Si      13.08110530      13.12170391       0.68527662
Si      11.04132090      11.13377167      37.54331112
Si      11.29293025      10.42419535       1.80791052
Si      12.11601482      12.42085662       2.60631331
Si      11.97925050      14.46316626      36.89258809
Si      11.39224642      16.34842407       2.21548068
Si      13.06818746      17.75180397       1.83615575
Si      13.28694630      16.77804006      39.59602067
Si      11.46425323      16.28142889      38.27267385
Si      10.58164599      14.67483806      35.03160410
Si      11.46055346      13.02776719      38.76041332
Si       8.04794188      12.40764879       1.55007932
Si       9.12745453      13.49353553      39.50352459
Si       9.42655003      15.84354017      39.56351036
Si      30.37479217      36.57099093      29.77701151
Si      31.55018815      35.86266617      27.86807575
Si      32.58010638      32.37723929      29.58581746
Si      30.35636757      34.72889115      26.16884126
Si      34.49828009      38.54062413      28.52295140
Si      33.17433221      34.10926534      28.17131856
Si      33.23109468      32.49799342      26.53371390
Si      36.57882299      33.80050511      24.75988866
Si      30.94677742      24.40806936      39.29469110
Si      32.44886620      27.09457662       2.11314972
Si      29.52455545      23.44079301       4.00772718
Si      31.70708945      25.70462719       3.75959191
Si      33.34702094      24.05984899       3.42686964
Si      32.27217244      25.97804002      36.15760258
Si      34.43425051      25.78062925      37.10899291
Si      36.17382691      24.34976460      37.88871455
Si      32.78619838      25.52503262       0.19422630
Si      33.40857971      22.20567439       2.03768111
Si      33.87904134      23.38158492       0.03641696
Si      35.99844523      24.12906395       0.24718557
Si      31.00804208      18.95158240      32.87549258
Si      26.73633160      18.42774558      30.75088298
Si      27.84868185      17.35783636      32.72649115
Si      27.46536740      15.00185524      33.32228709
Si      31.73791613      16.21777337      30.46444647
Si      31.27359623      15.46134369      34.71374731
Si      29.49804984      14.07391443      34.16397241
Si      33.15100581      14.43387481      33.23007985
Si      30.13587632      11.99675500      33.81726586
Si      26.85627887      17.48188115      28.66241845
Si      29.37989668      16.12119125      30.76073648
Si      27.76338654      11.30367389      34.48524170
Si      34.08668943      28.83033000       5.82629623
Si      33.64346303      30.08821973       9.07201568
Si      35.44393255      27.51736078       7.29285697
Si      33.36127885      26.59426752       7.62214878
Si      32.27553548      25.34297197       6.01704053
Si      30.33903711      26.31090306       6.64503267
Si      34.01561198      28.91316623      11.24226837
Si      30.86293602      29.28223620      11.90287639
Si      32.44622171      28.70760338       7.41860048
Si      29.20479893      31.43332324       6.96379376
Si      30.19693643      28.55044229       6.61423226
Si      29.75689402      25.62840839       8.80223064
Si      26.23039621      10.60969650      27.68545598
Si      27.30230595       6.80575399      28.81433377
Si      27.26250824       8.56063537      27.30014910
Si      26.04157875       6.98419733      26.22962185
Si      24.41039886       9.90743207      28.99769520
Si      23.08356005       9.12336089      27.22105963
Si      19.08708620       7.00843295      28.62732628
Si      23.66983842       6.89991186      26.86874497
Si      23.76590363       5.83941095      24.72626716
Si      20.71547396       4.30331105      26.20767777
Si      32.28120387      35.15815222      36.83873025
Si      29.55646848      36.87992441      38.60985910
Si      32.36547615      36.27176451      31.13131678
Si      33.68969763      36.76419172      33.14729949
Si      35.48561693      38.13415617      32.36241934
Si      37.97499433      36.98016400      34.25199868
Si      30.02909732      37.07645535      34.73122040
Si      31.81949330      36.95382820      38.16042774
Si      32.05827879      38.11976845      35.75651651
Si      34.53905725      37.60029538      36.92503056
Si      33.76920154      35.06256405      35.03884653
Si      35.11314584      33.99602000      36.63546563
Si      35.55248341      35.79129646      37.92437595
Si      36.61052580      38.33658374      35.80476639
Si      39.77026077      27.36317425       6.71506931
Si      39.34630793      28.20460784       9.12445146
Si      37.83695007      27.22312938       5.32292856
Si      36.93947630      28.24891269       9.17203096
Si       0.48281840      29.52953666       7.65380002
Si       0.26045331      31.84523598       7.31288023
Si       1.60394741      37.31146619       7.71361892
Si      35.77872564      38.70077470       8.97554648
Si      37.83567888       1.39437347      12.10013504
Si      38.12606046       2.62533818       9.92650097
Si      34.00677822       0.24852155       9.06089514
Si      35.07404144       1.46587211       7.29593321
Si      38.13602225      38.70187737       9.63513142
Si       1.08436487      39.49035418       7.22262842
Si      38.75812269      39.64174147       7.60961091
Si      37.68955217      38.56128493       5.83506997
Si      37.50948570       1.71696446       7.79070427
Si      36.68246645       6.24448559       9.36813327
Si      39.33034190      35.15433226      31.35472771
Si       2.13544207      35.77780227      27.63226741
Si       2.08950160      32.20093902      27.17556481
Si      39.64739968      31.86677889      26.84721358
Si       0.01664016      38.01834311      28.51555428
Si      37.19610333      36.30710294      32.27896063
Si      38.14273497      38.42190230      32.22047271
Si      38.02178809      38.17686587      29.77637270
Si      36.12984304      37.02077150      29.06443298
Si       0.13346458      35.79858891      29.04231545
Si      38.28712934      34.98643284      27.78324812
Si      36.36886560      35.91628619      25.48813711
Si       0.97803473      31.32421780      23.77898674
Si       8.18664506      29.47119985      26.11671937
Si       4.62823018      29.61686646      24.19987634
Si       4.12879508      27.99310225      25.65490963
Si       2.77334134      25.63282975      23.64166862
Si       2.83807984      24.12622836      25.33130933
Si       6.30040136      27.93960074      26.17790511
Si      39.75077820      28.00864551      24.77082707
Si       0.49903359      26.77555826      26.45165631
Si       4.00094136      29.33760164      29.30341830
Si       0.43682671      29.00214634      27.17109985
Si       2.68859647      26.26568255      26.47364719
Si       2.81583092      25.99873941      28.74630083
Si       8.38056773      24.96970759      33.18068032
Si      10.00227737      23.77690217      26.43364515
Si       9.33990925      25.58555053      31.05829758
Si       9.68692545      23.51393939      29.99306015
Si      14.44604976      25.91930602      30.06696169
Si      11.26504420      23.63234748      28.44606493
Si      15.50631261      23.81046550      29.97321920
Si      12.86243697      22.15722736      27.70869229
Si      11.62510638      22.96733092      31.02956253
Si      14.74824809      21.91528148      28.92324292
Si      13.02725889      21.20246891      30.32372378
Si      12.12538595      19.97085902      28.16934210
Si       3.69630163      28.62213588       9.41947408
Si       1.87875493      33.43860090       8.43917852
Si       3.71615500      33.60924098       6.91521975
Si       2.77357111      29.44447760       7.44815040
Si       3.54129641      31.24721256       6.11415909
Si       5.34640619      30.04798322       5.11367726
Si       3.29303556      25.97468769       7.76925527
Si       4.90861291      28.00027732       3.99901992
Si       3.19979608      27.68869719       5.98133203
Si       8.02999889      24.53623066      10.84348543
Si       7.46403414      22.69845407       9.60390308
Si       8.46423061      22.50740209       7.46300457
Si       5.08926717      25.03778044       6.72599238
Si      34.43849360      22.45960934      30.08084947
Si      35.74459495      25.47689496      29.37049200
Si      31.58795408      24.77200403      27.79091421
Si      32.39012618      23.67123480      25.85258293
Si      34.03220967      24.83591751      27.49857542
Si      33.94432094      26.68160152      26.16283244
Si      14.09413327       5.49231418      36.97349678
Si      17.90797116       4.13191876      39.20947839
Si      17.07851290       6.28999425      39.08278779
Si      16.44820733       7.65604955      37.28236690
Si      15.59839036       9.65581436      37.80223927
Si      14.83434675      10.10627599      39.91124825
Si       8.50257884      20.23706922       6.11039299
Si       9.54620297      21.51431762       4.55315311
Si      11.17683710      22.77590443       5.83487155
Si      11.57805256      24.20354556       4.06811868
Si       7.54270039      22.94790036       4.63548276
Si       7.57270835      24.03129667       2.62772423
Si       9.57676041      39.09483112      16.70637764
Si      11.11382815      37.63265329      15.73425519
Si       8.74319346      34.02353165      15.99611095
Si      10.59693244      35.44939678      16.88745256
Si      12.15510276      33.42048298      14.57683786
Si      12.19605650      33.70194733      16.89398016
Si      13.96877503      34.34996036      18.33121908
Si       5.39327564       2.10410835      24.80771734
Si      22.18888357       2.25899207      11.59180585
Si      17.32789281      25.62159515       0.57043286
Si       9.04906441      19.99597656      24.67664860
Si      35.21961067      39.48686168      34.43703447
Si      12.50533594      27.91920181       8.58757847
Si       5.11758343      21.72733339      11.86091382
Si      32.67452590      18.82783038      13.81146313
Si      10.95150765      14.40413360       3.35182680
Si      20.01901474       9.38329408      33.90859813
Si      39.61796538      30.23556387      25.26408656
Si       5.41665882       5.14262177      38.50829735
Si      15.49445174      11.95018790      33.19210016
Si      34.75282049      15.84585510      30.83828706
Si       6.15230705      21.26525423      18.96268845
Si      27.78406746      37.43694931      19.58546169
Si      30.55803299      30.90385694      16.52111584
Si      24.08652926      10.41724087       1.16328631
Si      19.37967260       8.31403557      38.68086236
Si       1.25575110      13.57902421      39.01393794
Si      25.87658507      37.03147874      26.15042613
Si      22.14069919      36.59733179      29.35071774
Si      21.69259813      20.93871971       9.92753013
Si      11.09047241      30.76566841      26.74176268
Si       7.18977300      14.37915406      12.80096076
Si      32.70421750       1.40468365       0.14063815
Si      23.72469777      33.83533386      28.81267995
Si      38.12038295      20.00225690      31.41559271
Si      20.17852155      38.92068858      23.86701592
Si       3.75058783      27.70376110      23.25631121
Si      28.11353054      23.46546606      23.82723894
Si      14.45820372      29.96477414      30.49260484
Si      30.42328092      36.26726293      10.97480258
Si       9.65331077       5.09469621      22.01556961
Si      18.47331504      21.94658251      16.59364161
Si      23.47464630       3.56598225       5.88317907
Si      25.86550810      24.02898214       4.15056833
Si      29.48757161      30.75190737       0.61420722
Si      20.28915223      10.78797364      18.82305518
Si      37.92112886      28.20435231      16.56542372
Si      15.92091487       5.99759919      26.04837178
Si       8.32099933      28.46822047      28.83713827
Si      22.92874012      14.35466642      38.79591082
Si      28.69014293      32.60230076      28.77331489
Si       2.82937335      13.82829002      20.22276315
Si       3.13943577      20.38844195      30.71836546
Si      15.01471274      36.84529467       7.66784158
Si       8.12843606      38.05642632       6.58761547
Si      21.61956543      15.29515536       6.88584659
Si       1.11821086      33.62180334      20.96024466
Si      11.50163687      17.19354774      15.78039867
Si      28.17946652      31.47457772      36.29720569
Si      23.03080955       3.76367423      25.35336049
Si      29.88663551       9.53183204      23.09981240
Si       6.24876129       2.87041216      12.51710596
Si      29.96383096       8.48565564      19.96348740
Si      23.56619390       6.27980716      18.16377555
Si      37.72526746      12.01390626      12.09136099
Si      39.84581395      25.70854773      15.06069353
Si       3.12308662      25.75849835      37.16500633
Si      29.64058048       5.91963032      14.42101140
Si       2.20677802      11.08070708      36.91146946
Si      19.16134723      28.10225056      29.75019990
Si      29.04009971      17.92777241      29.23801901
Si      32.60480159      16.53408850      26.00117131
Si      36.30744617      30.29996154      23.56074468
Si      10.33300684      19.23814782       7.29051427
Si      32.73540950      27.98172151      37.19937953
Si       3.66822353      24.49347244       4.78821939
Si      32.61845638      35.73184635      11.20778349
Si      31.97720309       4.70297554      29.75749154
Si      36.42945024       4.11483363      10.50250542
Si      15.88833492       0.67957717      11.33093177
Si      21.00148743       9.85812890      38.85870552
Si      36.76770706      30.04019815      29.47959559
Si       3.63180082      30.89623270       0.51513368
Si       0.20143722      17.61443034      35.95151447
Si      10.60211967      34.81432683      33.18972631
Si       2.51286838      27.53129761      38.61879585
Si       8.06342680      10.18428367      35.15091282
Si      10.74868134      32.12213996      17.81950347
Si      23.99373781      21.42457611      22.82206986
Si      15.36598052      18.50672838      38.84049378
Si      17.54805641      24.02689736      37.47211645
Si      34.01571256      27.03441259      39.03091502
Si      14.46416341      38.76053055       4.24734023
Si      34.79000828      11.39570145      29.51576303
Si      24.06665886      23.07650688       6.70394848
Si      26.17170873      23.05732932      18.05578921
Si       5.02505502       8.35734122      26.75046877
Si      24.00788574      36.01604907      28.14863770
Si      33.99875150      24.52648568      34.47590512
Si       2.01999955      12.22596133      26.70414161
Si      15.63581315       8.70012060      30.63501944
Si      38.63466246      33.71610946      25.92621759
Si       7.53893408      26.91965948      18.46832421
Si      16.78042119       1.40096255      30.49010143
Si       0.68370185      28.40393875      11.37037217
Si       9.91243282      15.62030864      12.96116515
Si      25.66155975      18.34303720      12.68902979
Si       0.18205261      12.57666629      16.71239086
Si      17.73956138      18.62727554      14.88399502
Si      27.20040146       7.09969862      24.16456380
Si       8.68614408      20.46409436      39.14548084
Si      21.77133482      38.64648001       3.00700227
Si      25.79271636      31.48947765       0.46877989
Si      12.86883656      22.51071267      34.24536541
Si      17.52583375      37.76707739      12.46394942
Si      34.20928449      24.40982214      20.56470065
Si       5.96691928       5.28784708      16.42500584
Si       7.10371948      26.49950153       3.81037475
Si      14.11545395      24.67091046      37.16884945
Si      17.53308894      32.37343189       2.23882214
Si      14.95319844      25.18917164       3.71434517
Si       2.18499704      20.53844177      32.68378038
Si      23.67275139      15.43157073      21.62690001
Si      14.50351103      28.72025494       4.21820592
Si       1.22041255      13.98468350      34.51397130
Si      14.28933251       0.81713224       6.22628434
Si      36.11105180      39.86101175      12.03092673
Si      25.19217218       7.24387722       4.82720454
Si      14.88603775       7.13039653      32.20034480
Si      10.75125255       9.16237296      38.48670420
Si      34.33030381       3.50049412      27.44551489
Si      36.95505955      22.10160511      21.12731281
Si       4.74918529      26.97200257      11.99973866
Si      17.29656506      17.91724421       2.31887628
Si      14.28710558      10.10779893      35.83180696
Si      13.08489036      22.55036704       3.26608752
Si      25.17568751       6.78162012      16.50214947
Si      15.87193047       0.03830588       3.04331587
Si      16.25615681      13.97249049      17.54075436
Si       2.18213761      28.80563317      32.51633739
Si       5.74862886       2.71142907       0.82965324
Si      32.44242108      38.66975549      18.51779528
Si       6.80296481      33.52652479      27.47333062
Si      32.25598958      32.36290089      13.07988125
Si      32.58356659      31.03623687      14.98757411
Si      15.75025845       1.24810211      35.38780867
Si      28.27343103      17.95618757      18.55651324
Si      23.33806606      26.12572150      14.08797391
Si       9.80952387      31.60352612      36.65067760
Si      33.29388029      16.63975054      23.80150092
Si      33.20132845      25.10258747      16.75699085
Si      11.98339961      15.95251495      12.10064791
Si      19.97333649      19.62762176      24.36397539
Si      18.76910163      14.92070725      24.10170594
Si      25.54689985      34.97011467      15.17809337
Si      20.69299137      29.44353352      10.38090505
Si       8.52049932      37.33200324      17.79258577
Si      25.83190864      11.72063898       8.89560341
Si      25.81516899      13.16847505      37.01039742
Si      35.59654110      16.88507212      23.75715256
Si      35.91522375      37.45604493       6.91194810
Si      12.12587596      22.81868613       1.17678514
Si      13.28871774       7.33335282      26.56323093
Si      12.21480423      25.22070970      30.20733972
Si      17.40229805      38.31090001      18.60871517
Si      35.93506724      35.57771129       8.28696294
Si      17.18464197      20.89986015      30.84042916
Si      33.37294966      18.32000841      32.77262225
Si      21.11917237      11.79296027      28.89785590
Si       3.21966089      27.53065138      30.58863971
Si      22.81126999      10.43462006      25.27107086
Si      13.52882983      15.16349275       1.62127701
Si       6.59311411      26.60253381      10.54834520
Si      25.63688819      33.74338146      39.54947935
Si      15.89959607      11.35947096      10.10876998
Si       4.68394779      36.78195483      13.87663361
Si      29.46934531      20.28578903      37.29493907
Si      14.92634475      13.98566993       5.71020315
Si      33.12314989      30.52389398      28.06370501
Si      12.39211138      19.81653182       1.19353172
Si       7.12628331      34.90072451      39.72501160
Si       6.69014670      25.27254147      23.08453783
Si      23.86325345      19.72920816      17.57556143
Si       8.63602686      14.04406333       6.48028663
Si      15.22987535      35.75405645      17.05424170
Si      24.29789274      24.52373058      35.58978766
Si       1.48268523       2.00015206      32.54178528
Si      30.74111504       5.36609812      36.96810980
Si      22.56257264      10.12477555      13.72990387
Si      28.18627076      35.51574715      32.26550262
Si      21.24942653      27.14318406      29.04132613
Si       2.75793889      24.37388528      38.93064011
