3068
Lattice="40.0 0.0 0.0 0.0 40.0 0.0 0.0 0.0 40.0" Properties=species:S:1:pos:R:3 relative_density=0.96 cell_dim_angstroms="_JSON [40.0, 40.0, 40.0]" n_grains=16 grain_size=20.0 crystalline_fraction=1.0 grain_radius=17.208666881314837 pbc="T T T"
Si      18.85465591       6.27849187       0.75287324
Si      17.08589212       8.11725992       3.66450364
Si      17.63550940      10.17696322       2.66149933
Si      15.96963289      10.86718199       1.20483504
Si      16.56915217      38.07149219       4.75718981
Si      17.98827137       2.61218658       0.08904105
Si      17.11306354       0.10916003       3.76649286
Si      15.40207907       0.75137188       2.30259159
Si      13.68978739       2.64018893       5.19299762
Si      12.00656016       4.48298290       8.04036095
Si      16.83496468       6.51591592       1.96914802
Si      16.23505610       4.44058796       3.00313130
Si      15.08486122       7.17281239       0.50076502
Si      15.96151603       2.83407505       1.33010932
Si      14.26064727       4.67404092       4.15731237
Si      14.23847347       3.51415181      39.83128704
Si      12.53520653       5.33715283       2.78570510
Si      14.79134954       5.52586171      38.86389293
Si      13.05246284       6.19058779      37.40610151
Si      11.69468329      10.90024429       6.29564878
Si      12.50663638       6.57756987       7.07807447
Si      10.80407371       7.25158050       5.60134933
Si      15.13376459       8.35956685       4.89405725
Si      13.92435603      11.07932591       2.43398127
Si      13.38006943       9.06057213       3.40629899
Si      12.21135217      11.77199189       0.94428769
Si      13.08235224       7.40364616       1.74414983
Si      11.37183517       9.27124894       4.63534274
Si      11.32792322       8.06916253       0.28296535
Si       9.65911406       9.93376468       3.16607189
Si      15.61903322       9.23576417      39.51304391
Si      11.94571085      10.14522977      39.27084009
Si      10.19666595      10.82525930      37.83973444
Si       8.50660742      12.65711058       0.74213198
Si      13.10282077      32.56329249       6.24143366
Si      14.54860836      38.28461816       5.98215860
Si      12.82474064      38.96341301       4.50211163
Si      13.75548647      34.57616064       5.32906760
Si      12.00389006      36.48136626       8.17453937
Si      11.98188507      35.27227270       3.82282634
Si      10.30259302      37.16295387       6.70965063
Si      15.12845673      39.15909331       0.61738020
Si      14.58341078      37.09656153       1.60962422
Si      13.39669036      39.77761680      39.16286835
Si      12.58802284      37.32658780       2.83916044
Si      10.82052887      37.97589908       1.36858967
Si       8.61943635      38.99596868       9.60507007
Si      11.68134792       2.86226122       6.39422967
Si      11.14797997       0.78127567       7.38262356
Si       9.99131960       3.52179873       4.97767160
Si      10.83498922      39.15718534       5.73636028
Si       9.09239549       1.05990509       8.62031784
Si       9.12353447      39.85208528       4.29519882
Si       7.39100534       1.75030294       7.14308666
Si      13.40414639       0.99477568       3.49282369
Si      12.22410071       3.69931867       1.06480072
Si      11.64716650       1.68277747       2.09145331
Si      10.51216999       4.42296969      39.59554370
Si      11.38754865       0.04028954       0.39764411
Si       9.71855028       1.90940386       3.26037686
Si       9.68741909       0.75363892      38.94443905
Si       7.97848252       2.59802856       1.83855306
Si      13.91750473       1.89928648      38.22880788
Si      10.21157376       2.75996902      37.94381537
Si       9.97872998       4.74575536       9.30287067
Si       8.81699370       7.48582128       6.82501221
Si       8.27131520       5.42415727       7.84831475
Si       7.10638382       8.13741740       5.38017032
Si       7.96322228       3.75511455       6.19755480
Si       6.23074624       5.65526649       9.03953055
Si       6.25628768       4.43850556       4.76052555
Si       4.54425733       6.32328822       7.59251908
Si      10.51833510       5.57963275       3.97150832
Si       9.34797528       8.32931190       1.49782578
Si       8.80866214       6.24461471       2.50326325
Si       7.61787428       8.98594120       0.04550897
Si       8.50040005       4.62658265       0.83852173
Si       6.77643306       6.49150483       3.65740117
Si       6.82306170       5.32358255      39.38885391
Si       5.08799542       7.16477036       2.28979196
Si      11.07107823       6.44302312      38.60880301
Si       9.93837056       9.17765859      36.18988343
Si       9.36325854       7.16219340      37.13905106
Si       7.33887304       7.34660509      38.39202966
Si       5.63328023       8.02538739      36.93308357
Si       5.08820684       8.37733477       6.61475823
Si       7.69026366      10.19588006       4.40747552
Si       5.62859474       9.22822533       1.25451510
Si       8.21959481      11.07278973      39.07678989
Si      10.00147932      35.49820712       5.04323104
Si       8.28218133      36.18758812       3.57343276
Si      11.69083161      33.59942060       2.16748800
Si       7.99143804      34.52691766       1.92791805
Si       6.55397866      39.22760547      10.85006938
Si       4.85850288      39.88418415       9.35806323
Si       8.29258890      37.40041195       7.92595755
Si       7.12085404       0.10613617       5.47705821
Si       6.53960105      38.04220763       6.46069036
Si       5.42700369       0.76756385       4.01160135
Si       6.24486673      36.42264569       4.82068335
Si       8.80414539      38.22512659       2.60527517
Si       7.68461569       0.97306762       0.15144396
Si       7.05937128      38.88963439       1.14880050
Si       5.93012903       1.62893443      38.69630153
Si       5.07909728      39.09249551       2.34219682
Si       3.36213956      39.81024790       0.91991027
Si       5.42622023       1.94351479       8.39437354
Si       4.24203355       4.66214225       5.94245507
Si       3.69778665       2.65330006       6.90221779
Si       2.49354798       5.37309187       4.45408773
Si       3.39376562       1.03496684       5.23878308
Si       1.67434417       2.86394973       8.14715688
Si       1.69479220       1.65363560       3.79559662
Si       5.96665951       2.83166544       3.04427608
Si       4.78682658       5.55741770       0.59463577
Si       4.21726291       3.47790243       1.57022596
Si       3.91403810       1.84516235      39.91142323
Si       2.24232749       3.70026542       2.82826751
Si       2.15997376       2.50635202      38.46237879
Si       6.52485561       3.65063380      37.71409752
Si       2.82646158       4.58399758      37.45261046
Si       1.37413934       0.04736088       2.09875343
Si       5.64731330      26.93911834      21.54312967
Si       4.01801662      26.04745328      18.22564498
Si       7.69279110      25.04804386      18.88477949
Si       6.84999411      27.79000329      16.31903239
Si       6.15129827      25.79346036      17.23881199
Si       8.87836022      25.89216485      13.64071069
Si       6.02837835      24.13416574      15.53626802
Si       7.32526736      26.57304301      12.01673946
Si       4.49763127      24.84405380      13.87207580
Si       4.32925820      23.27824352      12.18711214
Si      39.84867300      20.58222356      10.73329527
Si      10.11678100      23.16712591      24.79819458
Si      11.32791810      24.06381955      19.52992037
Si      12.11841788      21.29196463      22.13010621
Si      12.50935459      24.90075249      14.35320860
Si      13.43795201      23.73120895      18.61589959
Si      13.30500632      22.10158733      16.90066177
Si       9.40632854      21.15556332      25.69493874
Si       9.25374251      19.53372528      23.99780628
Si       8.62047280      23.89784229      23.19295785
Si       6.90812603      22.97544297      19.82365976
Si       8.44180573      22.31988682      21.43564515
Si       6.80306929      21.37412657      18.13373192
Si      10.60424096      22.00621655      20.46797887
Si      10.40091027      20.38913499      18.75579817
Si       7.60251578      18.65905483      20.68513663
Si       9.77171118      24.76220815      17.90619101
Si       8.10937628      23.82608364      14.58889805
Si       9.64108615      23.14119576      16.22597280
Si       8.02558328      22.25035386      12.85712940
Si      11.80870998      22.81956013      15.23860242
Si       8.91186833      21.08330971      17.11842626
Si      11.65823772      21.23499898      13.52565990
Si       8.85265560      19.48993136      15.44743111
Si      10.96507747      25.59868630      12.69104680
Si      10.12279468      21.95966255      11.91696152
Si       6.09837313      19.33164545      19.02671391
Si       5.92689350      17.70779435      17.29578139
Si       5.30982617      22.10943462      16.45090191
Si       3.64743142      21.19074100      13.08618003
Si       5.12584943      20.46476285      14.72823229
Si       3.51386364      19.60689717      11.39913566
Si       7.26687239      20.16374830      13.80258000
Si       4.39951801      18.42509336      15.68747040
Si       7.14818077      18.54541147      12.08567098
Si       4.29305518      16.81813693      13.95450927
Si       2.76386415      17.53834464      12.30076674
Si      14.22991189      20.99073786      21.15784995
Si      15.75779902      20.29215735      22.79935558
Si      14.09568314      19.38513430      19.43268068
Si      17.74540522      18.41763072      20.11821502
Si      14.86391588      16.65849281      21.97504410
Si      15.43099557      21.81436677      15.92669404
Si      16.99968309      21.14989088      17.58529611
Si      15.29557431      20.23877547      14.21554143
Si      19.09353248      20.87265205      16.59935953
Si      16.20709405      19.07030438      18.48263515
Si      18.95167764      19.20945837      14.89568120
Si      16.07313455      17.44972040      16.73773891
Si       8.39414360      15.89454476      23.24038939
Si      12.00745314      14.89586130      23.88973240
Si      11.36517418      19.26247755      23.02074358
Si       9.71604507      18.34273889      19.68616918
Si      11.23526664      17.62262220      21.32872542
Si       9.61683050      16.68733219      17.97148399
Si      13.38485170      17.35406760      20.34496915
Si      10.53041089      15.56709351      22.24625668
Si      13.26818463      15.69249174      18.66479731
Si      10.40483457      13.94705986      20.54808536
Si      12.57798234      20.09798519      17.80589814
Si      10.91020531      19.18396491      14.46264892
Si      12.46956569      18.49351320      16.12378182
Si      10.80700995      17.57891319      12.76416757
Si      14.60007103      18.17304756      15.13218653
Si      11.73752299      16.46524170      17.03862679
Si      14.43891961      16.57565478      13.45190695
Si      11.61573645      14.81420848      15.31212556
Si       5.24274248      15.69929265      18.23032652
Si       6.74861123      14.99410294      19.88359490
Si       5.06606366      14.03751360      16.50485691
Si       8.85427654      14.65532344      18.90762273
Si       8.06312396      17.43333421      16.34130241
Si       6.45354614      16.51496862      12.97353349
Si       7.93911415      15.78580550      14.60261591
Si      10.05344828      15.55392697      13.69647376
Si       7.22154980      13.77319268      15.53279506
Si       3.56758987      14.77650627      14.89402505
Si      16.91654545      14.72736644      19.31820224
Si      19.84969168      18.07819613      19.15695823
Si      18.21388117      17.18998128      15.81440355
Si      19.69316746      16.47740684      17.45488921
Si      18.99540876      14.41105442      18.36311048
Si      14.16643658      14.58011197      22.95993129
Si      12.48034577      13.65350370      19.54939583
Si      14.06712635      12.94306918      21.19857777
Si      15.34731379      15.45910635      17.67270787
Si      13.71647541      14.56234968      14.33490350
Si       0.97116580       1.89010360      24.08451191
Si      39.16236794      39.88134339      26.76024602
Si      37.32309703      37.87733940      29.42145590
Si       1.62719277      38.65409656      22.05058233
Si      39.82493824      36.65069407      24.78320161
Si      37.93499372      34.64117717      27.42943544
Si      37.05263227      33.17692030      25.81353291
Si      38.53292715      31.35969894      25.42757654
Si       4.50699535       7.61023235      30.66814145
Si       6.94913710       6.37753291      25.98899284
Si      39.61069689       3.33005713      32.38929207
Si       2.66279221       5.57123447      33.37104222
Si       0.03344865       7.13064696      30.05042756
Si       0.63559456       3.92986593      28.06624592
Si       1.50306636       5.30419831      29.73273609
Si       2.13000653       2.06774336      27.70782647
Si       3.57931026       6.16137786      29.04613431
Si       1.75838846       4.12858172      31.72065911
Si       5.07404275       4.37989983      28.72950951
Si       3.27325282       2.36085710      31.39500151
Si       3.08344694       2.74158031      23.36373583
Si       3.98901584       4.16505863      24.99560991
Si       4.57620867       0.91787224      23.03963482
Si       6.05817670       4.97260858      24.30976509
Si       4.22200833       2.94985270      27.03265212
Si       7.53664963       3.14104843      24.03828896
Si       5.70472968       1.14733621      26.70303088
Si       6.71978142       1.75952557      22.35823692
Si       8.15368945      39.94331015      22.01984755
Si      38.40503211      38.07153296      33.11913315
Si      39.89836998       2.12406580      34.42681260
Si       1.35851428       0.34854024      34.07045030
Si      39.55564106      38.30452578      36.78455810
Si      38.77635839       1.87887495      30.77717377
Si      39.41045932      38.65546945      28.75098616
Si       0.26630992       0.09727425      30.42566859
Si       0.88420675      36.90651317      28.43864298
Si       2.33689494       0.90444346      29.70546762
Si       0.50734240      38.88566762      32.45162910
Si       3.85384743      39.16033035      29.38767742
Si       1.96755233      37.10675065      32.12253831
Si       1.23904030       0.67056101      26.07623709
Si       1.87253441      37.47885321      24.04050771
Si       2.73123827      38.90706902      25.73999537
Si       3.36709179      35.69047935      23.72482878
Si       4.81250714      39.67097923      25.03022445
Si       2.98574570      37.70182898      27.73693706
Si       6.30694403      37.89487512      24.74435199
Si       4.48120195      35.90722645      27.39824266
Si       3.72135758      39.51527503      21.35810027
Si       5.20765532      37.68969782      21.01345430
Si       7.28082407      38.49768245      20.36218811
Si       5.45298004      36.46251134      23.05115802
Si       6.91765647      34.70251492      22.71211807
Si      38.69970652      36.89583708      35.12366087
Si       0.13929655      35.12946687      34.80286158
Si      37.56833748      36.65563458      31.45454268
Si      38.20782614      33.44863878      29.46827194
Si      39.08075145      34.85509597      31.09389387
Si      39.66223941      31.62837501      29.10770618
Si       1.10315445      35.69929190      30.45330319
Si      39.27081283      33.66862772      33.11643762
Si       2.61106367      33.92520894      30.13900988
Si       0.77184564      31.85429865      32.79380134
Si       0.05147034      35.42577101      26.76576413
Si       0.66995228      32.23020552      24.77346906
Si       1.47764549      33.67211736      26.41111873
Si       2.09219288      30.38666448      24.42499306
Si       3.60993396      34.47155343      25.77745406
Si       1.74596164      32.42195584      28.40989917
Si       5.11474867      32.67968557      25.40805152
Si       3.24849882      30.64674695      28.10769723
Si       4.19902625      31.20887967      23.74060135
Si      39.95006469      30.43060801      31.14983014
Si       1.33122408      28.63363768      30.82427655
Si      38.81610283      30.16949257      27.43171517
Si       5.54729674       7.79490347      34.37548405
Si       6.54524679       8.43754977      30.01444206
Si       8.00958470       6.61508473      29.65661695
Si       7.67177972       8.64240164      33.65364752
Si       9.11308292       6.83849236      33.33035885
Si       9.04139463       7.20118416      25.31330843
Si      10.52744517       5.43539686      25.00456325
Si      10.13946510       7.42649651      28.98765731
Si      11.55934216       5.65759512      28.66892471
Si      12.57405308       6.24688160      24.32124979
Si      14.06102873       4.45586305      23.94891191
Si       2.83192921       4.38986967      35.36751254
Si       4.35067035       2.58689881      35.08192180
Si       7.28461767       4.84749541      36.06960123
Si       4.72793761       6.41550318      32.68672771
Si       5.30205381       3.18791790      30.68248914
Si       6.16920574       4.57898226      32.34671912
Si       6.81749245       1.40113250      30.36306287
Si       8.28032035       5.43635869      31.67405258
Si       6.42394812       3.36959013      34.34931544
Si       9.74004218       3.61181381      31.35143702
Si       7.91903750       1.65069006      34.00280836
Si       7.12529730       5.21209928      27.98706311
Si       7.80766189       1.96763850      26.03678340
Si       8.66478120       3.39795800      27.65517954
Si       9.26452815       0.13856794      25.68364839
Si      10.78228589       4.20287462      26.98128991
Si       8.84807156       2.20831248      29.68789476
Si      12.23697742       2.40858922      26.63725646
Si      10.38398373       0.39554531      29.35300526
Si       9.66278341       4.00821035      23.34571557
Si      10.22526593       0.80035516      21.30358874
Si      11.14622604       2.17286936      22.98804056
Si      13.16241681       3.01811716      22.27608265
Si      11.35697632       0.99977184      25.03635788
Si      12.87203066      39.20394628      24.67400633
Si       1.62564546      39.15369974      36.10320312
Si       2.47402675       0.57511683      37.76150577
Si       3.09443452      37.31826753      35.76048544
Si       4.57117999       1.36895380      37.08141475
Si       6.07273562      39.58523172      36.78699781
Si       4.23467271      37.56844522      39.41357329
Si       3.45848234       1.18108234      33.40299463
Si       4.10341046      37.95828920      31.39020763
Si       4.94640168      39.34414512      33.05611875
Si       5.54420887      36.12160442      31.06212950
Si       7.03542450       0.16424762      32.41615952
Si       5.20756801      38.13701519      35.08818927
Si       8.52506411      38.35479534      32.07188474
Si       6.69031543      36.36067997      34.75583702
Si       5.96921004       0.00207216      28.70475709
Si       6.59314228      36.73592368      26.72541437
Si       7.41596086      38.18399349      28.36618481
Si       8.05507943      34.95176594      26.39230139
Si       9.50255539      39.01683578      27.68777904
Si       7.68277780      36.95909787      30.37629116
Si      11.01932193      37.17535875      27.33691514
Si       9.15415508      35.13410682      30.04470024
Si       8.41483905      38.75224094      24.00921950
Si       9.90652256      36.96331872      23.66159758
Si      10.10886274      35.79757877      25.68596190
Si       1.89540198      32.09211185      36.48207203
Si       3.33324553      36.14369205      37.76331109
Si       4.83438661      34.35033618      37.44655010
Si       2.23205479      35.90052025      34.07267853
Si       2.87023915      32.69516605      32.09740362
Si       3.73075482      34.14911627      33.73771665
Si       4.37120964      30.86534859      31.80688376
Si       5.81278025      34.94489696      33.12346785
Si       3.95810348      32.93902023      35.77449022
Si       7.32177248      33.15085919      32.74615499
Si       5.41339684      31.12734574      35.44860635
Si       4.72357597      34.70923346      29.40325579
Si       5.31713975      31.45817454      27.39358090
Si       6.20299063      32.90842555      29.04357710
Si       6.82029252      29.67051556      27.09451922
Si       8.29193375      33.75661320      28.41296576
Si       6.42992130      31.70148620      31.07685915
Si       9.79511903      31.91120032      28.05318296
Si       7.92908039      29.89107623      30.73494291
Si       7.14675934      33.51261044      24.69667675
Si       8.87385728      30.53051344      26.36023198
Si       1.00490196      30.66372666      34.78630242
Si       1.62733576      27.45130820      32.78333354
Si       2.50846230      28.87424557      34.44964106
Si       4.60617614      29.67683627      33.77684995
Si       6.06044452      27.87890755      33.44951483
Si       3.44138223      29.44680576      30.10259888
Si       4.97462844      27.67221130      29.76903238
Si       7.08711549      28.46222967      29.09143301
Si       5.21121501      26.44377792      31.75967206
Si       8.53970342      26.68200221      28.77863386
Si      12.69740053       5.86880992      32.35483043
Si      15.15007639       4.67626121      27.66088628
Si       9.38218255       5.64243993      35.37526576
Si       9.96691726       2.42642823      33.34403882
Si      10.86439741       3.84804666      35.00905795
Si      11.49566649       0.63465959      33.03496168
Si      12.97054100       4.64730244      34.33161407
Si      14.42951721       2.89836685      33.96699526
Si      12.59691033       0.88562431      36.68744560
Si      11.86076448       4.44731312      30.68016510
Si      12.48661211       1.23721723      28.70939203
Si      13.31226013       2.67302914      30.38110914
Si      13.94095322      39.42642453      28.33339661
Si      15.40184917       3.45345918      29.69187508
Si      13.56347342       1.47957334      32.36424476
Si      15.07407281      39.62804438      31.99670698
Si      14.32166494       3.25182911      25.98542170
Si      14.92670676       0.00320584      23.99224142
Si      15.78506057       1.41598786      25.64213444
Si      16.01914331       0.28341817      27.62442124
Si       6.29085851      38.39532460      38.73009843
Si       7.82176102      36.59015891      38.41343249
Si      10.75062601      38.89136196      39.39985604
Si       8.16563167       0.41309899      36.05016025
Si       8.80810944      37.20108948      34.05648468
Si       9.61343829      38.61730415      35.72313247
Si      10.22316324      35.36647448      33.69379945
Si      11.74147627      39.43097149      35.00904465
Si       9.86290184      37.42142936      37.70752698
Si      13.18755124      37.63571754      34.70767546
Si      11.34082645      35.58071769      37.41494408
Si      10.61801679      39.21674638      31.36386513
Si      11.23311417      35.99135502      29.37728147
Si      12.10763759      37.42765402      31.01800716
Si      12.71261590      34.17399332      29.02760867
Si      14.13943047      38.19696750      30.36291622
Si      12.32227208      36.19615357      33.04891400
Si      15.64251851      36.47640142      30.04607121
Si      13.78146315      34.43883351      32.72542794
Si      13.10374436      37.97437072      26.67243665
Si      14.57066485      36.20409566      26.35172232
Si      14.81216761      35.03623862      28.32077340
Si       5.95694478      34.58636422       1.13648741
Si       6.51788396      31.30709627      39.09577876
Si       8.04743652      35.37985536       0.45697408
Si       9.49096707      33.60739392       0.09333791
Si       6.94720983      35.17112498      36.73899408
Si       7.49666572      31.93936363      34.79664775
Si       8.39443436      33.36546200      36.43628797
Si       9.00376409      30.14816598      34.44031200
Si      10.48704372      34.20499256      35.73792345
Si       8.65102929      32.19010468      38.37796533
Si      11.97610828      32.41965906      35.42158620
Si      10.13553883      30.39409757      38.12218082
Si       9.37502434      33.98766557      32.06266882
Si      10.02519595      30.72688148      30.08094224
Si      10.83514890      32.14488058      31.73593732
Si      11.53738482      28.94813673      29.76238798
Si      12.97481094      32.99379278      31.05658689
Si      11.10057410      30.92401754      33.77646023
Si      14.42171543      31.22177257      30.70566853
Si      12.58876855      29.14959667      33.38696139
Si      11.83288482      32.77531803      27.38923532
Si       5.67464657      29.94769895      37.44950087
Si       6.31457596      26.67214307      35.46723738
Si       7.19458243      28.14048087      37.08249135
Si       7.81379847      24.93477633      35.12031998
Si       9.29381454      28.91890394      36.42621996
Si      10.75526243      27.18269475      36.09730979
Si       8.14359707      28.68960560      32.75173668
Si       8.79265102      25.51628452      30.75905866
Si       9.61965721      26.96655244      32.44562478
Si      11.73408044      27.74545599      31.76234637
Si       9.87048662      25.71931435      34.43004696
Si      14.65276978       1.66285058      36.00794569
Si      16.17010084      39.87634879      35.68087255
Si      16.53859734       3.72739626      33.33090159
Si      17.16232397       0.49411275      31.32713994
Si      18.00259298       1.88617571      33.00024417
Si      18.61550938      38.66737936      30.99727036
Si      18.25409369       0.75366881      34.99188788
Si      19.75321165      38.93544796      34.64730712
Si      13.47162008      36.42418447      36.70407412
Si      14.30297154      37.87169925      38.34050323
Si      14.97033055      34.65595639      36.33474662
Si      16.42022833      38.72119688      37.68521569
Si      15.29987735      38.46385356      34.00170036
Si      15.92983877      35.21890006      32.01239282
Si      16.77251856      36.70483692      33.68648904
Si      17.40285767      33.41943987      31.68349041
Si      18.86136479      37.46799727      33.01889721
Si      17.01164788      35.49141178      35.70209492
Si      17.73434058      37.23875805      29.32586383
Si      19.24006892      35.46563160      28.98996190
Si      19.51780002      34.26303755      30.99918565
Si       9.79094964      32.44078164       2.11602494
Si      11.24905481      30.62868587       1.77160369
Si      11.58587384      34.43846972      39.41698516
Si      12.22126828      31.19233377      37.38342201
Si      13.10678967      32.58495670      39.05049210
Si      13.66216691      29.41294846      37.10982037
Si      15.18435910      33.46328716      38.36319200
Si      13.37324959      31.42844444       1.10144075
Si      14.11853646      33.19488001      34.69169526
Si      14.73567217      29.99415686      32.72661742
Si      15.53691551      31.43559146      34.36050256
Si      17.66947773      32.25311363      33.68923154
Si      16.53990871      32.01882184      30.05057268
Si      10.37375188      29.18787706       0.11716169
Si      12.85808211      27.97262673      35.41333137
Si      29.19471345      39.28891414      35.05631036
Si      38.93212576       1.93964022      36.48798680
Si      37.01308527       1.06735457       0.51708833
Si      36.08224144       2.63461907      38.98307763
Si      36.21649600      39.20035894      34.17208614
Si      35.72095394      39.83970416      36.38872461
Si      35.27865308       0.73470534      32.64777974
Si      33.36472383      39.88538894      36.71637940
Si      36.55537230       1.98893954      36.80342762
Si      32.43933938       1.40485451      35.18796232
Si      35.64534163       3.51908412      35.32640048
Si      32.06381546      38.59795040      32.58607189
Si      29.77040715      38.63345624      32.88286582
Si      32.94599293       0.76203028      32.95457963
Si      31.97818465       2.29682212      31.47480494
Si      36.18534592       2.85558690      33.07184825
Si      35.20322484       4.36792116      31.59934590
Si      34.19549880       1.77299394       3.01256850
Si      33.66313162       2.47223812       5.18798401
Si      33.24501504       3.31327045       1.49549188
Si      30.36894690       4.00242868       3.98136280
Si      30.55281817       0.57846268      39.18284756
Si      30.00105521       1.18434477       1.35880688
Si      29.59469289       2.09682900      37.65760240
Si      30.90751498       3.34616070       1.78950626
Si      26.74320015       2.79035249       0.16406389
Si      29.95541088       4.85708227       0.26074306
Si      26.88351581      39.29577833      35.35975525
Si      26.43368665      39.97963661      37.56324373
Si      25.95537721       0.87519817      33.87243267
Si      27.26492378       2.12349764      37.96251434
Si      23.09103767       1.53682307      36.37352971
Si      26.30863951       3.66353644      36.44299417
Si      23.62955969       0.90319406      34.10657535
Si      34.14325561       5.44395952       1.86880642
Si      33.15820017       6.99494986       0.39815042
Si      33.74091511       2.67691799      39.31087643
Si      33.33536917       3.58738025      35.55246923
Si      32.77032865       4.23269850      37.77610538
Si      32.37895345       5.08111402      34.07541875
Si      30.45586188       4.24079965      38.08257037
Si      33.65465367       6.35916218      38.17204551
Si      29.48539443       5.75884243      36.57376705
Si      32.75591264       7.90463689      36.67542184
Si      30.08779852       1.43056946      35.44925462
Si      29.11597128       2.96678661      33.97435101
Si      26.83632994       2.98607498      34.22934230
Si      29.99522534       5.12228265      34.37944818
Si      25.82144674       4.55832981      32.74892712
Si      29.05382584       6.66714985      32.85691783
Si      36.54480908       5.67302249      35.69779293
Si      36.07625226       6.54904135      31.98655777
Si      35.53412798       7.19090050      34.20017669
Si      35.09265164       8.09437867      30.45171454
Si      33.21721871       7.22531447      34.47307385
Si      32.27996861       8.76034268      32.97009968
Si      32.82675873       4.41134583      31.88626216
Si      31.93963495       5.91128136      30.35903297
Si      32.77926558       8.10552685      30.76772616
Si      35.99843979      10.19640497      30.88027903
Si      27.54472023       4.67790032       6.48803793
Si      23.91851698       3.45321458       2.65518301
Si      25.22251774       4.72332640       6.76754060
Si      24.30292985       6.25191995       5.24630423
Si      20.27516795       2.25887202      38.83924053
Si      21.56992082       3.50310182       2.95198556
Si      20.62966596       5.02554416       1.44271458
Si      31.28329519       6.16880221       4.34713842
Si      30.32420514       7.66907280       2.87663924
Si      28.40180204       6.80854782       6.88602635
Si      27.51664341       8.37906346       5.39587633
Si      28.04778227       4.06124460       4.26757126
Si      27.63080967       4.92598316       0.55666060
Si      27.12560764       5.57597468       2.74286957
Si      26.68115884       6.45183685      39.05040936
Si      24.77636790       5.55362837       3.05722480
Si      27.95460266       7.72686475       3.16122565
Si      23.84241314       7.12572163       1.57950372
Si      27.04305935       9.22273453       1.66895006
Si      24.44362770       2.82391261       0.41832116
Si      23.96325530       3.70307692      36.75790855
Si      23.44941494       4.35074249      38.95077230
Si      23.03308810       5.24627303      35.23280422
Si      21.14205491       4.35950361      39.21725576
Si      24.33563607       6.46475343      39.31932952
Si      20.16715825       5.92269940      37.70995239
Si      23.41076981       8.03522406      37.80739434
Si      20.75301148       1.57918186      36.59501079
Si      19.81178217       3.10318867      35.09693801
Si      20.68921102       5.24178369      35.52563849
Si      30.25447523      11.35328210       1.75128172
Si      30.83142820       7.07322866       0.64482582
Si      30.37565622       7.90529140      36.96693250
Si      29.88714146       8.55891273      39.18802213
Si      29.43437365       9.45529445      35.42260865
Si      27.55470181       8.60899314      39.45355658
Si      30.75638173      10.72859853      39.56606913
Si      26.59892412      10.08183504      37.96989438
Si      29.78818876      12.21971136      38.03684084
Si      27.15740869       5.76110268      36.88061285
Si      26.73410824       6.64856297      33.11523657
Si      26.23211657       7.36949661      35.35744101
Si      25.77255405       8.24292071      31.63084477
Si      23.87882594       7.35335771      35.63828034
Si      27.07875756       9.49772842      35.76343974
Si      22.94552537       8.92350966      34.10988285
Si      26.12043199      10.98323179      34.21589992
Si      23.51321872       4.60760088      33.08125899
Si      33.09719389      10.88023229      33.37161449
Si      32.61547915      11.54588656      35.57301257
Si      32.16822469      12.43453522      31.84986329
Si      30.27398816      11.58201483      35.86754025
Si      29.34468476      13.09659316      34.39052540
Si      29.93790146       8.79975674      33.26572994
Si      28.97253145      10.31531648      31.72526073
Si      26.64375147      10.38368829      31.99832198
Si      29.85912705      12.47984169      32.13244902
Si      32.71196851      11.77669639      29.65119826
Si      28.33769627      10.51393520       5.76087906
Si      27.83482034      11.16150268       7.98753401
Si      27.38723753      12.03961622       4.23973608
Si      25.15894354       8.42634042       5.69840276
Si      24.70260027       9.28921953       1.94191667
Si      24.18499063       9.94640830       4.12873094
Si      23.76697825      10.77054905       0.46074336
Si      21.84446920       9.99559503       4.44064214
Si      25.06024493      12.09742578       4.55459567
Si      20.92012599      11.53004338       2.94976649
Si      24.08959091      13.60893166       3.01626640
Si      21.50671518       7.15944081       1.84865727
Si      21.02770289       8.02987390      38.09354951
Si      20.50480858       8.75645025       0.33638083
Si      21.40240524      10.86563798       0.75024820
Si      27.90882094      11.40956067       2.06293332
Si      27.43413617      12.27083918      38.35637990
Si      26.95149362      12.89265285       0.55064404
Si      26.54068172      13.78529959      36.83588066
Si      24.68595739      12.98432741       0.83307899
Si      27.82094864      15.08171407       0.92616515
Si      24.22073093      10.19725593      38.22773597
Si      23.79326803      11.02897470      34.50614880
Si      23.32075485      11.71109379      36.70643486
Si      26.99833885      13.13192736      34.62781984
Si      25.42310912      14.88417846       7.19746708
Si      21.81816143      13.62782537       3.33434349
Si      22.36845936      15.59925386       2.20618883
Si      25.80149779      19.22477406       7.23134107
Si      26.35216704      20.03292883       5.14476248
Si      22.31801812      18.20339923       5.87591055
Si      22.85574916      21.67339948       7.44932838
Si      22.92560061      19.10222607       3.76993963
Si      23.50476327      22.55771301       5.30930420
Si      25.19614932      15.69198113       5.68818131
Si      25.84722639      16.58565129       3.57930787
Si      28.76996157      17.18945487       1.17363873
Si      24.73439244      15.38697093       1.92790925
Si      25.25290172      18.86996366       3.45306703
Si      25.26543011      16.25077500      39.77338476
Si      25.86704057      19.71813603       1.34272176
Si      27.62703381      16.01454864      39.51818961
Si      28.23984396      16.87440672      37.38453037
Si      25.78672080      22.30870963       4.98583642
Si      26.42846354      23.16407098       2.87817718
Si      28.70816564      19.81480270       4.83350474
Si      29.31371547      20.70492403       2.72772293
Si      32.25648237      21.30381039       0.31958375
Si      28.14987571      19.47162870       1.07065996
Si      28.74966624      22.92347248       2.62379768
Si      28.76596977      20.33240433      38.94786470
Si      29.32741789      23.80555761       0.43225473
Si      30.55944273      16.63220063      37.06427768
Si      31.09960156      20.14228612      38.65778032
Si      31.14509172      17.49574959      34.95022988
Si      31.69585018      20.96229118      36.54716479
Si      33.55944205      14.64868722      30.99227859
Si      34.05918825      18.07791408      32.54712945
Si      31.64382142      23.56131394       0.17554388
Si      32.26226874      24.42327478      38.07598708
Si      34.01068016      20.74231214      36.25519194
Si      34.54489546      24.22970681      37.72882148
Si      34.61326735      21.58433553      34.11727928
Si      35.15998653      25.08008836      35.67810556
Si      38.08768497      25.67881412      33.26464360
Si      19.49196051      18.12056482       2.38195815
Si      21.87132478      15.26934362      38.40851398
Si      18.93012409      17.73935091      38.56859679
Si      22.36588860      21.35020304       3.61120096
Si      20.02072884      21.60852090       3.92693064
Si      22.94088572      22.20046321       1.50391127
Si      18.90556356      20.38618253       2.24411630
Si      19.50453675      21.24839482       0.18657647
Si      20.01269001      24.68220504       1.70123048
Si      21.77774694      17.92666901       2.08494309
Si      24.73499867      18.52412217      39.65777478
Si      22.40118316      18.72736993      39.98622915
Si      25.30673013      19.32214788      37.56372636
Si      21.28258773      17.48937405      38.28123431
Si      21.77091551      21.01038842      39.82548340
Si      21.88191284      18.40136471      36.19854360
Si      22.40518761      21.86534028      37.71570259
Si      24.18597578      15.03815929      38.11859340
Si      27.11354481      15.66273849      35.68424949
Si      24.80259640      15.88544883      35.99209412
Si      27.68521387      16.49949130      33.59691177
Si      24.19373206      18.15667435      35.87470709
Si      24.27345151      15.55280841      32.23233445
Si      24.81794447      18.99780556      33.76002024
Si      30.09301883      13.71405878      29.63237247
Si      26.58669947      15.29422256      31.88896693
Si      27.17569744      16.13733117      29.82593625
Si      22.37016313      24.46265621       1.38676982
Si      22.95455317      25.32868146      39.27078713
Si      25.25106326      21.99120436       1.22744088
Si      28.17320278      22.57722432      38.80748667
Si      25.87443310      22.88265907      39.12374250
Si      28.79211431      23.45627658      36.68395315
Si      24.71157517      21.61189451      37.43910801
Si      25.28542954      25.10247900      38.97889596
Si      25.34031222      22.47391657      35.30649134
Si      25.88054451      25.97860085      36.85476565
Si      27.65767243      19.15024223      37.23593303
Si      30.53326013      19.80110186      34.83195758
Si      28.23391961      20.00348603      35.18931368
Si      31.17359810      20.64423857      32.71591880
Si      27.15557713      18.75587295      33.46327791
Si      27.64970866      22.25441731      35.02260895
Si      27.76357803      19.64307906      31.36012883
Si      28.23771076      23.12559692      32.91249366
Si      30.02018928      16.25707631      33.29630169
Si      32.96237301      16.89098372      30.87084013
Si      30.58691995      17.17343722      31.19316803
Si      33.53942351      17.74110451      28.78507077
Si      29.50356922      15.97235560      29.50006812
Si      30.03449381      19.41972319      31.05189059
Si      30.08612538      16.78640182      27.39261070
Si      30.65231815      20.27598200      28.95301508
Si      29.29167464      26.91065072      38.25194942
Si      32.23704081      27.54654067      35.86714412
Si      28.19025740      25.75213044      36.57726163
Si      28.79488673      26.61298151      34.48015617
Si      31.10971773      23.23596729      36.43208913
Si      34.00550695      23.87184677      33.98927973
Si      31.70146583      24.12305354      34.29399411
Si      34.63041536      24.71333399      31.88408639
Si      30.57531010      22.87935276      32.61826230
Si      31.13080478      26.34806727      34.15149193
Si      31.18039331      23.72974800      30.51678898
Si      31.68968074      27.18797362      32.08377396
Si      33.49564715      20.38034600      32.41510982
Si      34.10227749      21.25258210      30.35608150
Si      32.95765514      20.03448759      28.63334368
Si      33.49792832      23.49357005      30.22555344
Si      34.10810195      24.33151524      28.11577855
Si      34.55920604      27.31538587      35.53153970
Si      37.47727831      27.97164808      33.12542345
Si      35.15891478      28.24169964      33.43292158
Si      34.04806661      26.96999424      31.75480263
Si      34.65511667      27.81568546      29.64685828
Si      36.94381233      24.44989121      31.58564475
Si      36.94262960      27.59705156      29.38061992
Si      16.06449176      20.26742535      38.76563994
Si      18.88660050      23.48648907       0.00903154
Si      16.59918023      23.73172515       0.30241898
Si      19.52296109      24.32904903      37.91548685
Si      15.42299363      22.54661336      38.61860185
Si      15.98479926      26.00602301       0.17767197
Si      16.02309584      23.41823283      36.48659320
Si      16.57638835      26.84564924      38.09395475
Si      18.37566426      20.03572822      38.45059829
Si      21.24996494      20.64973600      36.06833784
Si      18.96132596      20.90574044      36.34510392
Si      21.89105256      21.54287853      33.92418431
Si      17.86864381      19.70994133      34.67670871
Si      18.38948905      23.16263445      36.25131059
Si      18.46497025      20.54505208      32.55659412
Si      18.97364752      23.98229513      34.14592919
Si      20.75927986      17.17076702      34.46034559
Si      23.67971919      17.81421025      32.10175411
Si      21.30838718      18.04268185      32.39291440
Si      24.26067824      18.68335897      29.96662824
Si      20.76575699      20.27633812      32.24415524
Si      21.36493314      21.16229811      30.13955415
Si      26.07033183      15.00995202      28.13640102
Si      26.64832873      15.85111371      26.01816910
Si      23.11494768      17.47093250      28.31553569
Si      23.74469821      18.31418962      26.20855686
Si      22.37830670      27.62681075      39.17165791
Si      22.95923833      28.48067096      37.07782599
Si      18.90340186      26.61141053      37.77952631
Si      19.51104712      27.47569200      35.69031877
Si      21.81261244      24.12593526      37.59374130
Si      24.74489550      24.75867816      35.16564893
Si      22.45051024      24.97437785      35.49996532
Si      25.34818811      25.62898123      33.06886323
Si      21.29230042      23.83187471      33.80967669
Si      21.80178310      27.27975809      35.37189207
Si      21.91027225      24.65614656      31.70496317
Si      22.40883988      28.14893555      33.28515990
Si      24.19725293      21.30250782      33.66151044
Si      27.13825684      21.93264799      31.25020024
Si      24.81597354      22.14677809      31.55021812
Si      27.73552889      22.75947538      29.12762343
Si      23.67983419      20.92936668      29.86646187
Si      24.21430891      24.40120146      31.38242998
Si      24.28595891      21.76824878      27.73965748
Si      24.81805429      25.26663285      29.28775587
Si      26.54196574      18.42559183      29.65118639
Si      29.53312174      19.10088914      27.29863339
Si      27.17861239      19.26761607      27.56736516
Si      30.09873061      19.92875716      25.20470140
Si      26.04768991      18.12446335      25.87630418
Si      26.62125447      21.56992816      27.44566573
Si      26.67769647      18.97542270      23.77868621
Si      29.00602585      15.58606516      25.72939220
Si      28.94368005      18.70591990      23.45017259
Si      25.24939287      28.23578192      36.74495796
Si      28.17876610      28.86456889      34.30683730
Si      25.90883933      29.06319464      34.63817623
Si      28.81995746      29.70150063      32.20526461
Si      24.73382192      27.87768475      32.97551466
Si      25.35530485      28.71914692      30.81467037
Si      27.64633926      25.40827633      32.82534714
Si      30.60543909      26.02381623      30.37777152
Si      28.24850834      26.24495899      30.67655937
Si      31.18166233      26.88267711      28.23910850
Si      27.17478780      25.02061240      29.00416802
Si      27.70645885      28.50225191      30.55494147
Si      27.72059679      25.89418544      26.89245590
Si      28.30641991      29.33153056      28.41541408
Si      30.01938200      22.49350144      28.80986287
Si      32.98865287      23.16086069      26.41408947
Si      30.63038260      23.40296438      26.71136953
Si      29.52932290      22.20241534      25.02598592
Si      30.03690087      25.63683622      26.58585977
Si      30.09139850      23.03571632      22.95659424
Si      30.69437820      26.52732187      24.46769603
Si      31.10227924      29.49468573      31.90596512
Si      34.05426121      30.10969451      29.53016994
Si      31.70893651      30.32652113      29.80136529
Si      34.68300576      30.97010942      27.42171549
Si      30.61168059      29.13811925      28.16935624
Si      31.22002192      29.98964530      26.06480575
Si      33.48801367      26.64753885      27.96875040
Si      34.11893442      27.48542302      25.88099675
Si      33.50519938      29.76670221      25.72629782
Si      15.47345398      25.65752730      36.40069871
Si      13.14638372      25.86348236      36.72117253
Si      16.07875194      26.52005768      34.26193427
Si      11.99992421      24.67401068      35.01511002
Si      12.62724391      25.52677935      32.88254355
Si      14.94405307      22.18551705      34.84684202
Si      17.82866008      22.74317942      32.43125031
Si      15.50575902      23.04983273      32.74508127
Si      18.43524038      23.66128785      30.33707669
Si      14.90455548      25.31229024      32.60969385
Si      14.99329286      22.72232091      28.99265465
Si      15.53643604      26.19764310      30.48717410
Si      20.21499881      19.97468140      28.47705782
Si      20.84278602      20.83187532      26.38606782
Si      17.28887404      22.50065018      28.66920917
Si      17.88756355      23.30504515      26.52874742
Si      23.21177563      17.95946910      22.39663556
Si      19.71590325      19.61584110      24.67985988
Si      20.26497777      20.51376619      22.57230728
Si      15.99840283      29.11834167      37.95433506
Si      18.91946401      29.73152580      35.57021513
Si      16.59173024      30.00468893      35.84737555
Si      19.55244318      30.62506455      33.45633626
Si      15.46393481      28.80833538      34.19235210
Si      18.40921828      26.27536856      34.01554762
Si      21.32096922      26.95106435      31.58749513
Si      18.95796795      27.12668922      31.87710482
Si      21.88575523      27.74230265      29.48253804
Si      17.86118796      25.94296281      30.21118205
Si      18.37745402      29.43454860      31.73411778
Si      18.43897772      26.81799529      28.09616965
Si      20.77279472      23.45799919      30.01221591
Si      23.69257656      24.10487886      27.60293650
Si      21.35659780      24.27556166      27.92917286
Si      24.29662838      24.92301724      25.51384657
Si      20.20680406      23.09536807      26.24610372
Si      20.75100296      26.53890332      27.78270025
Si      23.15729815      20.61190625      26.03586742
Si      26.07007489      21.22854883      23.65722534
Si      23.77513435      21.42821664      23.94467132
Si      26.66305703      22.06553268      21.51091571
Si      22.65179018      20.28218378      22.25904364
Si      23.16690503      23.71949566      23.85366350
Si      25.55247271      17.76372456      22.12580012
Si      25.54677725      20.86656925      19.83579392
Si      21.81352937      30.38275635      33.12319850
Si      24.77199249      31.02532715      30.70305692
Si      22.46518448      31.20819178      31.03548196
Si      25.37168011      31.84420940      28.63872543
Si      21.30379108      30.05817319      29.37150644
Si      24.21459676      27.53813918      29.17979455
Si      27.14469430      28.18365169      26.74275815
Si      24.80435610      28.39299913      27.02949652
Si      26.62147841      24.67596007      25.19836102
Si      29.53646287      25.34767515      22.83170549
Si      27.21130385      25.56469043      23.08689986
Si      28.97561891      21.87994588      21.23805681
Si      30.08982145      28.79212741      24.35104936
Si      35.06159912      32.32112061      28.35924160
Si      33.18175402      33.59984570      25.34867768
Si      32.37129773      31.40681231      24.90297570
Si      34.26276377      36.02138126      28.03029535
Si      35.35808484      38.51000369      30.84856811
Si      33.44210569      39.76623490      27.76574677
Si      34.54285078      36.34161896      30.34712070
Si      29.51675383      34.76650066      25.69235529
Si      32.66614210      37.56377848      27.32542284
Si      30.59120776      37.23256774      28.46500074
Si      28.69879368      38.53431999      25.37896980
Si      33.51333061      33.87011448      27.64953871
Si      31.44117090      33.47593172      28.74252699
Si      29.85069482      35.09247104      27.99814591
Si      27.78192499      34.74226509      29.14358164
Si      27.93578606      36.32141009      24.90871296
Si      25.88689104      36.00973662      26.06850380
Si      23.98902841      37.30529143      23.01116232
Si      26.75556138      32.27942115      26.38469326
Si      27.06424725      32.54504780      28.72089857
Si      25.12553751      33.79652772      25.66690589
Si      32.61182989       3.49124350      27.39342293
Si      35.71859558       6.33056308      29.02960661
Si      36.56651459       2.58584357      29.35492672
Si      33.73196274       0.05818928      30.04313771
Si      31.69970343      39.69959043      31.18000629
Si      32.88398929       3.80298909      29.74474021
Si      30.91507035       3.42712733      30.85626466
Si      27.83521977       2.23950932      25.05733889
Si      30.97341023       5.04839825      26.68549998
Si      28.97047977       4.73166534      27.79923987
Si      27.06102962       6.01453567      24.73526203
Si      31.83605262       1.32501526      26.98623518
Si      29.04726138      38.81623816      27.68648062
Si      29.77593618       0.97889427      28.11371215
Si      26.96974759      38.44761377      28.75481763
Si      30.11196188       1.20980098      30.43524292
Si      28.18975667       2.51273663      27.37117414
Si      28.10552674       0.86972299      31.55932339
Si      26.14928722       2.15788705      28.47333912
Si      30.92918226      37.53760428      30.76361508
Si      28.88078048      37.16550132      31.88540691
Si      27.27861476      38.69729961      31.15458973
Si      25.25928240      38.33830007      32.22790822
Si      23.16007801       1.02885163      22.64536271
Si      26.29519511       3.79764149      24.29300979
Si      24.26061282       3.44323891      25.37130368
Si      22.30219268       4.76005849      22.32981736
Si      27.13800795       0.09776208      24.64488520
Si      24.33079473      37.53669477      25.31403450
Si      25.06479833      39.75171496      25.74723823
Si      22.25389974      37.19489249      26.45221353
Si      25.33876945       0.01956461      28.07665760
Si      23.47777340       1.32391571      24.98887209
Si      23.35325610      39.68531641      29.21075740
Si      21.45829445       0.94853764      26.09763349
Si      26.21322633      36.24713405      28.40569891
Si      23.41544785      33.76006407      29.07324533
Si      24.22853373      35.94743881      29.49502515
Si      21.36850249      33.38054567      30.19632764
Si      22.58750231      37.49218761      28.74764931
Si      20.54428573      37.11217705      29.83418779
Si      21.57362958       2.51643880      21.92772197
Si      19.53355596       2.21682451      23.01618300
Si      22.36002005      38.88294546      22.20656800
Si      20.33487617      38.48618912      23.37360992
Si      20.69908316      38.77745340      25.68837586
Si      18.78023299       0.02808016      22.64537125
Si      32.11204175       7.53143470      29.41679532
Si      30.05429984       7.16465708      30.54824065
Si      31.28231729      11.30211171      29.09341187
Si      27.32679882      12.19166386      27.17931329
Si      27.39538615       6.26327312      27.01542967
Si      28.15199421       8.45987061      27.47352345
Si      25.31993180       5.94335314      28.17725469
Si      28.46157888       8.69896068      29.83149383
Si      26.57214291      10.02619616      26.71419578
Si      24.50283442       9.64666827      27.88102687
Si      29.27263333       4.96751474      30.10736672
Si      26.53071440       2.42047655      30.81649039
Si      27.23127025       4.63943789      31.24248820
Si      24.46035614       2.09270216      31.90544237
Si      25.63923593       6.19913370      30.48988800
Si      23.60740040       5.85941610      31.62576803
Si      22.58539553      10.94752768      24.78655919
Si      22.64611103       5.05899205      24.63378185
Si      23.38212724       7.23756901      25.08356965
Si      20.63729810       4.65341913      25.78332071
Si      23.75264673       7.48153090      27.45956743
Si      21.81588853       8.74028990      24.35068671
Si      21.72094568       7.12306447      28.53453183
Si      19.82660402       8.45576372      25.46967521
Si      24.57507787       3.76381520      27.74871331
Si      21.76400934       1.22744873      28.43899096
Si      22.58308133       3.38318842      28.83591374
Si      19.70892891       0.83284001      29.55474260
Si      22.84524473       3.67888287      31.19034257
Si      20.94909998       4.92678202      28.11399819
Si      20.84354547       3.26411073      32.32382890
Si      18.88584207       4.60473632      29.20926153
Si      23.68012820      39.90597603      31.47134533
Si      20.87386177      37.39001660      32.20279495
Si      21.66277489      39.58169342      32.59127235
Si      20.04265498       1.11419246      31.88307781
Si      17.94137502       3.77363107      22.26809268
Si      18.71800263       5.90725172      22.70222565
Si      15.90115939       3.44274273      23.40605829
Si      19.01068709       6.18626274      25.02656616
Si      16.98440796       5.90387718      26.14561982
Si      19.84816005       2.49930695      25.34726296
Si      17.84581453       2.14102569      26.47652669
Si      18.10602173       2.37740740      28.79911728
Si      16.22750800       3.67581498      25.70050642
Si      18.96203816      38.69508724      29.09177992
Si      25.71407859      13.70670365      26.40795111
Si      27.60909353      12.46196285      29.45414134
Si      24.87632136       9.90368594      30.13853757
Si      22.04658142       7.41359014      30.84114681
Si      19.25148886       4.86944251      31.53950415
Si      17.30732604      19.59329867      24.07445874
Si      20.25202518      15.31186952      21.19850144
Si      18.52105656      16.81745734      21.67009336
Si      20.66877091      13.88648706      23.00554950
Si      19.08748193      18.09726326      23.57678546
Si      16.56938733      15.53377342      22.11354775
Si      19.46206195      16.64356470      25.39531470
Si      16.91885380      14.13557345      24.00342987
Si      23.16314267      16.40473761      24.43248454
Si      21.20697798      15.18135332      24.89304713
Si      21.64824748      13.76817431      26.69358766
Si      18.70063941      12.66489511      23.47841264
Si      16.18615191      10.17170393      22.05628615
Si      19.08835245      11.23379685      25.27460355
Si      16.53713427       8.73707302      23.84496491
Si      23.33966458      12.32246196      26.17927423
Si      13.65358872      19.84091728      25.05873669
Si      12.48631384      22.54272298      27.47188053
Si      18.30960920      19.40625558      27.77030879
Si      14.19944912      21.08689297      26.98012109
Si      14.58124719      19.71097942      28.75554399
Si      13.24372725      14.41293590      24.98217943
Si      12.05246988      17.14601550      27.36520213
Si      15.39778031      18.31134485      24.55048814
Si      17.55227413      15.43098589      25.87276789
Si      15.75639331      16.91076409      26.41354999
Si      17.90958442      14.00211137      27.71947504
Si      16.33429054      18.19826938      28.25898251
Si      13.77718696      15.66688353      26.83246903
Si      16.73125274      16.72519094      30.08180763
Si      14.21240478      14.26399533      28.67676921
Si      20.03029559      17.94150390      27.26659446
Si      22.19231417      15.05326080      28.59522091
Si      22.58557668      13.59718922      30.37526757
Si      18.50269428      15.28406020      29.56161691
Si      18.90506472      13.87588410      31.41533403
Si      23.58108746      13.43891699      34.12324602
Si      12.88206519       8.99083891      24.85717209
Si      11.25927411      13.19613245      25.43091415
Si      11.67827145      11.72197107      27.25487715
Si       9.12904511       9.21124836      25.82406035
Si      14.97456702      12.94203338      24.43142264
Si      17.16823254      10.01471517      25.75927741
Si      15.40275825      11.50171825      26.29287140
Si      17.51062162       8.60456809      27.58816215
Si      15.95301605      12.83257941      28.14739199
Si      13.45196434      10.27912807      26.74508727
Si      16.34107284      11.33575040      29.98001263
Si      13.79704666       8.82054658      28.54755578
Si      19.64495294      12.53341175      27.15141213
Si      20.07543047      11.12195484      28.95777053
Si      20.69081884      12.39550344      30.90833431
Si      18.12677991       9.86670729      29.44769580
Si      21.01950269      10.94227350      32.73621898
Si      18.49687916       8.45549798      31.26670726
Si      24.33870587      12.15683510      29.92744779
Si      22.82437390       9.47368657      32.19800003
Si      10.86386428       7.76819133      25.31426462
Si      14.60342199       7.46159075      24.33127018
Si      14.98425342       6.06937494      26.17972649
Si      15.60709715       7.34491461      28.04027556
Si      15.96986699       5.93324162      29.87526553
Si      10.47469732      21.33461634      27.96172507
Si      10.87027777      19.93541770      29.76844170
Si       9.32447145      24.08704291      30.35325084
Si       9.72228463      22.65111745      32.16701862
Si      13.05203809      23.86826825      29.33264318
Si      15.17725575      20.95954566      30.66190200
Si      13.41072785      22.47211045      31.15765330
Si      15.55274179      19.56722507      32.48864461
Si      11.47316595      21.20415842      31.64526895
Si      11.87092847      19.75561720      33.49429836
Si      16.55340906      19.38924556      36.22582164
Si      10.13205571      15.90863409      27.82179667
Si       8.36059289      17.39444567      28.37806938
Si      10.50606448      14.51379003      29.65667019
Si       8.94770683      18.68600932      30.20618153
Si       9.36118810      17.24325359      32.05016110
Si       6.78098576      14.73083548      30.62839662
Si      12.63071642      18.45311129      29.24097224
Si      14.79462595      15.52886786      30.58677231
Si      13.04377412      17.02861353      31.04894527
Si      15.17664344      14.10473176      32.38868626
Si      13.61315232      18.26177348      32.97272519
Si      11.08877170      15.81040112      31.58026949
Si      14.02986905      16.86798793      34.80544271
Si      11.47326173      14.33921957      33.36202042
Si      17.33279876      18.04919716      31.98735342
Si      19.48994469      15.10566642      33.27994976
Si      17.74412347      16.59272781      33.78145456
Si      19.86587271      13.69041455      35.08631792
Si      18.28785730      17.90102706      35.68301767
Si      15.78647341      15.35783555      34.26414586
Si      18.66427050      16.47301570      37.49867579
Si      16.16699973      13.98476390      36.12657359
Si      20.41999348      14.97966834      37.00023289
Si      20.83070913      13.58324347      38.82361390
Si       9.73329043      10.50646249      27.75599870
Si       7.99568048      11.98253109      28.24705369
Si      10.09885101       9.06837329      29.55180737
Si       8.55796223      13.24059375      30.11728733
Si       8.93432952      11.83248706      31.92964409
Si      12.29182811      12.97700010      29.15140271
Si      14.43258409      10.16227483      30.44748569
Si      12.63876509      11.59959539      30.99111807
Si      14.79534161       8.69415517      32.27858652
Si      13.22715874      12.90872672      32.85031980
Si      10.73483872      10.37494420      31.43777242
Si      13.60174456      11.44784404      34.65078571
Si      11.10162639       8.96151681      33.28103171
Si      16.92241492      12.66634605      31.82252652
Si      19.08029522       9.71846142      33.19554107
Si      17.29870196      11.21830363      33.69265164
Si      19.50405375       8.31284488      35.00028973
Si      17.90181901      12.48342771      35.59735083
Si      15.36279689       9.95861332      34.15949065
Si      18.35962004      11.01708366      37.41560392
Si      15.78193486       8.58003302      36.00363663
Si      21.63015900      12.24271320      34.59820811
Si      22.00518079      10.82700156      36.42454661
Si      20.04017708       9.57449957      36.91641999
Si      11.88118105       7.62071229      29.04882575
Si      12.85598423       7.45021802      32.73453701
Si      16.56082487       7.21761832      31.76786659
Si      16.97082469       5.79537229      33.60810508
Si      17.51121340       7.10397308      35.46599506
Si      17.93116209       5.65650194      37.31733645
Si       8.17622680      20.01612603      34.46584784
Si      10.34475244      23.94792217      34.05973924
Si      12.43324149      21.04573040      35.39179866
Si      10.69957931      22.53060803      35.88355905
Si       7.38718285      16.02806616      32.50746204
Si       7.78659401      14.63890012      34.35061254
Si       9.91425553      18.49658370      33.90419716
Si      12.05842307      15.64505296      35.23462294
Si      10.29502441      17.10918294      35.80716968
Si      12.44995281      14.17881771      37.09004452
Si      10.89062356      18.40993059      37.67476816
Si       8.35949759      15.90601217      36.27931560
Si      14.61444977      18.10891984      36.64595453
Si      16.76272012      15.27723471      37.97485825
Si      14.99258436      16.73942603      38.52483289
Si      17.15877381      13.82664993      39.80879615
Si      13.01736581      15.48172965      38.98639490
Si       7.03958691      10.58131151      32.39567666
Si       9.55369663      13.12256706      33.81902175
Si      11.72217678      10.19644872      35.15314762
Si       9.94083511      11.72008909      35.65258368
Si      10.51288629      12.97775832      37.51977669
Si      14.21518639      12.72570283      36.58640131
Si      16.37955736       9.82020142      37.86222292
Si      14.60632546      11.27606128      38.37934993
Si      15.21860935      12.59295742       0.28553933
Si      18.88118195      12.34936516      39.28749647
Si      19.28673891      10.91684007       1.11296365
Si      13.81700830       7.35427476      36.44477975
Si      38.07766428      29.62571400      34.77460383
Si      36.64924277      31.53875527      31.69569772
Si      37.96010369      33.51142712      34.75702934
Si      38.15002765      33.49785110      37.14084492
Si      36.01876168      33.41705708      38.04125028
Si      34.18071862      29.51921736       1.35313721
Si      35.43530890      33.46568223      31.04751878
Si      36.57982695      35.43404084      31.75052095
Si      33.29168355      33.42146334      32.00376159
Si      36.75446416      35.38698352      34.08337714
Si      34.59876011      35.39926749      35.03027769
Si      36.83471422      31.51601171      34.06597388
Si      33.57991005      29.56414990      34.32029780
Si      34.72045281      31.45935841      35.02704517
Si      31.46196634      29.47959956      35.29133453
Si      34.90108945      31.50211738      37.35483743
Si      33.48332643      33.34738980      34.32329242
Si      32.77059957      31.40750358      38.37085511
Si      31.34302421      33.31848756      35.32596833
Si      34.98613735      27.64238240      37.35136795
Si      32.83842724      27.56672476      38.30807204
Si      33.07186033      27.57078537       0.63935359
Si      31.62599210      29.50254918      37.63666174
Si      30.89924662      27.53766275       1.62822660
Si      29.46459163      29.42302109      38.58953799
Si      29.02055560      23.57790657       4.94430711
Si      27.64870989      25.51938240       1.88057489
Si      32.08311715      35.28837213      31.33049815
Si      29.92056275      35.22663025      32.28531476
Si      32.18826216      31.43626326      31.25105814
Si      30.03453878      31.40490089      32.24901659
Si      30.20236156      31.38611432      34.57246444
Si      28.81916997      33.31637247      31.56068982
Si      28.06518793      31.31925833      35.55785765
Si      26.63854619      33.17937001      32.53916723
Si      26.25720714      27.43585559      38.86085868
Si      23.35994607      31.16433988      32.81177656
Si      38.03802794      37.33057635      37.13257972
Si      35.93045198      37.26281528      38.10288464
Si      34.02733875      33.36902221       1.38064819
Si      36.10103648      37.27630148       0.41568480
Si      33.96359140      37.18949806       1.37502620
Si      32.07950769      33.30357799       4.67588397
Si      33.37633624      37.20178065      34.36980548
Si      31.25011374      37.17292023      35.34687455
Si      32.54329372      39.09242839      38.37069426
Si      34.81439183      35.32565802      37.33432629
Si      31.53987599      33.31665510      37.65030919
Si      32.67182574      35.26110240      38.33727757
Si      29.36434981      33.27155317      38.64891461
Si      32.84248376      35.21894413       0.70781050
Si      31.41592024      37.16032735      37.63378690
Si      30.69713966      35.16730885       1.69588870
Si      29.25409444      37.10108261      38.64090703
Si      32.94115665      31.41582796       0.67684930
Si      29.69483647      29.43836888       0.95132496
Si      30.78606282      31.35501017       1.65144328
Si      27.51761643      29.33516187       1.90454831
Si      31.02546481      31.35770434       3.94282487
Si      29.55447232      33.26163224       0.92727187
Si      28.84495098      31.24614229       4.93866275
Si      27.40350896      33.19620709       1.90183387
Si      31.09514550      27.55024124       3.98574046
Si      27.81974759      25.50984532       4.23844953
Si      28.95169607      27.42726637       4.91443479
Si      25.70716260      25.45019547       5.17917354
Si      29.15178386      27.46341070       7.20292076
Si      27.74390897      29.33984971       4.19801660
Si      27.03972275      27.38806676       8.23280730
Si      25.58706092      29.26592391       5.21768417
Si      27.09924286      23.50599095       8.22250460
Si      25.89249770      25.39457265       7.53820252
Si      23.73380609      25.32767047       8.47897241
Si      30.12711541      35.22980718      34.66882178
Si      26.85649761      33.18509290      34.85881605
Si      27.96310825      35.15931055      35.55222971
Si      24.72240906      33.13060751      35.84430138
Si      28.15595167      35.12705480      37.91032071
Si      26.75466945      37.03446953      34.91698204
Si      26.02343256      35.09454378      38.86275078
Si      24.58186526      36.99647380      35.85817497
Si      28.29898734      31.29812126      37.89586170
Si      24.98935933      29.30970901      38.14945341
Si      26.09079022      31.21757014      38.89778742
Si      22.89964446      29.23600029      39.10723830
Si      26.30159001      31.24141817       1.22840992
Si      24.91577191      33.13809043      38.19512851
Si      24.18335969      31.18203827       2.14848050
Si      22.76331773      33.09372506      39.17637191
Si      26.44328191      27.40224016       1.22260347
Si      24.25663240      27.31521041       2.17415052
Si      24.47885434      27.33192525       4.50904784
Si      23.05829090      29.24534488       1.45943078
Si      22.31797226      27.24344693       5.48809947
Si      20.91096274      29.17476753       2.44511581
Si      22.62629071      23.41770031       7.78240553
Si      21.20277542      25.32472128       4.80079091
Si      25.46258100      35.09968933      31.84875536
Si      22.17223957      33.11768987      32.12583711
Si      23.26682768      35.06264664      32.79353064
Si      20.07476083      33.02858230      33.07056231
Si      23.45993238      35.06312038      35.21236662
Si      21.34360911      34.97553194      36.13952215
Si      23.57266592      31.20585386      35.18668544
Si      21.45328528      31.14781781      36.09321125
Si      21.60610449      31.10114223      38.46636142
Si      20.27118275      33.03574608      35.40971540
Si      19.48646200      31.07143573      39.42097061
Si      18.07867022      32.97285870      36.40076128
Si      19.77098350      27.22947778       1.72899240
Si      18.38134742      29.11171386      38.72752456
Si      17.62352596      27.14078613       2.68426891
Si      16.23238072      29.03016356      39.70262975
Si      34.16693929      37.20855003       3.74190126
Si      32.05439541      37.14393911       4.68554177
Si      31.89344081       0.93538970       4.71732133
Si      30.17384066      33.24914583       7.95679399
Si      30.08261744      37.04443296       8.00235472
Si      32.72936338      39.10550603       0.76087132
Si      29.50440999      37.12247436       0.97672717
Si      30.61389563      39.02679800       1.64482285
Si      27.33572310      37.02714950       1.87725138
Si      30.78910622      39.03227919       3.97696158
Si      28.63713167      38.95165830       5.00424741
Si      27.18243448       0.87521080       1.96041131
Si      30.90736380      35.19774888       3.97274064
Si      27.58371712      33.12494977       4.26844048
Si      28.69889740      35.13500552       4.98584878
Si      25.48089234      33.14919784       5.22074233
Si      28.99434121      35.11622788       7.27102638
Si      27.51035460      36.97220966       4.26755469
Si      26.83895690      35.01701024       8.27162282
Si      25.37133474      36.96776491       5.23093138
Si      29.04255598      31.28448941       7.26535937
Si      25.78724311      29.24521969       7.54574087
Si      26.88994024      31.23710500       8.26215242
Si      23.63332305      29.18901122       8.50863935
Si      27.09909172      31.17465111      10.57405342
Si      25.67482944      33.10775690       7.57805938
Si      24.94555695      31.13717660      11.54340739
Si      23.54144020      33.01959903       8.53228659
Si      27.20279631      27.34512924      10.55677363
Si      23.87764113      29.22350258      10.86828458
Si      28.09472434      38.98335488      37.98575811
Si      24.79726935      36.99039196      38.20845652
Si      25.89438830      38.92262239      38.93248012
Si      22.64836975      36.92482240      39.12159132
Si      26.10046959      38.91139533       1.23193492
Si      23.99119261      38.86599062       2.23386766
Si      22.53624375       0.81010304      39.19172979
Si      26.21332732      35.09098045       1.23409273
Si      22.96781945      33.08886726       1.49339585
Si      24.03725933      35.00451040       2.20563647
Si      20.82728708      32.99898299       2.46809760
Si      24.28448220      35.04664531       4.57142945
Si      22.85144976      36.94611355       1.52238629
Si      22.09507647      34.92950054       5.53304544
Si      20.70342894      36.83425328       2.48267589
Si      24.36705604      31.13785450       4.54099380
Si      21.10150449      29.14028739       4.76180576
Si      22.22567442      31.09967891       5.48257636
Si      18.99813735      29.10859695       5.69443343
Si      22.41317309      31.07775355       7.80918854
Si      20.99144422      32.99901824       4.79391420
Si      20.29240947      31.03295434       8.82641457
Si      18.86940290      32.89718269       5.77109655
Si      22.51051594      27.24243017       7.79671557
Si      20.37803431      27.17974180       8.72790862
Si      19.12668902      29.08044329       8.09439070
Si      23.40680848      38.89140064      35.18384189
Si      20.13262886      36.84923305      35.44283754
Si      21.26666453      38.79307797      36.18991557
Si      21.43789366      38.80057086      38.47080947
Si      19.29694625      38.73739354      39.46205902
Si      21.54649859      34.97315346      38.49817504
Si      18.25895013      32.96569197      38.71583165
Si      19.37299584      34.90698850      39.44759414
Si      16.16227937      32.83686599      39.66898451
Si      19.61323207      34.89525800       1.80114103
Si      18.16297448      36.81184152      38.78561236
Si      17.39675760      34.80485530       2.73340184
Si      19.70635972      31.06534618       1.78111551
Si      16.42506772      29.04208282       2.02326821
Si      17.54458958      30.98092424       2.71243389
Si      14.28902512      28.96827294       3.00971021
Si      17.75357690      30.96361844       5.04815891
Si      16.36982771      32.85609373       2.05120084
Si      15.60541129      30.92801696       6.05679666
Si      14.13673759      32.80108924       2.98664407
Si      17.86206772      27.14649263       5.02335773
Si      32.07543888       0.97049833       7.06683752
Si      29.96217169       0.92985053       8.01352079
Si      28.09527055      36.99739797      11.30895432
Si      27.40843818       0.83285977       4.28739122
Si      25.27686263       0.76808146       5.22133797
Si      28.78877358       2.78376836       7.34950230
Si      26.60927075       2.71646418       8.29854940
Si      28.84937246      38.94061927       7.35096313
Si      25.59264212      36.93185348       7.57865541
Si      26.65509896      38.86439219       8.31069624
Si      23.40955993      36.89307384       8.56687750
Si      26.87039279      38.90132171      10.63290224
Si      25.49517695       0.76823342       7.60545550
Si      24.73074744      38.81613580      11.58319046
Si      23.33314626       0.73268756       8.59203380
Si      26.99650213      35.03770785      10.59281579
Si      24.85304818      34.97203525      11.55679595
Si      23.61024027      36.87609758      10.91583846
Si      22.75519633       0.74761454       1.52813304
Si      20.61503633       0.66977313       2.52274202
Si      24.05861256       2.67818037       4.58834695
Si      24.12113162      38.89153351       4.57271000
Si      20.91118835      36.80947902       4.83936704
Si      22.01627350      38.78260735       5.57382608
Si      18.79881507      36.78165810       5.78937529
Si      22.18995049      38.79812738       7.87556941
Si      20.78190681       0.69390896       4.83028063
Si      22.31677066      34.93761811       7.86132274
Si      19.08105492      32.92452015       8.13375951
Si      20.14841057      34.85689850       8.76570380
Si      18.08427457       0.61845070      38.80147105
Si      19.49527973      38.77767735       1.80190752
Si      16.24066991      36.73442854       2.06257579
Si      17.36716886      38.67431845       2.75489744
Si      17.63785445      34.78709993       5.09914139
Si      15.53028467      34.75439673       6.05756582
Si      15.23850818      34.80504585       8.33436490
Si      12.17627684      36.24218882      10.14027197
Si      13.62784747      36.52493221       8.38409649
Si      14.68749869      38.58232486       8.54485857
Si      16.15208341      38.89155514       6.71304521
Si      18.95478342      37.19021513       8.73750505
Si      17.28773718       0.99050315       6.91225584
Si      20.07615126      39.31275358       8.90305099
Si      18.74255965       1.24470176       5.12285830
Si      19.80509726       3.35567690       5.30885925
Si       9.07897809      37.72525936      12.00005873
Si       7.52643095      39.41040908      12.04258754
Si       8.61966048       1.47931643      12.27192097
Si      14.50434529      38.38560126      12.36523405
Si      10.34396055      37.74158040      14.04780461
Si      11.43954501      39.76147187      14.19085363
Si      10.54648818      37.98633427      10.15675921
Si      13.11652952       0.36801247       8.58117209
Si      11.70521080       0.05297701      10.39787474
Si      14.23558540       2.42223646       8.77857972
Si      10.10337626       1.78140864      10.41640106
Si      12.93853138       0.10121237      12.42937015
Si      11.18957573       3.87633864      10.62371420
Si      13.97690598       2.18183854      12.61775561
Si      13.70046089       6.20770464       9.01872466
Si      19.89994347      39.04442409      12.72487674
Si      15.71544520      38.38574516      14.36055567
Si      16.82215408       0.47607528      14.56774661
Si      15.94890678      38.64115339      10.53445623
Si      18.50126718       1.01781254       8.90512768
Si      17.03652506       0.71735100      10.76657927
Si      19.57942981       3.10609476       9.12682246
Si      15.48396247       2.48007161      10.78264730
Si      18.28537645       0.74989838      12.79796274
Si      16.57713652       4.50372579      10.99050400
Si      19.36922442       2.87499672      12.92416699
Si      15.68006285       2.69513282       6.95884976
Si      18.21190362       5.10218071       5.31577530
Si      16.78801633       4.81398122       7.17048058
Si      19.35384370       7.14504530       5.51983490
Si      15.20617437       6.54914858       7.19200498
Si      18.00600702       4.81470189       9.19221511
Si      16.25067613       8.55536291       7.39572387
Si      19.10773135       6.88945297       9.36359831
Si      17.71310368       8.90739136       5.53168169
Si      18.83315148      10.93447518       5.72687452
Si      21.36482113      39.36072772      10.88887040
Si      22.43260717       1.43297062      11.10104158
Si      24.94653564       3.76549523       9.46551499
Si      20.81084669       3.14146157      11.13148282
Si      21.90344151       5.19485431      11.30857870
Si      21.05418658       3.36717035       7.32713253
Si      22.16751398       5.47006728       7.49498170
Si      20.58465806       7.22107611       7.55256767
Si      23.41494724       5.49027282       9.51013496
Si      21.69351328       9.24768446       7.71572901
Si      24.46727867       7.59232007       9.75710183
Si      20.77630881       7.44881836       3.72684102
Si      23.13369897       9.55520545       5.92185387
Si      12.68487298      39.83476940      16.19910642
Si      13.77792069       1.89265026      16.43184589
Si       9.86676161       1.56040657      14.21324252
Si      12.42351825       3.93246137      12.65096618
Si      10.94883435       3.59662400      14.44192730
Si      13.51890625       5.96444064      12.83404065
Si      12.18796395       3.62279136      16.46420830
Si      13.26479615       5.70789672      16.63944224
Si       9.62541302       5.58171638      10.63064393
Si      12.15999623       7.94605705       8.99962134
Si      13.23725247      10.04469175       9.18793515
Si      11.91680776       7.68986508      12.82498275
Si      18.06490860       0.54162747      16.59845834
Si      19.15644322       2.57389213      16.80495481
Si      15.02857561       1.98094584      18.42513457
Si      16.12675189       4.02078038      18.68353510
Si      15.22329278       2.21721639      14.57508673
Si      17.80810786       4.58447987      12.95660564
Si      16.34315361       4.26782714      14.78839502
Si      18.90909654       6.63587053      13.20187865
Si      14.75062500       6.02437780      14.80737914
Si      17.57691768       4.35056628      16.80621404
Si      15.81916605       8.08818848      15.01096259
Si      18.66462176       6.38513179      16.99169451
Si      14.96661214       6.25404038      11.01021590
Si      17.50567476       8.63290311       9.36607309
Si      16.07575414       8.34278240      11.21546460
Si      18.65090243      10.68436215       9.53902530
Si      14.51015707      10.07751746      11.19293047
Si      17.29801145       8.35937259      13.22400201
Si      15.57059398      12.15535271      11.42774761
Si      18.38343792      10.44632530      13.42804495
Si      14.71051620      10.29402866       7.43215857
Si      17.25700233      12.64981030       5.79100943
Si      15.77954101      12.35275082       7.58404264
Si      17.01048884      12.46514593       9.59885652
Si      20.61319234       2.87159047      14.94680658
Si      20.16098483       6.68329192      15.20179627
Si      21.19286479       8.74850032      15.35076179
Si      20.32164085       6.93599705      11.40775243
Si      22.91847163       9.29770675       9.76266749
Si      21.45806987       9.02339212      11.56042794
Si      24.04051440      11.33399595       9.91695063
Si      19.84991455      10.74165452      11.55014370
Si      22.63450810       9.06795985      13.57299944
Si      20.93228932      12.80150902      11.73241181
Si      20.05510216      10.97877292       7.74679905
Si      22.61538329      13.36000401       6.13793275
Si      21.16644832      13.06122636       7.91318046
Si      23.70912095      15.44101529       6.30252584
Si      22.39659697      13.09236621       9.94312835
Si      23.50235060      15.14631186      10.16482149
Si      25.47308388      11.65860207       8.10750566
Si      14.52347161       5.77047672      18.64262218
Si      17.11900081       8.14453004      17.01157184
Si      15.59590438       7.85631842      18.83831191
Si      18.14525625      10.21693342      17.19547246
Si      16.84625373       7.85036746      20.84812989
Si      17.96081116       9.93838980      21.03186101
Si      14.25753984       9.82799854      15.06714546
Si      16.81056892      12.13967948      13.43194152
Si      15.36093997      11.88325311      15.22636403
Si      17.89666210      14.26748435      13.62655283
Si      16.57770813      11.90198630      17.26434059
Si      19.61034465      10.50903719      15.39008904
Si      22.17475282      12.86697361      13.77153148
Si      20.72050381      12.57440896      15.59058165
Si      23.23983567      14.93647312      13.97752016
Si      19.11914655      14.26766089      15.59287883
Si      19.35827944      14.54699893      11.82349836
Si      21.71256737      16.70256243      13.97934914
Si      27.34389042      19.60057299      15.70320072
Si      27.16623891      18.15761427      19.28169361
Si      28.11369092      16.08989548      14.31814117
Si      25.91351410      18.61953567      17.32305995
Si      25.03775052      16.60916525      16.51042833
Si      21.86657621      17.14674207      18.61552321
Si      25.21359471      18.05297201      12.96961725
Si      26.94997879      16.56353203      12.44027615
Si      23.74935478      17.07187084      14.52600925
Si      26.01735102      14.55294271      11.54063688
Si      27.00833582      16.72538272      22.85450519
Si      29.95763117      14.74370962      24.26291493
Si      28.92772330      16.68345428      18.78517945
Si      30.15014262      16.20224479      20.74463208
Si      28.00946095      14.63873309      17.92304249
Si      28.75704010      15.20374114      22.34534372
Si      30.98550047      12.67537485      19.33187146
Si      27.81464840      13.23747734      21.52887487
Si      29.89900936      14.61434722      13.79731026
Si      31.12750969      14.13494539      15.78994690
Si      28.99659853      12.59408355      12.98580905
Si      32.89391356      12.68295230      15.27408728
Si      29.74790336      13.17141725      17.36319646
Si      31.96505809      10.67992931      14.37851964
Si      28.85374447      11.16528140      16.54678880
Si      30.77221625      11.09123366      12.45871444
Si      29.83508232       9.12264804      11.64533236
Si      24.69841493      13.74788782      23.61132330
Si      23.60539562      15.65272376      18.09821312
Si      24.82058337      15.18456321      20.05920547
Si      22.71346362      13.66339657      17.29235742
Si      26.59500975      13.69770339      19.52485458
Si      23.44325698      14.21357025      21.60631478
Si      25.67583271      11.70817878      18.66665551
Si      22.52135620      12.21383407      20.85591876
Si      26.74954030      15.11809338      15.96103537
Si      24.59683395      13.58656559      13.21411112
Si      25.85315486      13.09519781      15.13670922
Si      27.59204539      11.63242118      14.64860400
Si      24.41580554      12.15324428      16.74250100
Si      26.65501335       9.61602761      13.74553531
Si      23.54077823      10.13969108      15.91086675
Si      27.74086260      13.05137707      11.00226565
Si      26.84580726      11.05134230      10.17783345
Si      28.60823403       9.54641334       9.66966913
Si      25.40429405      10.07229894      11.81317083
Si      27.61601408       7.52733643       8.83714115
Si      21.28129332      12.70558683      18.85783835
Si      20.39597510      10.71926690      18.04067596
Si      32.98596273      12.80290810      25.67196148
Si      33.94240910      10.76792697      20.78917658
Si      33.80618950       9.32497331      24.34238054
Si      34.96462177       8.68092735      15.86969950
Si      35.71646714       9.25830519      20.24333565
Si      34.78950182       7.23800029      19.39643985
Si      36.67833687       7.24183188      15.32700907
Si      35.75112104       5.20369681      14.45541448
Si      28.54242300      13.76305101      25.89890115
Si      27.60799405      11.79028065      24.98388397
Si      31.55043495      11.88304444      27.31691888
Si      30.64870182       9.83851220      26.45845012
Si      31.70525509      13.23530493      23.76897883
Si      29.55271162      11.73867504      20.93775515
Si      30.82367285      11.28163765      22.88729374
Si      28.62097809       9.73309104      20.11027406
Si      32.53417276       9.75914740      22.39028691
Si      29.37103463      10.28917277      24.54513483
Si      31.65470693       7.77702285      21.49244366
Si      28.51774460       8.30798988      23.64847264
Si      32.70604001      11.20141121      18.81282823
Si      30.55883231       9.68251228      16.01067997
Si      31.78194088       9.20605677      17.97553392
Si      29.65313500       7.71097919      15.15614227
Si      33.57667655       7.71425564      17.46656697
Si      30.40553464       8.26969598      19.58327208
Si      32.61831911       5.73596406      16.61086363
Si      29.52740832       6.24731622      18.74068527
Si      33.69847461       9.14127670      13.92674326
Si      31.55226088       7.59596395      11.09144629
Si      32.81466800       7.12116490      13.02085965
Si      30.66543772       5.62956406      10.25194044
Si      34.54271260       5.66543613      12.52808395
Si      31.39350404       6.16493376      14.66752375
Si      33.63335516       3.63576208      11.70446613
Si      30.52315015       4.14934141      13.81309870
Si      32.40661353       4.11112959       9.74041419
Si      26.43733869      12.22360922      23.08730230
Si      24.27748933      10.73117096      20.26295199
Si      25.50670968      10.26464095      22.26216149
Si      23.32655370       8.71208485      19.50801116
Si      27.28993484       8.75484380      21.75206853
Si      24.09690087       9.32107887      23.84540269
Si      26.33524652       6.78627802      20.86710594
Si      23.17066745       7.28281054      23.00672621
Si      27.40602915      10.20363139      18.17320512
Si      25.25855358       8.67827601      15.35172254
Si      26.53241597       8.22650856      17.32518361
Si      24.36382476       6.63319132      14.53260828
Si      28.25015306       6.71842941      16.84430110
Si      25.07504016       7.21711498      18.93201650
Si      27.31988822       4.71927059      15.94405530
Si      24.20469802       5.21267889      18.07774265
Si      28.44441170       8.16322663      13.24980983
Si      26.26750907       6.59866365      10.46176672
Si      27.50307679       6.13484364      12.40429069
Si      29.24448886       4.66876612      11.86742101
Si      26.08059862       5.17979858      14.00107404
Si      28.35031790       2.63921716      11.04057272
Si      25.18859056       3.16446906      13.18370518
Si      21.08723775      11.25480025      22.43327291
Si      20.23295176       9.25339011      21.61966450
Si      21.95986800       7.73713224      21.07621904
Si      21.02824022       5.78576826      20.22334482
Si      22.09541129       9.21339384      17.51601993
Si      21.21999863       7.16925982      16.70666846
Si      22.95346090       5.73033220      16.13246971
Si      19.78799757       6.20004185      18.31604742
Si      22.05581680       3.71369139      15.27688082
Si       0.78959792       3.33228521      22.21459211
Si      34.52813846       9.85659899      28.74092602
Si      33.62294793       7.92088614      27.85856015
Si      35.53755165       7.82019353      23.81565906
Si      36.78109128       7.34730913      25.76280234
Si      34.64170842       5.79985007      22.98403384
Si      38.50427548       5.82017833      25.21679491
Si      35.32299125       6.38297517      27.33889180
Si      37.61069192       3.85395983      24.37312298
Si      34.45809258       4.42826783      26.51407131
Si      36.53874125       5.75820492      18.85787135
Si      37.75512657       5.23854774      20.85464381
Si      35.59252356       3.77478283      18.05979240
Si      39.50334693       3.81100343      20.31726140
Si      36.38253149       4.28929666      22.42503963
Si      38.57574195       1.79086516      19.46079237
Si      35.43850936       2.33464105      21.58531815
Si      38.74666951       3.24605727      15.87792418
Si      37.37889227       2.25673893      17.48951366
Si      36.45049417       0.23003584      16.68092909
Si      32.42159690       8.33800284      25.94238863
Si      30.21362857       6.85033858      23.15307960
Si      31.48300802       6.33044404      25.10468360
Si      29.30796369       4.79406762      22.28734682
Si      33.22905591       4.86441375      24.55242391
Si      32.28998576       2.86714181      23.74365513
Si      33.35015666       6.28961572      20.98600123
Si      31.28036763       4.73925715      18.22966938
Si      32.49950422       4.25658633      20.15882760
Si      30.30866387       2.75534584      17.35043099
Si      34.20999134       2.79858914      19.63080256
Si      31.08067218       3.30770791      21.77363611
Si      33.30334881       0.77515385      18.75686139
Si      30.17267456       1.31379267      20.93633649
Si      34.36831600       4.20362741      16.10412912
Si      32.24239318       2.66382157      13.30953033
Si      33.47905367       2.20212379      15.26288959
Si      31.30095224       0.71310250      12.45224956
Si      32.05130362       1.24520706      16.85789350
Si      31.14215782      39.22897640      16.05667887
Si      24.93507840       5.79889298      22.46831032
Si      23.99575765       3.79186181      21.67378994
Si      27.89937192       3.85838521      23.92008597
Si      27.04298488       1.86050804      23.06508213
Si      28.08117047       5.23734075      20.37999674
Si      25.92594587       3.70989401      17.56880707
Si      27.13736327       3.26775804      19.51928222
Si      25.02676192       1.72861555      16.73522855
Si      28.92167587       1.77917162      19.02631117
Si      25.77518577       2.31719103      21.15054436
Si      28.05800170      39.81153162      18.14790339
Si      24.82216893       0.33761684      20.28306175
Si      29.09964139       3.17040174      15.43605210
Si      26.91277762       1.65897202      12.68524411
Si      28.15728405       1.22961149      14.59637033
Si      26.01723297      39.67698014      11.79071748
Si      29.88304867      39.69969732      14.08918986
Si      26.78682879       0.24293602      16.19966245
Si      28.99335714      37.71992350      13.22521242
Si      25.85664894      38.26992284      15.40302653
Si      30.05324689       1.16060918      10.54512640
Si      22.77695230       4.23157144      19.69791311
Si      21.85151211       2.27010850      18.84320477
Si      23.59616413       0.77142813      18.32948293
Si      20.45299866       1.33109815      20.46615938
Si      22.69299541      38.74925395      17.46881200
Si      23.76712821       2.19947796      14.77844204
Si      22.86582309       0.20664377      13.93853956
Si      24.60678847      38.73489925      13.41373651
Si      38.32963128       4.45019296      28.77625711
Si      36.17770859       2.87872416      26.02310503
Si      37.40525397       2.45591999      27.95688544
Si      35.23443951       0.91495841      25.15852698
Si      39.31745011       2.35200714      23.85204824
Si      37.18784798       0.83240775      21.09038113
Si      38.43005068       0.33238117      23.01573917
Si      36.26664630      38.82713864      20.22280935
Si      37.03360773      39.38962782      24.61854873
Si      36.12342985      37.38583452      23.74198429
Si      30.88395620       1.89091294      25.34968447
Si      30.01143518      39.91876675      24.51451112
Si      34.02801055       1.33195211      23.19864838
Si      31.86696924      39.79126167      20.42310274
Si      33.13167127      39.33758877      22.33707659
Si      30.96467356      37.84804214      19.55394531
Si      34.85713054      37.86653980      21.81956993
Si      31.71733416      38.38121936      23.95700838
Si      33.96100053      35.86683693      20.99982454
Si      30.79474641      36.37564746      23.14027782
Si      35.04196511      39.29679476      18.29009405
Si      32.70932988      36.31467042      19.05891942
Si      28.74548966       0.35680056      22.60361391
Si      26.57871158      38.81341412      19.75501909
Si      27.85605058      38.35078653      21.72446246
Si      25.68665015      36.81625610      18.94987199
Si      29.58966603      36.84411646      21.20107969
Si      28.69256971      34.83228644      20.36782481
Si      29.74872351      38.27132690      17.60941750
Si      27.58031777      36.75712620      14.82789515
Si      28.84405311      36.30035192      16.77946359
Si      27.42796101      35.31165893      18.39711225
Si      24.46887300      37.32102763      16.97200099
Si      37.86941708      35.91133997      23.28444249
Si      34.73516315      36.43466275      25.42134278
Si      32.55659895      34.89160415      22.60373235
Si      31.64524109      32.89151129      21.78929810
Si      30.39181417      33.37797330      19.80932947
Si       0.90463988      38.49169181      20.02456540
Si      38.66688476      38.56585808      16.89917730
Si       4.02720411      38.54186425      17.80828930
Si      36.89022812       1.46391567      11.20078924
Si      34.85945425      39.99167208      14.92418542
Si      32.59098027       0.08154942      11.82498837
Si      36.41479787      38.63090060      13.75504037
Si      34.22567831      38.76042619      10.67523846
Si      39.13926303       1.37649172      14.30314657
Si       2.22078285       1.42888030      12.05473078
Si       0.24400557      39.95004007      15.81348576
Si      38.01600120       0.06860659      12.69570528
Si       1.76935893      38.63842579      14.65481131
Si      39.57779668      38.70736416      11.52431337
Si       3.34343134       0.00779268      13.56153942
Si       4.87205360      38.64760188      12.42323464
Si      36.21219249       2.94347677       7.01735115
Si      34.65623873       1.55622587       8.02151474
Si      37.77991615       1.58109635       5.83532011
Si      35.77199721       0.15246388       9.57121193
Si      33.51995015       0.24012301       6.47696599
Si      37.32259957      38.85375775       8.41564333
Si      35.08596459      38.92372407       5.32157415
Si      38.43067001       2.85976904      10.11639884
Si      39.99405463       1.50380308       8.95632126
Si       1.12150266       0.12203999      10.46214602
Si      38.90536111       0.20022537       7.35185245
Si       2.67266405      38.77278912       9.29866930
Si       0.45189141      38.86476255       6.17859601
Si      36.63602455       0.28489097       4.22225205
Si      38.20001625      38.95547368       3.04682221
Si      39.79219698       0.35294681       1.95449813
Si       0.44705332      35.70066000      22.65203082
Si      36.20269334      34.31138193      23.24895067
Si      37.79707915      32.96636850      22.09302048
Si      30.60894905      35.88707405      15.44738537
Si      27.90785431      33.20308467      14.95226553
Si      34.39062048      37.21203753      17.53572862
Si      36.00862571      35.86906192      16.35311907
Si      33.98008143      34.40130440      20.11837773
Si      31.75106019      34.52663322      17.00246979
Si      35.51092204      33.08553840      18.98569418
Si      33.32990823      33.15993472      15.85236141
Si      39.75406126      37.19507260      18.38640751
Si      38.19714354      35.76893422      19.51692077
Si       1.31755957      35.81715265      17.26569656
Si      39.32735528      34.32872967      21.03522503
Si      37.13354016      34.49870552      17.90254509
Si       0.92512936      33.03302591      19.84645984
Si      38.69645204      33.15370544      16.75377506
Si       5.17312250      37.12636018      19.30679291
Si       3.60189388      35.75581944      20.39452441
Si       2.46705348      34.40851355      18.79109291
Si       4.01318236      33.11639015      17.63040418
Si      29.94728957      37.39282157      11.29761167
Si      31.51465991      36.07874382      10.08492862
Si      29.52315651      34.61486213      13.87902749
Si      31.03742702      33.28984974      12.70982620
Si      32.22412668      37.35006458      14.41134476
Si      35.32691185      37.35949391      12.15568012
Si      33.75651118      35.94291142      13.21708390
Si      36.89868615      36.04734476      10.99308611
Si      34.85599779      34.55408945      14.74087811
Si      32.64161371      34.60770270      11.62366284
Si      36.43647648      33.22183597      13.63423014
Si      34.17331411      33.31955615      10.52124405
Si      37.54063730      37.25776890      15.24474417
Si       0.69357191      37.33569012      13.07927360
Si      39.11286910      35.98613458      14.15272710
Si       2.22241222      35.99787886      11.91995002
Si       0.18667052      34.52353939      15.59498079
Si      37.99542342      34.59944330      12.56211463
Si       1.77861368      33.23709237      14.52415108
Si      39.53829106      33.31926559      11.35518415
Si       2.88600924      37.21629477      16.19786787
Si       6.00175448      37.29110760      13.94850707
Si       4.48504406      35.92287427      15.03767431
Si       7.59241658      35.94751069      12.76981515
Si       5.57364720      34.50101397      16.53908587
Si       3.36223308      34.57156154      13.40599042
Si       7.13392233      33.15920578      15.39932567
Si       4.91211314      33.27607658      12.29951752
Si      31.99747278      33.40259670       7.39483735
Si      33.11930422      37.46351751       9.06107489
Si      36.17233174      37.50089239       6.77051798
Si      34.66735929      36.12954972       7.91004543
Si      37.77954729      36.20011462       5.68091262
Si      35.73563154      34.68899985       9.44359036
Si      33.52269678      34.81290997       6.29863246
Si      37.33051474      33.38878892       8.25200715
Si      35.06544488      33.50662633       5.13615750
Si      38.43030364      37.44539430       9.95710907
Si       1.56387925      37.44172275       7.67875121
Si       0.00919737      36.09842401       8.75928249
Si       3.09794590      36.15175824       6.51247394
Si       1.10528362      34.68928187      10.32839098
Si      38.88476329      34.77623363       7.18996496
Si       2.69981280      33.38292459       9.13733995
Si       0.42519133      33.47768135       6.04014835
Si       3.82700114      37.35149907      10.83982181
Si       5.35630314      36.02895121       9.68482014
Si       6.43822384      34.64952366      11.16845932
Si       4.23044323      34.74435242       8.04278850
Si       8.02774421      33.31586272      10.02446938
Si       5.80020579      33.41736326       6.88893962
Si       9.57180649      34.74980044       8.99241427
Si      35.55037122      36.28931667       2.52216840
Si      38.65668508      36.31689166       0.31372563
Si      36.63991588      34.85360729       4.08326205
Si      38.21782697      33.56732706       2.92169049
Si      39.32776185      37.57471660       4.56153811
Si       2.45998409      37.62715124       2.38137494
Si       0.89207755      36.24670164       3.41642854
Si       4.05138095      36.30997039       1.19716758
Si       2.02228904      34.82998506       4.96115196
Si      39.76969763      34.90946467       1.82658603
Si       3.54652203      33.50611790       3.84289062
Si       1.32203577      33.59361786       0.68419464
Si       4.69893163      37.54225493       5.47877873
Si       7.36285349      34.77395319       5.83016893
Si       5.12880175      34.92800914       2.68331388
Si       8.92138946      33.46361049       4.69169065
Si      37.51924707      35.06040449      38.73556166
Si       0.23994991      37.70701332      39.22793162
Si       2.89086534      35.03598032      39.58208180
Si      33.53388653      31.59923044      22.70904020
Si      35.09965732      30.30909171      21.59152345
Si      32.39187227      27.57491002      21.05502765
Si      35.76805734      31.50803774      25.88716992
Si      38.88859530      31.57074682      23.58898279
Si       0.45041584      30.25120735      22.47992088
Si      29.05402662      31.78269792      16.46461723
Si      30.61419270      30.49634888      15.31349020
Si      30.20000057      27.73425665      17.91482962
Si      27.93694388      27.78682526      14.82375210
Si      31.28332968      31.69533093      19.61051917
Si      34.39233988      31.79711702      17.40957578
Si      32.86991852      30.33848351      18.41871579
Si      35.99967578      30.44278840      16.24592396
Si      33.96569188      28.97292890      19.98072946
Si      31.74874115      29.04401249      16.83712161
Si      35.53795193      27.63430006      18.78863998
Si      33.29699980      27.71843917      15.71206423
Si      36.63611564      31.64718451      20.48223510
Si      39.78081552      31.75346658      18.25948608
Si      38.18835145      30.29422992      19.34245784
Si       1.32198165      30.39865146      17.12139654
Si      37.08846295      29.02541685      17.73875152
Si      38.66222588      27.72263551      16.57465902
Si       2.03604607      31.63827424      21.38073511
Si       5.13566640      31.70298873      19.10006031
Si       3.59983132      30.29484239      20.22202657
Si       2.44438530      29.02680962      18.63236123
Si       4.01004236      27.68833998      17.47065309
Si      29.94756538      31.95611914      11.10554684
Si      28.37488935      30.56828458      12.19871655
Si      31.50918696      30.63029011       9.97720670
Si      29.47862239      29.18242174      13.74709805
Si      31.03834256      27.86184097      12.58017157
Si      28.81085325      27.89978281       9.48324391
Si      32.18499449      31.87570058      14.23457596
Si      35.33125878      31.95704970      12.01571912
Si      33.73100850      30.53935443      13.07680295
Si      36.83083440      30.60202416      10.84159120
Si      34.81614725      29.13433862      14.59762421
Si      32.59942666      29.25985359      11.45153051
Si      36.39471238      27.79639746      13.44600783
Si      34.13740343      27.89450513      10.34058357
Si      37.55907399      31.82260962      15.13437606
Si       0.70047073      31.89944341      12.92738612
Si      39.11384819      30.49964387      13.98341435
Si       2.19988500      30.54923724      11.70336113
Si       0.23629474      29.10070057      15.51629883
Si      37.99326983      29.17498149      12.40243963
Si       1.77270815      27.78663660      14.33986373
Si      39.54360661      27.86204707      11.23565436
Si       2.90812421      31.82173495      16.02385512
Si       6.03754994      31.88482602      13.79479972
Si       4.41996787      30.46578701      14.87605483
Si       7.58555932      30.54419870      12.63846770
Si       5.57733940      29.05080335      16.37036576
Si       3.32171095      29.13470065      13.30010216
Si       4.88947268      27.79790992      12.16871766
Si      32.42187653      30.76497469       4.59210195
Si      30.39844381      29.33322557       8.37898270
Si      31.94848586      28.02493797       7.25321614
Si      33.06802206      32.07278335       8.87890815
Si      36.17056621      32.07843633       6.67128080
Si      34.65537306      30.69339287       7.74701752
Si      37.80854193      30.75739398       5.50783678
Si      35.73661600      29.28602048       9.29363285
Si      33.52176720      29.38166429       6.10258589
Si      37.27088601      27.95841766       8.05912889
Si      35.10555768      28.08003951       5.01103225
Si      38.45350957      32.01071845       9.77399304
Si       1.52153853      32.05158306       7.51497391
Si       0.00767563      30.66649275       8.62315810
Si       3.13010651      30.70188849       6.38171257
Si       1.09596628      29.21614267      10.18038321
Si      38.88688958      29.31047471       6.99943550
Si       2.67158576      27.93013064       8.99515045
Si       0.45733557      28.02100561       5.86640426
Si       3.78217761      31.94550576      10.66525322
Si       6.93981193      31.98999366       8.43162698
Si       5.37031533      30.63853222       9.55673204
Si       8.46838738      30.66159695       7.27583963
Si       6.47408138      29.22293388      11.02281878
Si       4.19886145      29.34209693       7.95717285
Si       7.99177483      27.90018350       9.87669939
Si       5.78170247      27.97644368       6.73258166
Si       9.58639167      29.28376841       8.79996114
Si      33.97781425      32.20589458       3.54350441
Si      37.10042739      32.25962636       1.29086200
Si      35.51152100      30.85266758       2.38042015
Si      38.63793281      30.89718907       0.13019036
Si      36.60430158      29.45218943       3.91107770
Si      38.22503491      28.14515039       2.74565039
Si      35.98143253      28.23683404      39.63383873
Si      39.32628066      32.15933885       4.43028928
Si       2.40271841      32.22105610       2.15481618
Si       0.88011558      30.79547596       3.25239052
Si       4.00503755      30.85022564       1.05266739
Si       1.97923207      29.40043126       4.76903668
Si      39.77816618      29.53513709       1.68516929
Si       3.57243692      28.07633343       3.63180747
Si       1.26969880      28.17960011       0.51331695
Si       4.66159382      32.14180149       5.30772285
Si       7.78275383      32.17066397       3.08549785
Si       6.23462251      30.77158109       4.12693310
Si       9.39864884      30.78505764       1.92228014
Si       7.31589952      29.37972187       5.70093564
Si       5.10308655      29.46193673       2.55957645
Si       6.66959496      28.15410271       1.40578110
Si      10.02979065      32.04657127       6.22765203
Si      11.60030423      30.75229468       5.04801479
Si      37.52036701      29.59789989      38.57859718
Si      39.08003908      28.27565396      37.39663262
Si       0.19762769      32.33499756      39.02957737
Si       1.77899756      30.97421138      37.90570254
Si       2.86106683      29.58382525      39.44112317
Si       0.64387188      29.66195900      36.34128594
Si       4.43331422      28.22796343      38.29302508
Si       5.55531184      32.24042572      39.96713432
Si      29.02943049      26.37592419      16.32753526
Si      30.60426006      25.05283186      15.15868992
Si      27.91616167      22.38600467      14.70056639
Si      34.37887205      26.35807510      17.20985934
Si      35.97109074      24.98909555      16.06631301
Si      29.93058995      26.55171275      10.97896318
Si      28.40160272      25.16479673      12.06296344
Si      31.47960614      25.20779916       9.78621355
Si      29.50836412      23.74695592      13.55976516
Si      27.22613112      23.81637734      10.41307069
Si      31.04938612      22.41102822      12.40075867
Si      28.78115646      22.51423240       9.29286711
Si      32.20250442      26.41595639      14.09118404
Si      35.31063159      26.48110193      11.86509432
Si      33.71063729      25.15076234      12.93942956
Si      36.85534809      25.18653014      10.69153749
Si      34.79873344      23.70472602      14.45462880
Si      32.62926441      23.80677064      11.31298241
Si      34.14225529      22.46699524      10.15790756
Si      37.50996184      26.39605812      14.99878456
Si       0.67812354      26.46582860      12.75033070
Si      39.12726303      25.06585388      13.84187756
Si       2.21140193      25.14272444      11.57703121
Si      37.95074793      23.76493352      12.18952153
Si      39.53850322      22.44323730      11.06760806
Si       2.85420009      26.39311262      15.87462459
Si      30.81959230      26.68894479       5.63130636
Si      32.38341508      25.41208364       4.45041135
Si      30.35113036      23.89386869       8.20583885
Si      31.91696508      22.52397055       7.04845442
Si      33.05537405      26.62054629       8.73098680
Si      36.19848944      26.64918133       6.53028968
Si      34.60541591      25.27417131       7.57969966
Si      37.74127081      25.32975833       5.35582419
Si      35.71527846      23.85669849       9.11827519
Si      33.52734742      23.93072721       5.99431367
Si      37.28540890      22.53719133       7.92391634
Si      38.45994243      26.53361025       9.62114106
Si       1.52989811      26.62865004       7.39504102
Si      39.98041210      25.23935356       8.44307343
Si       3.13141463      25.31646780       6.23896989
Si       1.09571436      23.82220291       9.96606744
Si      38.86957085      23.92759476       6.87236031
Si       3.76548194      26.51940478      10.49202395
Si       6.88946488      26.57567750       8.29569243
Si       5.31430664      25.18408463       9.37500422
Si      33.90874325      26.76435209       3.39148892
Si      37.06727481      26.82748213       1.15708631
Si      35.48973245      25.44312297       2.19849848
Si      38.63983714      25.44897619      39.98479358
Si      36.62595706      24.03497722       3.75276683
Si      39.31042882      26.70855626       4.26373370
Si       2.44477204      26.79915991       2.01717919
Si       0.85565391      25.39011289       3.09381025
Si       3.95866772      25.43544107       0.87416110
Si       2.01117005      23.98142310       4.64864962
Si       4.67044515      26.65953954       5.17359312
Si      37.94772232      26.98939219      35.78877351
Si       0.19462444      26.89136449      38.90084126
Si       3.33058002      26.93158422      36.65983326
Si       5.53144450      26.82606597      39.80278012
Si      29.91635833      21.10185617      10.78725740
Si      35.27823233      21.06964010      11.69452406
Si      38.35952884      21.12398545       9.45314461
Si       2.28568357      26.55974082      35.15836989
Si       2.53366423      23.33330025      33.12190946
Si      38.70314320      22.88555987      33.44785989
Si       0.59170852      25.64370651      36.47799296
Si       0.81999099      23.34762685      36.60791662
Si       2.95934172      23.77478807      39.74672857
Si      39.15947233      23.30836359       0.04243467
Si       4.54994083      22.83676285      34.19066565
Si       4.61754706      23.76955403      36.30606171
Si       4.87169127      20.52064610      34.29937730
Si       2.88769392      22.82262416      37.62767469
Si       3.18548281      20.51096117      37.76007163
Si      35.34813464      22.85447206       0.34373832
Si      36.71219338      25.18057267      36.73473007
Si      36.99049972      21.89402053      34.68866587
Si      37.05605861      22.86869288      36.88237544
Si      37.28805470      19.59347729      34.86265065
Si      39.08438894      22.40512660      37.86099491
Si      35.32571693      21.97207108      38.14880527
Si      39.36287327      20.07417396      38.01851720
Si      35.57752056      19.61461545      38.31081913
Si       0.78595791      22.37920776      34.46038061
Si       1.02524772      19.11547441      32.43736131
Si       1.09871666      20.08293619      34.59417094
Si       1.26793198      16.81593785      32.59750616
Si       3.12132531      19.60977266      35.60968445
Si      39.34220037      19.16690414      35.89688113
Si       3.43270178      17.26082191      35.78118223
Si      39.62043980      16.79281904      36.01280212
Si       3.40689322      16.33548546      33.57914510
Si       3.67375791      14.01724859      33.70796240
Si      33.73250817      15.88176138      33.10083892
Si      35.54350964      18.71184977      36.14534026
Si      35.87324305      16.34435982      36.32326978
Si      32.02712880      15.89238672      36.51943864
Si      37.51530307      16.32913878      32.81148860
Si      39.58525503      15.87995747      33.86980182
Si      35.74322496      15.43743728      34.16970554
Si      39.86301969      13.51723463      33.99733506
Si      36.07462075      13.12743199      34.25562866
Si       3.64162713      13.07606014      31.58583594
Si      39.81442400      12.58737488      31.82912111
Si       3.92539773      10.72967837      31.68410888
Si       0.09477707      10.29094173      31.96634706
Si      36.00749115      12.15440663      32.11428180
Si       1.21215889      22.86513787       1.10929437
Si       1.46006491      20.52339843       1.18707216
Si      39.52533273      22.85955974       4.53633725
Si      39.82406157      20.54126793       4.67571081
Si       5.24745984      20.02145800      38.80420803
Si       5.52179134      17.75156966      38.92026607
Si       3.54777642      20.04667034       2.21641078
Si       3.83562204      17.72418646       2.36398250
Si      33.62392698      21.95395648       1.58791106
Si      33.63221952      22.86050971       3.78921132
Si      33.89732539      19.60090912       1.73942852
Si      35.69757348      22.38988357       4.82183319
Si      31.89349871      21.93829847       5.03161365
Si      35.96593057      20.07947475       4.87477955
Si      32.20113096      19.59838518       5.24619048
Si      37.40177769      22.39474697       1.33227873
Si      37.61673813      19.15322837      39.30555701
Si      37.68902555      20.08778399       1.49453221
Si      37.93863488      16.83253673      39.45505343
Si      39.77022762      19.58143883       2.45739635
Si      35.93411866      19.14887354       2.79778931
Si       0.05650049      17.26672791       2.61154637
Si      36.23920491      16.84652338       2.88602456
Si       1.41952624      19.62171653      39.03668478
Si       1.67736178      16.33539983      37.01807260
Si       1.71401460      17.26257668      39.19365808
Si       1.96533150      14.00647134      37.21777701
Si       3.77637495      16.80247899       0.18690118
Si       0.00344707      16.32763174       0.47699727
Si       4.08167584      14.43958892       0.36988575
Si       0.32131652      13.98679124       0.61086248
Si       5.50047181      16.76390338      36.74867750
Si       5.75640879      13.53920880      34.72603702
Si       5.78634455      14.45551907      36.89041640
Si       6.02533766      11.23486799      34.86441224
Si       7.85533194      13.99563904      37.92388792
Si       4.05615646      13.52013001      38.18584959
Si       4.33389690      11.21146276      38.34546363
Si      30.10078016      19.18552943       2.01065143
Si      30.29613380      15.90365174      39.98647668
Si      32.14441439      18.71196760       3.06823662
Si      32.43245502      16.37024991       3.21041543
Si      28.64878141      15.93169352       3.43038332
Si      33.82149958      18.64418373      39.58496845
Si      34.08586384      15.44287288      37.60927339
Si      34.11552807      16.38213646      39.73401416
Si      34.37847919      13.09562601      37.68611242
Si      36.18389373      15.94435867       0.73766993
Si      32.42486038      15.44699456       0.98529351
Si      36.49349029      13.53924073       0.87322261
Si      32.69809449      13.10615614       1.14762122
Si      37.86811178      15.90586513      37.28601682
Si      38.12210491      12.66192479      35.28562357
Si      38.16493153      13.55031612      37.41549023
Si      38.41942315      10.28748712      35.42877533
Si       0.21445007      13.08645520      38.41076239
Si      36.41816787      12.65003768      38.71451633
Si       0.54506933      10.72630057      38.56509666
Si      36.70502372      10.28877527      38.87023218
Si       1.92293214      13.08272609      35.01061653
Si       2.14693069       9.84423784      33.02213669
Si       2.22848032      10.72942582      35.14996867
Si       2.44845601       7.47382666      33.15340653
Si       4.28192629      10.27492626      36.18390448
Si       0.47801865       9.82838209      36.46397063
Si       0.77070614       7.51062579      36.59872679
Si      30.32073753      14.96932181      37.84432693
Si      32.59694558      12.17397576      39.02253973
Si      32.92853545       9.85553356      39.15687005
Si      34.33638238      12.20176698      35.53564689
Si      34.62209163       9.85397585      35.68322434
Si      36.69330967       9.34777218      36.68648424
Si      36.91532379       7.02941684      36.86033950
Si      38.38884334       9.34305069      33.29921730
Si      38.58510793       6.16575187      31.24306475
Si      38.62215358       7.05590946      33.38447246
Si       0.77180727       6.55594783      34.40301673
Si       1.82850756      20.06192896       5.66617636
Si       2.10557764      17.73024492       5.75203549
Si       0.16264803      20.04798108       9.12377199
Si       0.47141303      17.74553081       9.27055637
Si      30.54384711      19.61677577       8.63988259
Si      28.81830295      19.63416122      12.11523310
Si      34.27217883      19.15645481       6.21195543
Si      34.29143462      20.08142435       8.40536743
Si      34.53917243      16.84065479       6.37721156
Si      36.33713007      19.60066520       9.36320223
Si      32.60367225      19.17745353       9.70370879
Si      36.67583759      17.29193689       9.54900600
Si      32.83730790      16.81593385       9.80870785
Si      38.05519069      19.55401053       5.94463031
Si      38.32511411      16.34530324       3.97292003
Si      38.36784940      17.28778115       6.10568066
Si      38.62726125      13.99469974       4.07501250
Si       0.40908034      16.76678526       7.10036174
Si      36.63243768      16.38702215       7.37643356
Si       0.71111200      14.47513904       7.24526333
Si      36.88236671      14.03095732       7.51716140
Si       2.11416360      16.78029668       3.69010975
Si       2.35153669      13.54000629       1.61514783
Si       2.37294524      14.45748246       3.82950941
Si       2.58836742      11.20352946       1.76714344
Si       0.64272309      13.53335220       5.08819346
Si       0.95030402      11.22365115       5.23299488
Si       6.18272923      13.96047493       1.40776454
Si       4.72110001      10.70428506       2.81886751
Si      26.71683371      19.16108232       8.91025966
Si      26.90931645      15.91510523       6.90902924
Si      28.74795725      18.68802780       9.90262005
Si      29.03681859      16.32275782      10.08887220
Si      30.45032808      18.69017766       6.48355051
Si      30.68939439      15.44204182       4.46685072
Si      30.71838390      16.35751137       6.65350460
Si      30.99981112      13.09371755       4.63736883
Si      32.76054069      15.88290488       7.65113364
Si      29.02467868      15.46497824       7.90292781
Si      33.09325450      13.58514888       7.77426091
Si      29.26673273      13.14543825       8.03345229
Si      34.50188890      15.87622200       4.19023491
Si      34.70874532      12.65430529       2.18034979
Si      34.76885328      13.56340252       4.33997326
Si      35.02227062      10.28429631       2.31908420
Si      36.81963331      13.06827543       5.35225886
Si      33.05879377      12.63043911       5.64505090
Si      37.16866251      10.75051351       5.49993554
Si      33.33760363      10.27878093       5.76104766
Si      38.52012481      13.08907805       1.93748579
Si      38.80383965       9.82108962      39.86044627
Si      38.85170463      10.71698448       2.05698116
Si      39.07596131       7.47778535       0.02997945
Si       0.90279722      10.27386685       3.04718444
Si      37.10326972       9.79492768       3.35287732
Si       1.18084495       7.94466910       3.16832990
Si      37.39281254       7.48929873       3.51121125
Si       2.59473293      10.27407339      39.60580102
Si       2.82106153       7.02072704      37.59236732
Si       2.86368956       7.96534332      39.74823037
Si       1.20114163       7.04428733       1.04617445
Si       1.45823421       4.67160892       1.18211449
Si      29.23245563      12.17128428       5.91473529
Si      31.21255111       9.84398981       2.60119106
Si      33.23155445       9.36602608       3.60687726
Si      33.60483316       7.05726754       3.73459625
Si      35.02054423       9.39392053       0.15872005
Si      35.25026358       7.01998483       0.31447729
Si      37.30672794       6.59560411       1.28782071
Si      37.62183963       4.22312088       1.45033625
Si      39.01690318       6.54209005      37.88828386
Si      39.29385321       4.26516453      37.99471740
Si       1.38569162       3.78257132      39.05478622
Si      37.61212674       3.30401540      39.32758646
Si      34.91230963      16.31101571      10.81823974
Si      35.18007113      14.03118767      10.96545715
Si      38.71923010      16.76481285      10.55355618
Si      38.96344298      13.48457226       8.50959015
Si      39.02324154      14.48137753      10.66013030
Si      39.29525444      11.17237131       8.65385490
Si      37.53824725      11.23464219      12.10996159
Si       3.00487891      10.72255033       6.23352049
Si       3.28253639       8.38071850       6.34274070
Si      31.34155994      12.65801149       9.10232449
Si      31.41190188      13.51777526      11.22885331
Si      31.61618990      10.30341090       9.21184140
Si      33.49813883      13.06680678      12.25231408
Si      35.18474797      13.09111941       8.80509930
Si      35.36283304       9.82561742       6.81344031
Si      35.42613773      10.74092835       8.93230453
Si      35.69855466       7.48383655       6.93669605
Si      37.50854380      10.27151166       9.95701896
Si      33.71356718       9.83192565      10.23454563
Si      37.85195140       7.94799689      10.08284911
Si      34.03535916       7.47651831      10.39449971
Si      39.21963946      10.31084034       6.52925551
Si      39.46870047       7.02954205       4.47711408
Si      39.45606650       7.93878941       6.64149084
Si      39.76386577       4.67364200       4.63992343
Si       1.53328376       7.48672605       7.67975519
Si      37.75003168       7.03836920       7.91968808
Si      38.04985471       4.68175316       8.08171563
Si      31.59432842       9.36173637       7.07337410
Si      31.90014382       7.06470214       7.18854083
Si      33.95588544       6.54886924       8.19630445
Si      34.26245784       4.22665933       8.32156337
Si      35.63319676       6.55446663       4.74226599
Si      35.88794090       3.31486715       2.72994213
Si      35.94165736       4.24554102       4.94438811
Si      37.99119784       3.77354910       5.92775979
Si      39.69731412       3.79467053       2.46618606
Si      36.07679226       7.02606275      11.41257248
Si      11.12317148       2.38466318      18.12467354
Si       7.57723565       1.00574975      17.63376729
Si       7.70906667       1.95486418      13.90036042
Si       6.92004244      38.34858480      14.99758994
Si       6.31957447      39.06940709      17.15737876
Si       6.43039092       0.02190624      13.36079872
Si      16.10489330      10.11595994      20.19784067
Si      11.76439915       5.11448311      20.78160850
Si      12.44393065       7.77113564      23.47500391
Si      12.56200222       8.67254498      19.74208005
Si      11.22458604       5.85268935      22.95212227
Si       8.95055713       6.32726183      23.00704378
Si      12.70649801       9.67156412      16.00225751
Si      12.76219960      10.57917164      12.27759906
Si      10.66326298       4.13482600      16.53392462
Si       8.34856161       4.59023464      16.59498955
Si      11.34293557       6.75647077      19.21858680
Si      11.43841811       7.69637920      15.52399139
Si       9.00117450       7.29577172      19.27886127
Si       9.14981002       8.25402474      15.61622923
Si      10.56464665       3.16296786      20.25067609
Si       7.02793322       1.77761084      19.78227912
Si       8.20955319       3.67824706      20.29671630
Si       4.74935436       2.33532464      19.88001656
Si       7.68729389       4.44303435      22.49847677
Si       7.74822846       5.39259665      18.77459685
Si       5.36990941       4.96962587      22.54773752
Si       5.48840148       5.88854496      18.82124048
Si       4.11082611       3.01754685      22.02089668
Si       9.22728088       9.14492472      11.84864497
Si       9.36735084      10.09566560       8.09674402
Si       7.28416419       3.64590380      12.40288008
Si       8.46786057       5.55366281      12.88733499
Si       4.91837711       4.15098481      12.41466777
Si       7.87565146       6.29403445      15.02706824
Si       7.99018892       7.23868899      11.33659526
Si       5.61309701       6.84139439      15.08576723
Si       5.72660718       7.79556171      11.37805454
Si       7.14040442       2.69913533      16.05902980
Si       3.58159643       1.28720533      15.62739416
Si       4.81597316       3.19417429      16.14252236
Si       1.27266647       1.83673801      15.65001669
Si       4.22447276       3.97155498      18.31748460
Si       4.37146222       4.89858174      14.57898729
Si       1.90881831       4.45505353      18.38778594
Si       2.05894481       5.41838728      14.64885438
Si       3.48388037       0.35139309      19.33294709
Si       1.17079011       0.85388957      19.39122782
Si       0.71422360       2.53251810      17.82374989
Si       4.46458314       5.85439848      10.87550066
Si       2.14379787       6.35271033      10.92477365
Si       3.67467723       2.21151186      11.87144216
Si       1.42359211       2.71032659      12.01454382
Si       0.77284252       3.47332384      14.16318528
Si       0.89346324       4.43696378      10.38946209
Si      38.51465791       3.99694478      14.17289507
Si      38.60251202       4.92161891      10.46374545
Si      15.65029169      11.79651317      18.62965175
Si      13.34438706      12.30665087      18.67255663
Si      12.01700914       9.45983112      21.86115932
Si      13.24868624      11.39721518      22.40242134
Si       9.69806017       9.93750335      21.95918948
Si       9.14143357      10.74480525      24.09494399
Si      12.20618980      11.28727756      14.42044978
Si       9.94423288      11.87681395      14.49066968
Si      12.09911638      10.40307142      18.16534458
Si       8.54069689       9.02103209      17.72169938
Si       9.83004810      10.92325754      18.26857762
Si       6.25446188       9.50329502      17.78874078
Si       9.23028098      11.65117326      20.39511953
Si       9.33037430      12.58667372      16.62024302
Si       8.47793712       8.03670809      21.41864393
Si       4.91421321       6.61130236      20.96905341
Si       5.71401261      10.25374897      19.93880089
Si      12.35124083      12.24313996      10.73384253
Si       8.79115422      10.88633072      10.21461439
Si      10.03174280      12.76991661      10.77148095
Si       6.48180627      11.37362110      10.33340439
Si       9.43297577      13.55144972      12.99202912
Si       7.16141424      14.06559029      12.98043750
Si       8.66066731       9.91970419      14.02257518
Si       5.12693192       8.50528805      13.51238247
Si       6.35949514      10.43184351      14.07410226
Si       2.85070758       9.02279651      13.58138953
Si       5.82037429      11.14270872      16.19428788
Si       5.91221322      12.15683071      12.46338101
Si       3.52806024      11.70817767      16.22307459
Si       3.61134941      12.63752099      12.49918567
Si       5.02021411       7.57010989      17.21365928
Si       1.49512224       6.14263782      16.83308225
Si       2.69284376       8.09337168      17.31257001
Si      39.17053020       6.67993182      16.80889839
Si       2.28175106       9.76380256      15.71867750
Si       1.36380285       5.20321885      20.49897834
Si       5.22462917       9.40189971       9.80936172
Si       1.73529184       8.03372348       9.30298106
Si       2.95672472       9.95894431       9.87345063
Si       2.41719500      10.70775005      12.02463445
Si       0.08465544      11.25704376      12.07180506
Si       1.59133635       7.12465222      13.04516612
Si      38.00850862       5.71708800      12.63681193
Si      39.28961903       7.61076966      13.11256462
Si      38.81068399       9.27359694      11.56453043
Si      17.63208423      39.67266419      19.70197489
Si      20.94209028      38.45130292      21.10670737
Si      15.30397963       1.87287535      21.88325618
Si      13.44757769       1.38199019      20.52068865
Si      16.82469286       0.08023009      21.87481223
Si      12.40665301      39.40868674      21.31100098
Si      15.76788124      38.21278855      22.69744701
Si      19.08474240      36.93571208      24.04547949
Si      18.31796597      37.28939349      26.29552637
Si      17.23639638      35.30848413      27.07872173
Si      20.58521380      34.03726024      28.46398149
Si      21.68495683      39.09818501      14.48548011
Si      16.52470536      38.84839390      16.10146272
Si      18.82911645      36.68233399      13.92905115
Si      11.30380097      38.56104377      17.71756361
Si      13.62321819      36.38485526      15.51796938
Si       9.51811481      38.04669650      16.35695519
Si       8.46010864      36.08771319      17.15547846
Si      23.22822179      36.27677104      18.89290997
Si      23.23923164      37.31138480      14.50030230
Si      22.15131083      35.35287401      15.30412545
Si      25.50091609      34.14154854      16.68825529
Si      20.93469124      39.49388305      16.71483135
Si      19.10062704      37.98136593      19.68218027
Si      19.88148264      37.56382589      17.51492301
Si      18.02226262      35.99370495      20.49684141
Si      18.00223156      37.04559126      16.15130736
Si      21.37448882      35.78664390      17.45840958
Si      16.97708993      35.08193971      16.90895154
Si      20.33157859      33.84852242      18.31559980
Si      15.75340530      39.17783658      18.30720051
Si      13.91588978      37.64424639      21.30672743
Si      14.69322508      37.27666012      19.12264023
Si      12.84723412      35.69942525      22.09280246
Si      12.89722963      36.76030034      17.70270358
Si      16.17788232      35.45805131      19.10174208
Si      11.81178336      34.85933024      18.51904150
Si      15.13619410      33.52450248      19.90146311
Si      10.55075839      38.90646234      19.92371552
Si       9.51735160      37.01784111      20.73510215
Si       7.69135907      36.46828148      19.33440928
Si      11.03448724      35.15595424      20.73484735
Si       6.62972620      34.51663362      20.12608087
Si       9.94039467      33.26893281      21.53192681
Si      28.86490989      32.84688018      18.09156164
Si      24.75484302      33.40711599      23.25294589
Si      24.72662099      34.49714537      18.87274614
Si      28.10483356      33.20348804      20.28753224
Si      23.68368248      32.53691558      19.68118738
Si      27.05445981      31.29754664      21.08332876
Si      22.45832897      36.66234657      21.08085018
Si      20.62186547      35.09608311      24.09594917
Si      21.38525532      34.72882219      21.87516897
Si      19.52308988      33.12983194      24.86665031
Si      19.57880428      34.21024768      20.49232677
Si      22.91079822      32.93946980      21.86255574
Si      18.49147246      32.25685488      21.26097288
Si      21.86346887      31.01172497      22.68799734
Si      17.29611178      36.38321667      22.71329111
Si      15.44931802      34.80334594      25.64616701
Si      16.22587599      34.41686567      23.45907503
Si      14.36987185      32.87148660      26.49103994
Si      14.38024740      33.90892964      22.05773277
Si      17.76157397      32.57743200      23.47305451
Si      13.34497906      31.97197896      22.88921323
Si      16.66961531      30.68538397      24.30674805
Si      12.08888998      36.07963605      24.30509938
Si      11.00229618      34.11520744      25.10044560
Si       9.17579037      33.62253731      23.67947368
Si      12.54193415      32.31812128      25.05031891
Si       8.16071384      31.64806172      24.48882024
Si      11.48729359      30.43294869      25.87838281
Si      30.39312754      29.97700191      22.46941523
Si      28.10051897      32.15369565      24.65402927
Si      26.24170594      31.62753842      23.24810437
Si      29.60585204      30.37747312      24.60474913
Si      25.18119047      29.71236526      24.10728361
Si      22.15919934      32.25566659      28.44723050
Si      22.88273660      31.85404300      26.27666457
Si      21.09750201      31.39921038      24.86287858
Si      24.45458584      30.08668018      26.24518760
Si      20.03251426      29.42237565      25.66100806
Si      18.82633563      33.51729693      27.09063290
Si      17.75476274      31.59728083      27.85328745
Si      15.88280704      31.04015584      26.50204232
Si      19.23866923      29.78415767      27.86726819
Si      14.83728810      29.12018809      27.27702044
Si      14.08173208      29.55640742      29.46188327
Si      13.00819424      27.57379165      30.29042826
Si      21.12626983      34.48236577      11.70061755
Si      17.00572913      36.17311872      12.54262457
Si      17.73652422      35.74272398      10.33698444
Si      15.90870705      34.18111628      13.32300939
Si      19.23921111      33.94675211      10.33218001
Si      14.84904999      33.33291152       9.76577841
Si      18.22319746      32.04222043      11.15405182
Si      11.81809460      35.86299023      14.12160594
Si      12.58956974      35.48516297      11.93380374
Si      10.71677246      33.92999071      14.95889301
Si      10.74775860      34.93358538      10.57316316
Si      14.13501044      33.69903540      11.98538212
Si       9.65168668      32.97238825      11.33607852
Si      13.04697559      31.78507029      12.73306989
Si       8.90932894      33.40280372      13.55480369
Si       7.84853888      31.46489273      14.36055840
Si      23.67116068      33.61606822      15.32746513
Si      24.43252436      33.23077687      13.13032979
Si      22.61834216      31.65730926      16.12534636
Si      22.61568862      32.69659956      11.75361972
Si      25.97235486      31.43434932      13.08590381
Si      21.55268896      30.79079370      12.54922038
Si      24.90985908      29.47036606      13.95713872
Si      20.33996818      34.88147199      13.90042431
Si      18.49802347      33.31374135      16.89393198
Si      19.26966668      32.91633727      14.76279881
Si      17.41663218      31.37882702      17.74240257
Si      17.42626900      32.39720090      13.32396921
Si      20.81340988      31.13608329      14.72689312
Si      16.40076194      30.48278589      14.11810120
Si      19.68625610      29.19758720      15.52437158
Si      15.16676621      34.54460365      15.50711642
Si      13.31929503      33.05307064      18.51370862
Si      14.10842231      32.67303035      16.34166109
Si      12.28162932      31.04733655      19.36542247
Si      12.24675371      32.12482654      14.95142922
Si      15.65468899      30.89679696      16.33370225
Si      11.20476286      30.19689188      15.76203892
Si      14.54243431      28.90504663      17.11146475
Si       9.97088895      34.26980301      17.10736495
Si       8.12838589      32.74140969      20.14971266
Si       8.92941281      32.33538705      17.95416273
Si       7.08450870      30.75339471      20.95847964
Si       7.08374542      31.86873048      16.54376552
Si      10.42974192      30.57241397      17.92516322
Si       9.33509491      28.62263768      18.73328142
Si      29.34917529      29.13089735      18.86733196
Si      26.99739980      32.31437627      16.67576691
Si      25.16933173      30.76171567      19.66049435
Si      25.94065006      30.37996322      17.45664291
Si      24.14280155      28.83883479      20.47915279
Si      24.16060810      29.87112757      16.09237083
Si      27.47454821      28.63716827      17.46246826
Si      23.03099636      27.91445838      16.91508574
Si      26.40683967      26.65078577      18.25946995
Si      21.82944064      32.03138598      18.24880157
Si      19.97441418      30.47930455      21.30188558
Si      20.78405204      30.13982389      19.09927558
Si      18.96117742      28.54950565      22.05586475
Si      18.95076021      29.57073066      17.71470461
Si      22.27503759      28.30578675      19.08831637
Si      17.90451925      27.64512227      18.51391324
Si      21.29884136      26.40225194      19.89980217
Si      16.68897575      31.74198870      19.91716370
Si      14.83362161      30.20699570      22.92022420
Si      15.57646011      29.77160989      20.69882585
Si      13.78827055      28.23565336      23.69330501
Si      13.76786894      29.29819984      19.33246233
Si      17.10037849      28.03219516      20.66457672
Si      12.73928801      27.34909077      20.08881886
Si      16.08790391      26.09772349      21.50241110
Si      11.50611867      31.47927498      21.54969766
Si       9.67462848      29.88261660      24.48952697
Si      10.41727961      29.51769103      22.37580796
Si       8.57086462      27.97375843      25.28597985
Si       8.57085784      28.99815118      20.93266722
Si      11.95124101      27.73773652      22.33153905
Si       7.48866600      27.09471536      21.76339764
Si      10.88669277      25.80937167      23.11825202
Si       6.29716523      31.16712400      23.09502542
Si       5.27063745      29.23405918      23.90312491
Si       6.76218588      27.43081245      23.91605788
Si      28.53558421      29.48247376      21.04924984
Si      26.68595692      27.91029800      24.05172644
Si      27.46886142      27.56368890      21.85417786
Si      25.66927340      27.05888194      20.50421069
Si      24.56752569      25.11501641      21.27870382
Si      23.39996008      29.18487654      22.67138054
Si      21.51701574      27.65311495      25.68226418
Si      22.32491225      27.25094017      23.48816092
Si      20.51238018      26.71099829      22.14766084
Si      23.82591466      25.47179973      23.49426371
Si      19.44907016      24.77526130      22.86895396
Si      18.17787848      28.90589641      24.31060618
Si      16.41258851      27.33385628      27.27672717
Si      17.11683986      26.96198144      25.05547715
Si      15.27004055      25.39516773      28.02327415
Si      15.32106924      26.45008718      23.68908088
Si      18.64880417      25.16092255      25.11699402
Si      14.22526076      24.51467458      24.53994323
Si      12.95001683      28.60057593      25.88053219
Si      11.15064053      27.03920254      28.89230006
Si      11.94548530      26.65664408      26.69016447
Si      10.13154841      26.12362105      25.30712612
Si      16.37431502      31.51190555       9.77981875
Si      15.30590309      29.59244445      10.51612701
Si      17.60130662      27.44593048       8.37280376
Si      13.07831704      32.84487862       8.36430430
Si      11.19441484      31.23718718      11.38650898
Si      11.96861714      30.89612354       9.17709427
Si      10.12562622      29.26070039      12.12483678
Si      13.50819973      29.04592810       9.13877503
Si      23.09076967      28.97120126      12.55445013
Si      21.96580396      27.01628965      13.33879653
Si      24.30027938      24.88387666      11.11867173
Si      19.71897971      30.22088547      11.16650237
Si      17.91081871      28.70234598      14.11935476
Si      18.64377686      28.30793455      11.91928125
Si      16.85380331      26.73914130      14.94186853
Si      16.81840380      27.80699749      10.54114116
Si      20.17864622      26.49678543      11.94420001
Si      15.77497241      25.85985648      11.37524497
Si      19.08909259      24.56157176      12.72353540
Si      14.56941276      29.92908128      12.71052207
Si      12.71774119      28.41648927      15.72557463
Si      13.49206506      28.02062136      13.51241915
Si      11.65740615      26.46233410      16.51438907
Si      14.98944566      26.19729289      13.55197916
Si       9.36801294      29.64480834      14.34336189
Si      26.41903927      27.72631135      13.87844904
Si      24.61096790      26.11233328      16.91506402
Si      25.32928861      25.75199600      14.69003538
Si      23.51263374      24.20815100      17.70293738
Si      23.51512015      25.23838675      13.32910936
Si      26.88580315      23.96836892      14.72045820
Si      22.49359162      23.28345011      14.10244947
Si      25.81176864      22.04575735      15.49735207
Si      21.27647755      27.42951939      15.52723571
Si      19.41258186      25.87455943      18.51458480
Si      20.20820408      25.47772503      16.31170033
Si      18.35299267      23.91259233      19.29201836
Si      18.36922571      24.96411439      14.94915857
Si      21.69419554      23.65211649      16.32174552
Si      17.25238874      22.98465578      15.71600391
Si      20.61918447      21.74171665      17.11522735
Si      16.03715244      27.10112025      17.09858960
Si      14.22509099      25.57485020      20.13775872
Si      15.03211491      25.18971765      17.92571352
Si      13.17869906      23.60438215      20.92401124
Si      13.21232090      24.67910091      16.53075369
Si      16.52059408      23.40025484      17.92619868
Si      10.89737469      26.80250784      18.75496841
Si      27.92295804      24.93456554      18.27821622
Si      26.88313729      22.94163848      19.06304819
Si      25.03350286      22.40104410      17.66316723
Si      23.99595581      20.47127962      18.49115369
Si      22.75406338      24.59813048      19.91706084
Si      20.94593803      22.98593327      22.90524308
Si      21.65492286      22.60018908      20.69525748
Si      19.83442510      22.11629917      19.29750903
Si      23.23216352      20.81655255      20.68792004
Si      17.60523479      24.27833453      21.51434823
Si      15.72295156      22.71631163      24.53061724
Si      16.52816665      22.37708340      22.30420891
Si      18.03295225      20.55235414      22.27537672
Si      12.35528387      23.99584494      23.09879489
Si      22.46031987      24.35288371       9.75748262
Si      25.82999185      23.05110996      11.12703638
Si      23.94837531      21.47692776      14.08173545
Si      24.76555332      21.12644391      11.91403369
Si      22.92525311      19.59374984      14.93819045
Si      20.62185967      22.79724790      12.70785074
Si      22.14235066      19.95690776      17.10018862
Si       8.44613724      14.62301920      27.05245394
Si       7.13400836      12.26346429      24.35108809
Si       5.80270897       9.81296008      21.62254469
Si       7.71874221      10.42724380      25.68901116
Si       5.92080932       9.86344286      27.07722886
Si       4.59909581       7.43797225      24.36209189
Si       7.40223554      24.34968507      24.31013697
Si       6.08069959      21.99268980      21.60263721
Si       8.01532065      22.52601072      25.63569254
Si       7.54216451      24.37152481      29.73967772
Si       6.25588635      22.00333986      27.07300926
Si       6.37841842      21.96326478      32.49619808
Si       3.42900700      17.18959093      16.29820599
Si       6.01747252      15.87245477      24.36503786
Si       6.66865639      20.12917165      22.98869173
Si       5.38598624      17.79969163      20.28795545
Si       4.87402754      19.55748318      24.35766260
Si       3.53383718      17.20058914      21.69082037
Si       9.17060259      18.87195911      25.65840451
Si       7.32805428      18.28995946      27.02163590
Si       6.15087637      15.91535724      29.73905567
Si       6.80728048      20.14526268      28.42765161
Si       5.45374434      17.75827836      25.72791788
Si       5.02025380      19.55864576      29.80177772
Si       3.66899357      17.19337438      27.15965114
Si       5.61138150      17.75763495      31.14659582
Si       2.06755998      14.79083778      13.59815781
Si       3.31208230      11.09333415      18.98325326
Si       2.65212533      12.95327009      14.94000482
Si       2.17465805      14.77098079      19.00109936
Si       0.88587885      12.38695342      16.32337541
Si       5.25514428      11.70911657      23.00456009
Si       4.69804570      13.52083725      21.65816388
Si       3.44822608      11.10993221      24.39770405
Si       4.10602328      15.33533514      23.03325647
Si       2.82997103      12.98312114      20.36109455
Si       2.33744492      14.77926712      24.46144588
Si       1.00954797      12.39724545      21.73863993
Si       6.60376775      14.08671690      25.65808988
Si       5.37789688      11.67025342      28.44877119
Si       4.76790871      13.47857746      27.10943427
Si       3.60029795      11.15421760      29.84499510
Si       4.26437573      15.39206753      28.46752892
Si       2.92649473      13.00270368      25.76830562
Si       2.41524364      14.79879598      29.85051404
Si       1.13607210      12.38613696      27.18991223
Si       1.43211958      10.52960435      17.66972831
Si      39.63616960       9.97111029      19.06639275
Si       3.90722137       9.29679314      20.35030787
Si       2.69560821       6.87610777      23.05203277
Si       2.08721530       8.72571384      21.72937127
Si       0.90593406       6.33790166      24.49507197
Si       1.58122426      10.57064446      23.07640424
Si       0.28151677       8.17062722      20.37938136
Si      39.77592237       9.96809764      24.49659816
Si      38.41234204       7.60919999      21.80886523
Si       4.04075730       9.27464557      25.75009989
Si       2.21396492       8.75492437      27.13286459
Si       1.70828836      10.58273105      28.49976649
Si       0.36551904       8.16189128      25.84366824
Si      39.92089613      10.00671057      29.95014782
Si      38.56157661       7.58319103      27.28251921
Si       3.84686049      29.33166303      21.73405244
Si       3.66926946      23.25867729      18.96873437
Si       2.50373960      26.89380002      19.03410361
Si       1.17916635      24.50878969      16.30141001
Si       5.55812883      23.81934975      23.02497112
Si       3.74336661      23.25717979      24.41662691
Si       4.46576801      27.46611950      23.03696348
Si       3.12130216      25.05005789      20.35412465
Si       2.64618999      26.90494877      24.42876558
Si       1.30554758      24.53807178      21.72489866
Si       6.89993821      26.21113903      25.67258057
Si       5.66997873      23.85255081      28.44316452
Si       5.12263819      25.66264497      27.13313761
Si       3.87029656      23.22428792      29.84437551
Si       3.23879496      25.06206439      25.72807562
Si       2.78145741      26.92524275      29.87555097
Si       1.39997244      24.55504270      27.20443820
Si       3.37851007      25.10078644      31.22949082
Si       1.55340233      24.50498949      32.57341973
Si       0.95825769      18.47693740      13.63863848
Si      39.82610470      22.10708529      13.66137734
Si      38.47144487      19.75983619      10.95574858
Si       2.85283797      19.01455143      17.67613420
Si       2.29428806      20.86004287      16.32336888
Si       1.08572128      18.47649849      19.02390064
Si       1.78786998      22.69031009      17.64374094
Si       0.41875445      20.30277560      14.99130600
Si      39.93982957      22.15599080      19.04436035
Si      38.61467952      19.70576854      16.38746759
Si       4.20128714      21.44446845      20.29934577
Si       3.01605462      19.03250204      23.08036155
Si       2.40375993      20.83844097      21.72056453
Si       1.23552045      18.43217709      24.48333603
Si       1.91356195      22.68275179      23.12600012
Si       0.52593212      20.29290107      20.41229680
Si       0.06790388      22.15143071      24.50836090
Si      38.75372641      19.72580143      21.79780841
Si       4.34261410      21.44020873      25.74227456
Si       3.10741148      19.05239667      28.51134816
Si       2.57789434      20.88654240      27.10923562
Si       1.32877126      18.46210716      29.88920308
Si       1.99734580      22.66955922      28.48016109
Si       0.69580004      20.32374236      25.86574099
Si       0.20647892      22.14048639      29.95072186
Si      38.87187679      19.72543786      27.25088593
Si       4.48928843      21.38748514      31.17003145
Si       0.81610315      20.31647498      31.23298823
Si       0.18746836      14.21174347      12.25139725
Si      38.37947102      13.68136036      13.67640162
Si      39.09904828      17.88173498      12.29606652
Si      37.28537228      17.33189618      13.71866555
Si       1.51793735      16.61008212      14.93429929
Si       0.33510690      14.23777804      17.71169824
Si      39.72124094      16.09016530      16.35613744
Si      38.53341353      13.67611919      19.11747033
Si      39.22025294      17.87714633      17.73835861
Si      37.87169258      15.54604069      15.05936852
Si      37.43345183      17.33455518      19.11689057
Si      36.09487373      14.92821452      16.45994664
Si       1.64962954      16.63328764      20.38205283
Si       0.48599930      14.26144099      23.10351958
Si      39.85143380      16.08451882      21.79855731
Si      38.69233463      13.70319574      24.51075929
Si      39.33568455      17.88435254      23.14634673
Si      37.99298761      15.51818243      20.48206713
Si      37.51582222      17.37445274      24.53964709
Si      36.18185577      14.94215669      21.88090816
Si       1.80022152      16.62932270      25.82059846
Si       0.61271212      14.20166607      28.57106404
Si      39.99314171      16.06083703      27.20412547
Si      38.75306840      13.66157220      29.97790732
Si      39.49429787      17.90996640      28.57253417
Si      38.12385115      15.46930627      25.90138775
Si      37.67134087      17.35700618      29.98613758
Si      36.34573294      14.96729309      27.32055491
Si      36.53867806      13.10922531      12.32368147
Si      34.69291854      12.50575769      13.76265240
Si      38.98340190      11.85700768      15.03625557
Si      37.78565150       9.40671426      17.76934335
Si      37.14548627      11.25553414      16.42611248
Si      36.67316267      13.12447810      17.79604162
Si      35.28169936      10.69668485      15.09940934
Si      34.82086971      12.55078327      19.17663780
Si      39.14386745      11.82429381      20.46413207
Si      37.96075790       9.43140429      23.18764045
Si      37.33898242      11.24427624      21.88392877
Si      36.76287921      13.09547574      23.22493824
Si      34.97023481      12.55837381      24.63871661
Si      39.25557822      11.84460635      25.87374087
Si      38.05320447       9.40198091      28.63672060
Si      37.45969292      11.24967903      27.23217424
Si      36.90464760      13.11928447      28.61281674
Si      35.53768415      10.70255940      25.93190871
Si      38.82394987      25.79984422      19.08878655
Si       0.75411049      26.37237807      23.11497057
Si       0.15401118      28.18602219      21.79427144
Si      38.98294906      25.80055568      24.54796429
Si      38.32077696      27.65071032      20.47957589
Si      37.85427731      29.49060631      24.54403462
Si      36.54085764      27.03913141      21.86672448
Si       2.10340345      28.75767862      25.80363028
Si       0.91275325      26.36837004      28.56446086
Si       0.35435382      28.21706819      27.21626269
Si      39.10786615      25.80730977      29.95730866
Si      38.42709694      27.64609549      25.91813237
Si      36.67177208      27.07285735      27.30164813
Si      38.56733317      27.62819137      31.34951165
Si      37.90608886      21.56974460      12.33097514
Si      36.16257462      20.99867304      13.71613229
Si      39.29855131      23.97816702      15.02004032
Si      38.08181279      21.60649321      17.78573441
Si      37.51266647      23.37853233      16.41676690
Si      36.29350762      21.03370018      19.13225720
Si      36.99798693      25.24524738      17.78035666
Si      35.18410544      24.68656706      19.19527634
Si      33.82930533      22.29242489      16.49990625
Si      39.42775135      23.94912321      20.42180446
Si      38.23391883      21.55437681      23.18510010
Si      37.64663655      23.38908969      21.81333765
Si      36.40921513      21.01705441      24.58577893
Si      37.08771959      25.21571915      23.22392400
Si      35.76246904      22.83915755      20.51361011
Si      35.34707247      24.69316125      24.61697649
Si      33.94336796      22.34112777      21.93590833
Si      39.53875610      23.98521254      25.85063487
Si      38.34532833      21.59750972      28.62763294
Si      37.74933275      23.43678213      27.28407224
Si      36.52948962      20.98544383      30.03192748
Si      37.25457987      25.25749640      28.63184014
Si      35.86965746      22.82098335      25.96278471
Si      39.69282521      23.95253917      31.29526979
Si      35.41817514      16.78004871      12.38013598
Si      33.61285786      16.17981561      13.79152744
Si      32.48092490      19.91092918      13.80262554
Si      36.73576000      19.14690843      15.07165715
Si      35.52559098      16.77597586      17.86429426
Si      34.95724010      18.60830548      16.45833804
Si      33.74541536      16.25049625      19.24659801
Si      34.38400476      20.44033046      17.82387895
Si      33.06042689      18.05004549      15.18736954
Si      32.62906090      19.90853041      19.23275288
Si      31.29347622      17.48337287      16.56147360
Si      36.85555395      19.16662731      20.49611606
Si      35.65084070      16.79547343      23.22104406
Si      35.08800843      18.62318918      21.92817392
Si      33.84459398      16.17658023      24.65325621
Si      34.50127866      20.45482361      23.30335619
Si      33.20041640      18.08334867      20.61554551
Si      32.73661978      19.88392766      24.67050684
Si      31.43448965      17.48141236      21.99055270
Si      37.01356963      19.19834304      25.93007652
Si      35.78953244      16.77083777      28.67112554
Si      35.21610622      18.60007450      27.28928332
Si      34.67612116      20.43621636      28.70264511
Si      33.33232991      18.06553966      26.01709895
Si      37.11391999      19.17475061      31.36126586
Si      31.72895950      15.61545754      12.45426966
Si      34.18692171      14.42205412      15.10892413
Si      31.86522096      15.63924102      17.88695335
Si      34.31136338      14.35540508      20.58840595
Si      32.55701233      13.83842974      21.95468107
Si      32.01960134      15.65840281      23.33505239
Si      34.44602698      14.39779592      25.99994541
Si      32.64217458      13.84318693      27.37181667
Si      35.98197357      28.92531800      23.28255752
Si      33.27256265      24.12046520      17.86138724
Si      31.49338760      23.55409337      19.27434260
Si      34.60641539      26.52956995      20.54598320
Si      33.37014481      24.10251566      23.31980681
Si      32.85236785      26.01561288      21.94098512
Si      30.93488723      25.42390278      20.62910913
Si      30.62833991      19.35565081      12.46794699
Si      28.84599800      18.77086438      13.92216744
Si      32.00338015      21.77654314      15.17033950
Si      30.76041863      19.32715881      17.91612978
Si      30.16000929      21.17871934      16.60666984
Si      28.98909590      18.75147536      19.34274173
Si      29.61234313      22.98716126      17.98772885
Si      32.08543558      21.74485019      20.63526026
Si      30.89588346      19.32525417      23.35298753
Si      30.28392780      21.19290264      22.03294218
Si      12.50754908      29.01112502       5.18242147
Si       9.30609273      27.45524690      39.13633587
Si      10.29131725      26.11470888      37.41519329
Si       8.49250426      26.03162813       0.81001708
Si       8.69331026      24.67218060      36.54556777
Si      12.05024939      24.87362281      38.34129176
Si       7.88039167      23.26937400      38.25391531
Si      11.22053809      23.47058069       0.02042746
Si       6.88259655      24.58272740      39.96704780
Si       6.11121533      23.16568261       1.63158753
Si      15.29647518      26.48047101       4.42782272
Si      14.65645553      23.71688471       1.85497027
Si      18.05306160      23.88068161       3.61440265
Si      12.72363539      27.64711219       0.89760959
Si      10.91284018      27.58798738       4.32313052
Si      11.90464323      26.23628211       2.59798636
Si      10.08066962      26.17984087       6.02062420
Si      10.30006083      24.79182352       1.74224850
Si      13.65253981      25.01427195       3.53106204
Si       9.45178996      23.40393167       3.41917068
Si      12.89359515      23.62579321       5.23999644
Si       7.52550124      27.39127887       2.51151619
Si       6.73767258      25.95952645       4.23739226
Si       5.08628798      24.52023209       3.34009495
Si       8.48357128      24.72276747       5.13786396
Si       4.26432714      23.10426733       5.04032011
Si       7.67064955      23.29941275       6.81937150
Si       2.46306856      23.03557330       8.43089018
Si      17.06042791      25.20697105       5.30938254
Si      16.19716643      23.85164391       7.01019779
Si      19.61092888      24.01110075       8.81664537
Si      14.29825112      27.79105747       6.11451679
Si      12.51353393      27.70810750       9.48927811
Si      13.49432269      26.40035946       7.81006143
Si      11.69990886      26.31563990      11.21662486
Si      11.89420635      24.96146439       6.91162462
Si      15.25006346      25.15919436       8.69786359
Si      11.06510814      23.53122625       8.63493304
Si      14.46493430      23.74644202      10.40555001
Si       9.11865319      27.50894729       7.69589286
Si       8.30657602      26.09862926       9.39077204
Si       6.67074849      24.64658239       8.53704405
Si      10.08877044      24.85393107      10.32031466
Si      13.50775955      25.03611304      12.13419822
Si       7.24901560      20.48834106      35.66065521
Si      14.00738231      20.92888167      39.27505569
Si       9.64888793      22.00021278      39.15825397
Si      10.62574798      20.71254265      37.49676237
Si       8.81130242      20.60892861       0.84296654
Si      12.39925751      19.42671544      38.36498263
Si       8.22049751      17.86986523      38.29525195
Si      11.55567673      18.04684656       0.08563672
Si       6.25145105      21.75518926      37.35750907
Si       4.46651676      21.72885269       0.73076164
Si       7.19995990      19.16528150      39.96208088
Si       6.38777768      17.76560380       1.66211104
Si      16.43632536      22.39403411       2.75842820
Si      15.56236368      21.03864901       4.46703725
Si      15.77405826      19.65119054       0.16585407
Si      14.93199021      18.24729035       1.87838490
Si      18.37548886      18.48480650       3.68056610
Si      13.03385261      22.22702966       0.97843916
Si      11.23366285      22.16576614       4.35063974
Si      12.18099148      20.80523658       2.64925483
Si      10.43439090      20.71700430       6.02800978
Si      10.60522622      19.39377153       1.75836364
Si      14.00078023      19.54277262       3.57940661
Si       9.78308940      17.97173162       3.47666906
Si      13.16456403      18.19556876       5.27132580
Si       7.85129663      21.93805331       2.55907718
Si       6.03766404      21.88083014       5.97307214
Si       7.03648003      20.56024135       4.27171796
Si       5.26355919      20.45907080       7.66053970
Si       5.40415336      19.10938112       3.39822795
Si       8.82533424      19.32398242       5.15548534
Si       4.57483086      17.68350233       5.10569384
Si       8.01187751      17.89131136       6.87598160
Si       2.66841541      21.64438066       4.10849594
Si       0.87897535      21.57049606       7.54737594
Si       3.64549184      18.99757586       6.76743883
Si       2.77306879      17.61504264       8.45472950
Si      18.03842654      22.56202689       7.94975153
Si      19.00498607      21.24277514       6.24493476
Si      17.20228453      21.15819681       9.65989729
Si      17.36687771      19.78678305       5.41632635
Si      20.76778176      20.02045243       7.13541227
Si      16.55300697      18.41516735       7.07831817
Si      19.95491520      18.61245571       8.90000224
Si      14.60594690      22.36515058       6.15150614
Si      12.84207334      22.29992193       9.54859101
Si      13.81349907      20.94688591       7.85838062
Si      11.98449652      20.88609050      11.24960756
Si      12.14627684      19.53251643       6.93985158
Si      15.56417100      19.72515554       8.77046913
Si      11.38479599      18.10762665       8.65115330
Si      14.76513764      18.31558855      10.45432969
Si       9.44749141      22.08098398       7.76072729
Si       7.62287601      21.99922868      11.13468292
Si       8.63602343      20.67450088       9.40471936
Si       6.98759146      19.20812758       8.55138642
Si      10.38554780      19.43119497      10.36351753
Si       6.18924587      17.82850481      10.27399629
Si       4.25808972      21.75660156       9.35258776
Si       1.83108236      18.91483193      10.15784267
Si      24.14288052      20.20604291       8.95832392
Si      23.35144241      18.82572102      10.62664242
Si      21.38949320      22.78747459       9.73486491
Si      20.57233198      21.38635060      11.43556263
Si      18.94160780      19.90968922      10.53588208
Si      22.36013038      20.15484241      12.36206199
Si      18.15216671      18.57859114      12.26075917
Si      21.51287919      18.71211253      14.09182891
Si      16.21823031      22.49283850      11.32858763
Si      13.80162426      19.65303463      12.15606896
Si       9.93995244      16.60328957      39.16834549
Si       9.12953966      15.21280117       0.94459389
Si       7.55027377      13.75378009       0.04881201
Si       6.68213920      12.30827239       1.70512453
Si      16.72092122      16.99032242       2.79295671
Si      15.95553522      15.61595429       4.53314254
Si      18.64737633      13.05566767       3.72146751
Si      13.32562676      16.80855434       0.99478704
Si      11.54430179      16.72558575       4.39723223
Si      12.52245230      15.40192015       2.66686025
Si      10.72890592      15.32525276       6.10093531
Si      10.93692046      13.95302530       1.83691332
Si      14.28715854      14.15680036       3.60589483
Si      10.05929010      12.53276056       3.51921090
Si      13.48316454      12.78907569       5.30652975
Si       8.16863077      16.51668170       2.56744281
Si       6.38812274      16.47558578       5.98523136
Si       7.36447914      15.09106617       4.31821053
Si       5.52533651      15.06242706       7.73331262
Si       5.70667586      13.63553046       3.45518267
Si       9.14568807      13.91311972       5.22416349
Si       4.93795144      12.25211985       5.14769517
Si       8.32253536      12.50673373       6.92495418
Si       3.94216841      13.60825305       6.84134805
Si       3.10317231      12.18552826       8.53986895
Si      20.11720323      17.22604216       4.56703224
Si      18.33034827      17.16671029       7.99747115
Si      19.30341756      15.82650758       6.29880333
Si      17.53567453      15.73623350       9.67088115
Si      17.67737558      14.37837578       5.38879967
Si      14.95299782      16.91517606       6.17064656
Si      13.13565516      16.87281171       9.59461155
Si      14.10837241      15.60425742       7.91285667
Si      12.34050152      15.48854584      11.27545234
Si      12.50127535      14.09372953       7.00294118
Si      15.89873185      14.30521313       8.81444833
Si      11.66667466      12.67081421       8.69255337
Si       9.78898185      16.65441684       7.80999733
Si       7.95791533      16.57998444      11.18806847
Si       8.96559372      15.26724059       9.50242401
Si       7.31251637      13.78894516       8.61932901
Si       4.59096487      16.35845538       9.40691680
Si       3.74226031      14.98835863      11.11616711
Si      21.73948578      17.34325432       9.80287531
Si      19.92028413      17.29630850      13.18562685
Si      16.53420222      17.08327377      11.37637910
Si      15.69769010      15.68961777      13.10540311
Si      14.10753326      14.21778124      12.23200133
Si       6.67018374      11.01312191       5.99086570
3068
Lattice="40.0 0.0 0.0 0.0 40.0 0.0 0.0 0.0 40.0" Properties=species:S:1:pos:R:3 relative_density=0.96 cell_dim_angstroms="_JSON [40.0, 40.0, 40.0]" n_grains=16 grain_size=20.0 crystalline_fraction=1.0 grain_radius=19.536497026242902 pbc="T T T"
Si      22.87574226      36.36786731       8.44977407
Si      22.99984759      38.65916158       7.84500713
Si      21.01892920      39.26118423       6.77651964
Si      19.50954084       0.20352606      10.15615711
Si      21.13713795       1.58220819       6.21207076
Si      19.14974608       2.23660818       5.10562317
Si      19.58831468       2.47573441       9.58533328
Si      17.58038541       3.14424631       8.45324701
Si      19.55108650       5.75749217       6.44920111
Si      19.26571117       4.46698075       4.51390102
Si      17.70729826       5.41423962       7.86286601
Si      17.29460302       5.10434305       3.44717329
Si      15.71277004       6.07752623       6.84574901
Si      14.16504553       6.94737376      10.17859011
Si      15.86383136       8.29570069       6.26197370
Si      13.83216531       8.93883707       5.18216793
Si      12.29382461       9.88284018       8.51252440
Si      13.97638379      11.19724793       4.57516540
Si      11.98034730      11.85107932       3.48556886
Si      22.65427348      35.04014142       6.45764937
Si      20.66800406      35.71202971       5.40475508
Si      18.71657964      33.05637348       7.41398661
Si      18.39367386      35.05950014       2.39048834
Si      21.08307031      36.00956687       9.85256056
Si      19.20577133      38.92984825       8.19664151
Si      19.08176276      36.63829891       8.81837352
Si      17.24897019      39.55136586       7.12647104
Si      18.80844505      35.37498322       6.83643012
Si      16.85880273      35.97666382       5.74226846
Si      15.27637929      36.96630312       9.13482148
Si      20.77477075      37.98493986       4.81684922
Si      18.90203212       0.93171915       3.14831474
Si      18.77373450      38.64948515       3.73835459
Si      16.88267910       1.52936789       2.06175493
Si      18.50833753      37.35310539       1.77002353
Si      16.93140992      38.24679902       5.14479603
Si      14.95557546      38.91634626       4.06354956
Si      16.60565232       0.25206371       0.12880840
Si      14.60519753       0.91898549      39.02365784
Si      17.63265611      39.87199187      11.60548755
Si      15.77472879       2.73561089       9.90337839
Si      15.65269936       0.48147758      10.48803228
Si      13.79729296       3.40764017       8.80282610
Si      15.40371097      39.18516598       8.55576277
Si      13.83058963       0.12354961      11.91455328
Si      13.45013731      39.84255579       7.45009072
Si      11.85328845       0.77172065      10.87478778
Si      17.34590945       1.81945024       6.51134663
Si      15.43827712       4.75125264       4.84457283
Si      15.34640737       2.45980449       5.47214983
Si      13.46618235       5.40732560       3.75028634
Si      15.05053925       1.15241761       3.51638903
Si      13.53007955       2.11314312       6.89562852
Si      13.05961047       1.82151549       2.41992390
Si      11.52524622       2.74464859       5.80776102
Si      17.04850648       3.79631598       1.53252750
Si      14.99496886       4.46541217       0.36765665
Si      14.77221917       3.14564133      38.46324335
Si      13.20547388       4.10349968       1.87429412
Si      12.77354698       3.81435610      37.33144532
Si      11.23052590       4.73871305       0.76742545
Si      10.90900881       6.67941341      35.68024797
Si      12.18833920       4.31870873      12.23583861
Si      10.36261122       7.22919219      10.53118383
Si      11.96757517       3.05646392      10.30081561
Si       9.94443428       3.65379162       9.20922402
Si       8.42857206       4.57521050      12.52577044
Si      13.89742443       5.65937585       8.28030070
Si      12.04388236       8.60201555       6.59365183
Si      11.90900816       6.31932326       7.17943236
Si      10.03177419       9.19981350       5.49508141
Si      11.61218517       5.04947717       5.23624514
Si      10.07722782       5.95754917       8.59634825
Si       9.63618482       5.66034887       4.12192741
Si       8.06960161       6.59573455       7.50856281
Si      13.60147717       7.64445618       3.16775056
Si      11.67993848      10.54330723       1.55487010
Si      11.62236711       8.27272929       2.12181896
Si       9.72245966      11.19157872       0.43426485
Si      11.34892224       6.98252062       0.12837549
Si       9.75538302       7.93146622       3.54894022
Si       9.32349892       7.61183130      39.09322613
Si       7.78499515       8.53001720       2.47398833
Si       9.47910283       9.87561703      38.53045188
Si       7.45491089      10.51570692      37.41219888
Si       8.51652890       6.89538764      11.94206447
Si       6.54335717       7.48761540      10.91414182
Si      10.46316769       9.48939577       9.95242447
Si       8.48436091      10.19372620       8.88744349
Si       8.20083040       8.87681834       6.92246412
Si       6.63832713       9.78025840      10.33396842
Si       6.20765387       9.50832461       5.87126469
Si       4.66613539      10.44114088       9.23705735
Si      10.13249674      11.51553867       4.95945175
Si       8.14188399      12.12872912       3.83009044
Si       7.90122920      10.88257423       1.90620318
Si       6.33175177      11.76769393       5.27695896
Si       5.88354922      11.48938264       0.77690877
Si       4.31316401      12.42911311       4.21051003
Si       9.82313086      13.48323863      39.87490019
Si      18.43518486      31.86345120       5.44918031
Si      16.49136478      32.42048227       4.38742530
Si      15.00075612      35.65425205       7.16318856
Si      13.06947891      36.23896203       6.09928638
Si      12.61096914      32.70251700       4.69650662
Si      11.06410510      33.61684909       8.10684796
Si      16.59982220      34.69951991       3.77521372
Si      14.68642738      37.61847503       2.12295050
Si      14.59136344      35.37324806       2.69873821
Si      12.70163456      38.22951451       1.00285060
Si      14.32674919      34.05338662       0.76638283
Si      12.79819114      34.98990434       4.15236731
Si      12.30629006      34.66235449      39.66534581
Si      10.79039171      35.61754273       3.05280787
Si      14.39081782      39.58325229      37.05895960
Si      12.41094508       0.21742483      35.97720041
Si      12.45722109      36.97775263      39.06116889
Si      10.49009637      37.63327595      38.00497927
Si      13.43010593      36.58162350      10.57091750
Si      11.56435265      39.50397058       8.89431938
Si      11.50318153      37.19775188       9.47755676
Si       9.61162246       0.11061623       7.81376516
Si      11.17026891      35.94541030       7.49771677
Si       9.64284839      36.83927982      10.91048903
Si       9.22027593      36.51187230       6.42424507
Si       7.68045380      37.46184644       9.83755994
Si      13.13214432      38.55136930       5.52509369
Si      11.25762106       1.46482185       3.82110501
Si      11.15818837      39.21059825       4.43563551
Si       9.26837854       2.07740491       2.76800588
Si      10.89528134      37.87597257       2.46553870
Si       9.31047499      38.81161482       5.82330107
Si       8.86924862      38.53134687       1.41346121
Si       7.33781692      39.44632880       4.79385019
Si      12.82041260       0.51229117       0.47277608
Si      10.91682755       3.41986424      38.78897606
Si      10.80157182       1.11311019      39.39864699
Si       8.95668269       4.06909331      37.71825700
Si      10.54988999      39.81297242      37.40560361
Si       9.01671872       0.76494764       0.82014174
Si       8.55806051       0.48165688      36.34065974
Si       7.00527036       1.41266228      39.72093746
Si      12.44797636       2.50439363      35.42136283
Si      10.51220186       3.14493956      34.34003806
Si       8.61533755       6.04215456      32.63910496
Si      10.20876477       1.86540438      32.43880302
Si       8.64837205       2.74806129      35.72227629
Si       6.70791537       3.37323359      34.64583003
Si      10.01642589       0.42800947      12.32032047
Si       8.16592438       3.33836698      10.61788551
Si       8.03728733       1.07208073      11.21667654
Si       6.15882466       3.94693652       9.45763727
Si       7.75690679      39.77478709       9.30137952
Si       5.74071566       0.34796613       8.15946446
Si       9.73394354       2.37483729       7.24517780
Si       7.80851027       5.30682697       5.55038712
Si       7.70340248       2.99770340       6.14037260
Si       5.85638026       5.93249997       4.43452806
Si       7.43582794       1.76330400       4.16769618
Si       5.90712439       2.65539812       7.55988363
Si       5.44422017       2.33847159       3.09134118
Si       3.94493417       3.28779551       6.49086046
Si       9.39650420       4.34162893       2.19174429
Si       7.50942747       7.27114780       0.54060952
Si       7.38964576       4.99153459       1.09584371
Si       5.51542240       7.86681573      39.43960061
Si       7.12476428       3.72049633      39.14966211
Si       5.55456496       4.65577267       2.52355098
Si       5.12543237       4.34724028      38.01376456
Si       3.58591086       5.27231863       1.41787102
Si       9.09115708       6.32623440      37.09412870
Si       7.16146170       9.23111979      35.47725143
Si       7.07419252       6.96494270      36.04952361
Si       5.19049110       9.92305313      34.38657457
Si       6.82989482       5.71248500      34.08538247
Si       5.23229088       6.63137790      37.48428598
Si       4.80907318       6.30576192      32.95561691
Si       3.24257838       7.24032568      36.36573899
Si       2.74861823       7.77115623      11.22411434
Si       4.33997656       3.60722183      10.98456879
Si       2.33390776       4.23112704       9.88856164
Si       6.25548077       6.22014165       8.96756668
Si       4.39786199       9.13492991       7.26248557
Si       4.28312314       6.85950017       7.89778213
Si       2.43082844       9.76338122       6.18028777
Si       4.00635555       5.56564597       5.91140217
Si       2.45012614       6.51959076       9.28647980
Si       2.03380251       6.19992559       4.82126206
Si       0.45774971       7.09118446       8.20662906
Si       5.92418359       8.19007357       3.88809540
Si       4.06650320      11.12278034       2.19983639
Si       3.97196500       8.83766987       2.79749902
Si       3.71347998       7.53475573       0.88765374
Si       2.14483810       8.47703039       4.25959673
Si       5.61383188      10.19972698      38.83639204
Si       3.65992923      10.83694846      37.72991442
Si       0.56559974       9.37382763       7.64080581
Si       2.54184513      12.08498269       5.63428427
Si      10.47280792      34.32777897       1.11400085
Si       8.51103553      34.95152849       0.00772145
Si       8.18201715      36.92519454      34.97176148
Si       8.24621622      33.64868341      38.09469748
Si       6.25280042      34.27718756      36.97616188
Si       7.37693364      36.23030151       7.84519328
Si       7.27911148      33.90707399       8.42147071
Si       5.38293442      36.82528037       6.77843264
Si       8.93119021      35.26480353       4.48841820
Si       7.08938550      38.19570465       2.81453257
Si       6.94027891      35.88780663       3.37924730
Si       5.07909520      38.80362528       1.71350154
Si       6.67244501      34.58139378       1.44659630
Si       5.07547642      35.55114203       4.83551342
Si       4.68747945      35.23667842       0.37872152
Si       3.13098236      36.18426978       3.72849567
Si       8.62445708      37.23168756      39.42446885
Si       6.78772749       0.14438018      37.73329435
Si       6.62612387      37.89300309      38.34264790
Si       4.75685283       0.76053340      36.67472910
Si       6.34893634      36.60828619      36.39591151
Si       4.80870945      37.50006567      39.84238745
Si       4.38978686      37.21395172      35.28614333
Si       2.81305083      38.11405283      38.71828532
Si       8.28105507      39.22401976      34.36691607
Si       6.39762353       2.13278094      32.71293306
Si       6.28965316      39.80734115      33.28583951
Si       4.47677142      39.48238642      34.70746342
Si       3.96666963       0.03116565       9.58993805
Si       1.97901527       0.67178369       8.49744591
Si       3.59408979      36.47647990       8.18748865
Si       5.54025552      39.08604824       6.22785580
Si       3.62964673       2.00979484       4.53352372
Si       3.53938858      39.72474943       5.09566989
Si       1.64446781       2.62618021       3.45508624
Si       3.21696954      38.44184273       3.19574445
Si       1.69360740      39.38730301       6.52480564
Si       1.25357940      39.04844616       2.08361432
Si      39.69117761       0.00851731       5.46094137
Si       5.17247053       1.08539739       1.16389977
Si       3.30263828       3.96163273      39.47020636
Si       3.22560977       1.70692216       0.06483789
Si       2.95374820       0.43122304      38.11019285
Si       1.36024268       1.35716776       1.48931283
Si       4.87540678       3.00281299      36.09904306
Si       2.96967614       5.95376838      34.41143400
Si       2.90675862       3.68710750      35.01152737
Si       2.08959381       2.93348373       7.92746212
Si       0.18645050       5.84597763       6.23817449
Si       0.07203928       3.57021181       6.86421461
Si       1.74889746       4.89522680       2.87056892
Si       2.84801250      34.87721544       1.82503777
Si       0.91074823      35.51399739       0.69685568
Si       4.44497262      33.93320002      38.40113180
Si       2.55995296      36.82767990      36.75972522
Si       2.42322409      34.54756723      37.32145075
Si       1.29479143      35.80766676       5.18486664
Si      39.41740823      38.71934885       3.52895003
Si      39.37488187      36.47704942       4.09997434
Si       1.01037128      37.78134729       0.12474728
Si      10.54041033      37.18585545      23.20238193
Si      11.63115444      37.91265864      17.96973862
Si       8.79398451      36.23162799      19.94110972
Si      12.72718809      38.61457311      12.71974971
Si       9.85369843      36.98261106      14.63880298
Si       5.96062601      34.60642795      21.93565406
Si       7.01892762      35.35950026      16.59981573
Si       8.12126694      36.11663221      11.37569185
Si      15.28457758      36.82746886      18.50886308
Si      16.05219831      34.08799443      21.12427517
Si      16.35897259      37.57071127      13.28175787
Si      17.38142151      36.46723522      17.51397322
Si      19.95672595      36.50898300      13.85106810
Si      17.10949278      34.86323765      15.84587702
Si      18.39486802      37.21921881      12.25194435
Si      18.23017824      35.58459136      10.57955961
Si       8.48510459      32.79016702      27.80284069
Si       9.25470572      30.05872791      30.30918302
Si       9.78217729      35.15947614      24.14363278
Si      11.34678628      34.43973795      25.79596742
Si       9.56617774      33.51651185      22.52228589
Si      13.42013320      34.07626682      24.80589204
Si      10.60451114      32.44106684      26.75590554
Si      13.17254626      32.45999521      23.12358237
Si      10.40298588      30.78188011      25.11073082
Si      12.60134811      36.81654188      22.20850749
Si      10.84828512      35.93974345      18.90399955
Si      12.41766145      35.16935264      20.50739586
Si      10.66294042      34.24206752      17.23988793
Si      14.48326419      34.81384886      19.51971287
Si      11.64842305      33.17398552      21.50781874
Si      14.29128989      33.20538474      17.88903855
Si      11.41983459      31.53295399      19.80480966
Si      13.71941450      37.55160880      16.92750439
Si      11.94276483      36.64564865      13.63439221
Si      13.51240212      35.88902844      15.25033935
Si      11.71438097      35.00769048      11.96077322
Si      15.56661356      35.52501567      14.26742662
Si      12.73438029      33.91974083      16.23394569
Si      15.36452256      33.93844023      12.59930789
Si      12.53678408      32.25383543      14.50656639
Si      13.85850622      34.64937414      11.01534793
Si      13.62213916      32.99804652       9.28721820
Si       5.86549285      32.79037303      31.45573266
Si       4.07200709      31.87703010      28.09871219
Si       5.62272543      31.15530939      29.76598678
Si       3.84236816      30.22480101      26.49429020
Si       7.77072649      30.78695875      28.70810633
Si       7.50825483      29.14262944      27.11244225
Si       6.93144087      33.57100527      26.16779319
Si       5.18622675      32.63057704      22.84119716
Si       6.73840745      31.88912633      24.50808748
Si       4.95023086      30.93384321      21.23792105
Si       8.83879893      31.53483553      23.46094382
Si       5.98148518      29.92664647      25.44405093
Si       8.61411033      29.87601052      21.81179470
Si       5.72245842      28.24392814      23.79327577
Si       8.02778846      34.24735822      20.91268035
Si       6.26729724      33.34920067      17.58899999
Si       7.76886422      32.58839039      19.20977039
Si       6.06144019      31.69057710      15.94638002
Si       9.88143601      32.28257481      18.21302682
Si       7.04092302      30.58546268      20.20297249
Si       9.70651530      30.63100604      16.52780545
Si       6.84415879      28.98562658      18.52080181
Si       9.09542159      34.98186670      15.66950995
Si       7.34788320      34.04897873      12.35284163
Si       8.87657513      33.34858421      13.94298933
Si       7.17170978      32.44765026      10.68664941
Si      10.95980450      32.94230557      12.93173813
Si       8.13366823      31.38017475      14.91294038
Si      10.79529236      31.32444600      11.25542545
Si       7.93409819      29.73657518      13.24748843
Si       9.27593523      32.06165498       9.65687599
Si       3.12145499      28.26117810      27.45883491
Si       2.94278802      26.58720719      25.77704948
Si       4.20012935      28.94182559      22.15728131
Si       3.97323839      27.30267243      20.50732333
Si       5.26989968      29.68867465      16.91977818
Si       5.08038233      28.02674190      15.20734677
Si       6.39877695      30.42211481      11.61276620
Si      16.85902899      31.42646273      23.71849743
Si      18.12191757      33.75779410      20.08014444
Si      17.93143182      32.11405077      18.42501505
Si      18.72985270      29.39549198      21.00397842
Si      19.25938472      34.46430258      14.81926718
Si      20.75607180      33.73867989      16.44627841
Si      19.03945554      32.84685866      13.18743887
Si      20.00519009      31.77369833      17.41378258
Si      22.66245187      31.75648456      13.77809575
Si      19.78846495      30.12708442      15.74401246
Si      21.85714872      34.47383784      11.18357403
Si      21.12066984      32.49196048      12.15364093
Si      23.72115705      32.49874896       8.52753192
Si      20.90491139      30.84804181      10.48942589
Si      11.12491057      28.07568542      27.64651565
Si      14.78130289      26.98987656      28.28464618
Si      12.41985037      30.44348561      24.07905805
Si      13.99560366      29.74694236      25.67657793
Si      12.26346816      28.80227505      22.38915126
Si      16.09127068      29.38481154      24.69437586
Si      13.23944778      27.71652517      26.67012166
Si      15.86355433      27.71691028      23.00717676
Si      12.98959344      26.07893172      24.99682778
Si      15.31913333      32.11880376      22.09223140
Si      13.52044652      31.21867143      18.74496856
Si      15.07815664      30.45147861      20.39811756
Si      13.32163263      29.52641487      17.13952050
Si      17.11758323      30.07538660      19.38964461
Si      14.31451720      28.43370473      21.40465490
Si      16.93458594      28.45919565      17.72981706
Si      14.10425565      26.83086431      19.71197409
Si      16.34603496      32.82176609      16.82247840
Si      14.63322104      31.90872377      13.49927599
Si      16.18386239      31.16075465      15.14852440
Si      14.41650145      30.26327692      11.89421905
Si      18.28614690      30.80673927      14.15259819
Si      15.38140335      29.20194403      16.07860067
Si      18.04440384      29.17450888      12.46382145
Si      15.19771899      27.52519384      14.44281273
Si      17.51122955      33.58586088      11.54976010
Si      15.68184375      32.66124481       8.23861065
Si      17.26914581      31.88783912       9.86368527
Si      19.32565536      31.57949380       8.85352842
Si      16.45126143      29.91622904      10.82209653
Si       6.73229980      27.11370138      28.03384398
Si       6.53863839      25.50308801      26.37578360
Si      10.36913169      26.06459914      28.66204423
Si      10.12604655      24.41816053      26.97794348
Si       9.59477942      28.82394663      26.03882578
Si       7.82206498      27.90839326      22.78345562
Si       9.37264793      27.12587120      24.37457565
Si       7.65683353      26.21131967      21.07669416
Si      11.49435081      26.79414463      23.36580537
Si       8.63873830      25.14601778      25.34189650
Si      11.25993984      25.16045422      21.70186461
Si       8.38442551      23.56575670      23.72029862
Si      10.72001920      29.55187568      20.79098580
Si       8.94340625      28.60785912      17.52897496
Si      10.46336891      27.89146257      19.13087349
Si       8.73445945      26.93741101      15.80260672
Si      12.56116370      27.50674770      18.15413890
Si       9.73836363      25.86483484      20.05982206
Si      12.33964247      25.85652536      16.43288064
Si       9.48912546      24.24787816      18.40926700
Si      11.79017973      30.27852159      15.53189811
Si      10.03916459      29.31850996      12.22491668
Si      11.58699011      28.61598468      13.89305168
Si      13.67709356      28.28923619      12.84257914
Si      10.79538009      26.60583787      14.80896341
Si      12.90868771      31.03080681      10.27732748
Si       5.00993609      26.23318747      24.75648991
Si       4.79267427      24.59020907      23.11986783
Si       6.87211490      24.23033176      22.06825406
Si       6.63170401      22.61310266      20.40281869
Si       6.07321534      26.98195390      19.49106794
Si       5.82992966      25.31981838      17.80501481
Si       7.19744549      27.68748858      14.22476979
Si      21.88181205      29.69797699      14.73709268
Si      21.68072898      28.07959986      13.04630099
Si      22.97631362      30.48138580       9.49405187
Si      13.99159814      24.99451067      29.20605484
Si      13.81393627      23.34605952      27.57956687
Si      15.12047606      25.71832650      24.01713470
Si      16.66259565      24.96329919      25.59206557
Si      14.91534901      24.07671487      22.29484813
Si      17.95264899      27.33048406      21.98511206
Si      16.19259227      26.39327809      18.66026017
Si      17.76172610      25.74705652      20.28491401
Si      15.98921239      24.81918941      17.03122288
Si      16.96257511      23.70815687      21.30013517
Si      16.76029779      22.09554196      19.62494066
Si      19.05327452      28.08615409      16.71286001
Si      18.86384537      26.44760041      15.06156283
Si      20.09793144      28.79283401      11.45397450
Si      12.82436936      19.69421490      26.86693924
Si      12.29023445      24.06039474      25.91807798
Si      10.51445044      23.12494668      22.64491663
Si      12.04947269      22.43568275      24.29568197
Si      10.31826141      21.46252675      20.98214411
Si      14.14086035      22.09207844      23.28553507
Si      11.27706260      20.39028205      25.25202830
Si      13.38698446      24.81308307      20.68687750
Si      13.12799188      23.16985858      18.99622045
Si       7.67426744      21.53206669      24.61536882
Si      33.36033244       6.58264735      15.71627447
Si      37.08816161       4.94796226      12.07477517
Si       2.49824402       8.80211846      15.84386997
Si      33.29325252       6.81712709      19.53119537
Si      36.01541324       8.73073553      21.40433185
Si      33.19085653       7.06604178      23.36967255
Si      35.64312254       7.13180069      15.70728492
Si      36.08134275       8.52581506      17.60009227
Si      36.94752340       5.16448309      15.89211441
Si      38.41365390       9.08415638      17.64135723
Si      35.55455031       7.38263690      19.55882360
Si      39.67667131       7.13601091      17.71564978
Si      36.85862503       5.41459740      19.72529283
Si      38.45067962       8.83793538      13.79526816
Si      39.35157187       5.48758463      12.06319487
Si      39.74596836       6.92238154      13.93777844
Si       0.59537051       3.58871916      12.25003354
Si       2.05540999       7.45040193      13.98193783
Si      39.24558364       5.75405051      15.92574278
Si       3.34441872       5.49282422      14.12364870
Si       0.53213956       3.79117350      16.06753045
Si       2.89456955       4.14154499      12.28578229
Si       4.21362479       2.15478098      12.40822714
Si      32.72569813       5.65765428      21.54932820
Si      34.04142807       3.69347921      21.68429869
Si      32.85181907       5.41959994      17.70094510
Si      34.10411084       3.47164667      17.84854470
Si      36.41670275       4.01531833      17.89564669
Si      37.72749168       2.05071597      18.04676243
Si       0.06626729       2.43182249      14.25123824
Si       1.37099681       0.45485769      14.37091665
Si       0.17824454       2.15424296      10.39627775
Si      38.74334861      10.73870958      23.29713514
Si      38.62074218      10.97216096      27.09384408
Si       2.39255196       9.07061253      19.64514978
Si       0.99841666      11.28733993      23.27627309
Si       5.13177665      11.03486384      21.51649930
Si       2.28537256       9.34083197      23.45531170
Si       4.78336326       9.37528216      15.81119474
Si       5.21028198      10.78250370      17.70233349
Si       6.06337454       7.42933315      15.99001579
Si       4.65431380       9.65208127      19.71155863
Si       5.96312354       7.70801867      19.82183693
Si       8.35210895       7.99571838      16.00742529
Si       9.64873547       6.03462326      16.14123374
Si      35.43485671       7.65067108      23.36577087
Si      35.91975841       8.99478984      25.25968042
Si      36.74232244       5.64471909      23.54448349
Si      38.17949837       9.54015991      25.25521062
Si      35.37514040       7.86376798      27.25042332
Si      39.45694736       7.62584557      25.44333150
Si      36.65493359       5.86782966      27.41068125
Si      38.29740272       9.29739124      21.43249760
Si      39.10405650       5.97639155      19.75452959
Si      39.62018966       7.38850495      21.54373571
Si       0.42064910       4.02861162      19.88607755
Si       1.87427233       7.89804554      21.57781843
Si      39.01954920       6.25555496      23.54035903
Si       3.15033907       5.95660743      21.76390586
Si       0.29924844       4.26622876      23.73716077
Si       1.92994031       7.66854400      17.78017818
Si       2.80194102       4.35393812      16.08789165
Si       3.23503414       5.73885209      17.96356589
Si       4.11569847       2.40004223      16.26924804
Si       5.55953347       6.27118659      17.94279662
Si       2.71587484       4.57310951      19.91917888
Si       6.82983991       4.38298513      18.10718879
Si       3.99776340       2.63303792      20.11983282
Si       5.62057728       6.08060324      14.12579324
Si       6.51875815       2.71042546      12.47747053
Si       6.91121459       4.10652371      14.27956731
Si       9.23573186       4.67609174      14.33418306
Si       6.37661052       2.97636684      16.25878530
Si      10.51478897       2.68888182      14.46223459
Si       7.65282282       0.99160144      16.43412288
Si      32.59966954       5.87220785      25.35295131
Si      33.45052100       2.58244581      23.67851235
Si      33.91923276       3.93410620      25.48830020
Si      36.23102232       4.54549179      25.55941175
Si      33.38119338       2.80441321      27.49957839
Si      37.49843946       2.56201666      25.68897707
Si      34.68174768       0.83933541      27.64734958
Si      36.28387929       4.30022773      21.68228963
Si      37.15747213       0.94683813      19.98402947
Si      37.62446461       2.31370462      21.90540440
Si      39.90939870       2.91087547      21.86975839
Si      37.04952817       1.20158356      23.84959268
Si       1.18160750       0.96197118      22.03390575
Si      38.34282469      39.24859127      23.99838827
Si      39.98521270       2.62196502      18.09453628
Si       1.28938148       0.66336439      18.21202246
Si       3.58906167       1.25023487      18.21130019
Si       0.75303120      39.58174916      20.22572573
Si       4.90693659      39.30458445      18.38371903
Si       2.00553785      37.61293136      20.32320613
Si       3.63092879       1.02547627      14.39715291
Si       4.95199983      39.05149515      14.54309522
Si       7.22629929      39.62757898      14.61525372
Si       4.39247705      37.88643509      16.55684347
Si       0.89867587      11.48907917      27.14833399
Si       2.25512923       9.56482002      27.30044927
Si       4.55116267       9.88151419      23.50230037
Si       5.04799591      11.26189278      25.32123539
Si       5.91672040       7.92760399      23.63543598
Si       7.28945733      11.87520719      25.34944978
Si       4.51402165      10.09484703      27.28293457
Si       8.62535023       9.90161991      25.52561583
Si       5.74485819       8.23970750      27.47885214
Si       7.39621546      11.57126992      21.51088732
Si       8.26698762       8.24531555      19.85416772
Si       8.73202604       9.63153683      21.67027404
Si       9.57234032       6.28552953      20.00061390
Si       8.17813562       8.49273860      23.66890393
Si       9.44083508       6.56318441      23.85232780
Si      38.97446978       6.47859908      27.38905217
Si      39.36859313       7.85140349      29.26284449
Si       0.23433448       4.50689686      27.55929380
Si       1.65999597       8.40400635      29.30300449
Si       2.95843292       6.49352098      29.42938174
Si       0.11859932       4.75109162      31.37554372
Si       1.74675283       8.18205875      25.43154987
Si       2.61814326       4.83724545      23.73913354
Si       3.09703452       6.20779776      25.61358259
Si       3.92468779       2.91201188      23.90299697
Si       5.33780420       6.81656118      25.62317535
Si       2.52755429       5.09283968      27.60752358
Si       6.65120288       4.83008906      25.77580953
Si       3.78945402       3.14115557      27.75415501
Si       5.40819435       6.55006845      21.80845296
Si       6.27027048       3.19349871      20.09314085
Si       6.72814938       4.55011159      21.94665492
Si       7.57876470       1.26184507      20.27207898
Si       8.98758443       5.17818412      21.96893798
Si       6.16473692       3.46293477      23.95847947
Si      10.27073864       3.22743470      22.11510702
Si       7.47873667       1.53212154      24.07544450
Si       9.09461591       4.88887884      18.14902425
Si       9.95154000       1.59118824      16.45202944
Si      10.40192058       2.94687520      18.35305098
Si      11.28792097      39.58600511      16.62373941
Si       9.84923348       1.79903614      20.29871464
Si      11.11403827      39.88077055      20.44948946
Si      13.52701972       0.17013488      16.61000554
Si      36.95694599       1.41044238      27.67559692
Si      37.40548356       2.82422199      29.52219469
Si      38.23748814      39.45741421      27.83430602
Si      39.71841477       3.33615120      29.56665164
Si       0.96284199       1.41324866      29.70673708
Si      38.12550619      39.70703644      31.70866398
Si      39.74917793       3.14376655      25.74795371
Si       0.64390714      39.81425981      24.04274016
Si       1.07398872       1.17373293      25.92571385
Si       1.94390330      37.87572007      24.18984148
Si       3.33645374       1.77003749      25.86323379
Si       0.53663019       0.04453959      27.88369759
Si       4.65503971      39.81820781      26.06090055
Si       1.79583403      38.06698281      28.03615891
Si       3.49720082       1.46745664      22.08123241
Si       4.31132750      38.15162315      20.40772993
Si       4.75162759      39.57023286      22.27390796
Si       5.62406615      36.20391665      20.54554335
Si       7.03103789       0.13886332      22.24748232
Si       4.21115210      38.39178589      24.18336651
Si       8.29820853      38.13984188      22.40089317
Si       5.47936214      36.46105639      24.37550553
Si       7.11914373      39.85344070      18.43804009
Si       8.38566673      37.93265268      18.59395742
Si      37.73206193      38.33042203      29.84396032
Si      38.98668730      36.37859931      29.97638800
Si       1.38042886      36.70844613      26.18191772
Si       5.69300365       8.42207902      31.31257622
Si       8.07960612       8.71928652      27.48175828
Si       9.35523879       6.78284118      27.61258773
Si       2.37751861       5.31423199      31.44082330
Si       3.75005633       3.37033291      31.58714929
Si       5.25579469       7.00725364      29.42177003
Si       6.12590927       3.70138828      27.78588872
Si       6.54644441       5.05917715      29.60370738
Si       7.37717177       1.76018527      27.90107291
Si       8.81520471       5.68112981      29.66930536
Si       5.97659554       3.94892548      31.61389796
Si      10.10653010       3.66969701      29.76898542
Si       8.93872957       5.38373592      25.80735024
Si       9.75965688       2.08671813      24.11596699
Si      10.24660599       3.42651472      25.95167564
Si      11.05982227       0.11514897      24.28327931
Si       9.64394578       2.32728859      27.93372347
Si      13.42390048       0.41881964      20.44135956
Si       0.43849229       0.27695129      31.70589325
Si       1.73121003      38.33429397      31.87503683
Si       3.26940540       2.01722591      29.69803358
Si       4.09009961      38.60332150      28.05037482
Si       4.54773101       0.03203489      29.86079113
Si       5.40297162      36.67157360      28.18698764
Si       6.87041999       0.60606362      29.88198792
Si       4.00262175      38.89632758      31.85664944
Si       8.11324080      38.63252913      30.05884487
Si       5.27079347      36.95899298      32.03498060
Si       6.92217253       0.36774333      26.07772073
Si       7.76066282      37.00079976      24.36768965
Si       8.21184266      38.39055031      26.26874578
Si      10.55769036      38.97328373      26.27493506
Si       7.73618773      37.24126314      28.25104839
Si      10.63814442      38.72908214      22.42235458
Si       1.18961548      37.15660914      33.82073167
Si       2.50311680      35.21805265      33.99909820
Si       1.27768845      36.93520137      30.05098696
Si       2.60378059      35.01586682      30.16854311
Si       4.84204062      35.54239520      30.17833279
Si       2.03473720      33.83374747      32.15155294
Si       4.94089846      35.29749556      26.32669444
Si       6.37925869      11.34574171      14.41748187
Si       8.50676430       9.93525451      11.54505228
Si       6.34131772      10.70241890      12.10385817
Si      10.05297511      11.67933382      11.83201709
Si       5.77823603      12.57578542      10.82983987
Si       9.47891465      13.47599582      10.50414912
Si       5.72205777      11.95338378       8.56458588
Si       5.09279855      13.81399359       7.23666830
Si      15.27182358      13.15896651       7.34804876
Si      13.19264600      14.53472964      10.15781645
Si      11.57706288      12.18012470       7.57928524
Si       9.46289449      12.93674248       8.24218407
Si      13.11281185      13.89178401       7.94821097
Si       8.85343344      14.77490090       6.93052663
Si      12.56378912      15.70848863       6.61182761
Si      16.80987943      14.84426618       7.64240785
Si      16.23397628      16.70789349       6.34553270
Si      19.94713765      17.70887241       6.00040850
Si       7.94645048      13.73771829      16.99363056
Si       9.54077710      16.06827280      19.56546063
Si       3.66500938      13.94027060      13.70328786
Si       5.85561410      14.48383925      17.62508565
Si       5.19590596      16.30092476      16.31834212
Si      11.62419851      14.03204931      14.40471973
Si      11.04249404      15.87159112      13.08685980
Si       9.51309445      15.44701811      17.34313868
Si       8.93217888      17.28386167      15.98891751
Si      12.61509843      18.26644860      15.63172662
Si       7.93683149      13.09594610      14.74225104
Si       7.31128566      14.26660797      11.11354454
Si       7.36190316      14.89373693      13.40022004
Si       6.69300470      16.10701011       9.76550996
Si       5.21938190      15.65298019      14.00609748
Si       8.90481257      16.61169180      13.74301424
Si       4.62690688      17.50691359      12.73411552
Si       8.33040889      18.51729643      12.40611841
Si       3.64032100      13.28200567      11.47572521
Si       3.01173505      15.17686306      10.09933964
Si       4.60077716      16.90125805      10.44239157
Si       4.01684449      18.75196609       9.12044950
Si      16.32203723      19.26637483      15.38461851
Si      14.73489268      16.24722464      10.51890042
Si      14.76692518      16.87204245      12.76686016
Si      14.12467069      18.10273355       9.23529657
Si      12.63916626      17.60797136      13.41574185
Si      16.30394147      18.60015412      13.08150821
Si      12.04437560      19.49279767      12.10608866
Si      15.69603609      20.44036418      11.74607170
Si      11.01732388      15.31350425      10.80880367
Si      10.46001818      16.49185088       7.25623956
Si      10.42540903      17.12694945       9.51329580
Si       8.27345007      17.87271238      10.16912459
Si      11.95616429      18.85481498       9.84830254
Si       7.70772244      19.72449961       8.80843045
Si      11.39827420      20.70648522       8.49699854
Si       6.68854186      15.55602102       7.51775640
Si      19.40301744      21.41620811      11.49917727
Si      17.82529088      18.45270140       6.62219728
Si      17.83272680      19.10100231       8.88980714
Si      17.18759421      20.33439272       5.28226054
Si      15.66494899      19.81245562       9.51329240
Si      19.39360618      20.82465372       9.21882765
Si      15.08829287      21.66496832       8.22780274
Si      18.81291756      22.61307041       7.90334028
Si      14.09051831      17.48980503       6.90811470
Si      11.35795037      20.05951429       6.22898199
Si      15.06776563      21.05307836       5.98523177
Si      23.09871628      21.79426635       8.89807007
Si      22.47137949      23.64073898       7.59628715
Si      21.48211111      19.46344494       6.29847304
Si      20.88251839      21.26320598       4.99695607
Si      18.74263956      22.04087063       5.63985138
Si      22.48624102      23.02013561       5.34227817
Si      18.17864457      23.89730032       4.28299754
Si      21.86239628      24.86513218       4.03096701
Si      11.11633761      18.40399917      22.13535945
Si       7.40061024      16.82139401      20.16148863
Si       6.84640747      18.67265459      18.90224022
Si       8.98337217      19.13661314      22.79046520
Si      14.25598230      20.60622222      18.25274309
Si      11.05214922      17.76436301      19.88955304
Si      10.46709620      19.01878103      16.31035030
Si      10.52536254      19.67074699      18.55860690
Si       9.94047400      20.89174761      14.98571783
Si       8.39613014      20.40238782      19.18593191
Si      12.05532340      21.38114336      18.87251473
Si       7.78350340      22.23821466      17.86066095
Si      11.48913036      23.22285588      17.56817620
Si       6.81770371      18.03383319      16.56462640
Si       6.15683498      19.21413894      13.05434992
Si       6.21095991      19.91256927      15.26605718
Si       5.54286658      21.16864843      11.72439351
Si       7.77219858      21.62640777      15.62420839
Si       7.15759361      23.47185479      14.31235380
Si       1.86996147      19.49106532       9.72162456
Si       3.44103982      21.91220612      12.32506541
Si       2.86925295      23.72361276      10.97852302
Si      17.90071734      20.95482002      15.69055634
Si      17.27988480      22.81382045      14.34842669
Si      14.18732008      19.97405553      15.97850737
Si      13.60520816      21.21319366      12.40047780
Si      13.59045388      21.82063487      14.66041152
Si      12.98348789      23.05280310      11.10812924
Si      11.45936615      22.62240041      15.28914575
Si      15.18930579      23.56128457      15.00767787
Si      10.89278773      24.41798532      13.95888448
Si      14.56216058      25.40532956      13.67780302
Si       9.85929330      20.23685373      12.70094320
Si       9.25639512      21.41601946       9.14222214
Si       9.25425901      22.07248677      11.41582983
Si       8.68721435      23.29540463       7.79828515
Si       7.11168874      22.86082112      12.04815500
Si      10.85364245      23.79313652      11.75842389
Si       6.53750826      24.67692968      10.69440751
Si      10.23529999      25.65017330      10.40989468
Si       5.54058079      20.52896754       9.41578103
Si      21.01476997      23.15983946      11.78847269
Si      20.99027849      23.78426067      14.06564288
Si      20.36953613      25.02585205      10.49214570
Si      18.87350945      24.50981931      14.67481038
Si      18.24517222      26.37651746      13.39216104
Si      17.26388442      22.21456658      12.13900953
Si      16.64712660      23.40633171       8.49466838
Si      16.69433273      24.01110531      10.79332901
Si      16.08932895      25.27394161       7.19464420
Si      14.53165354      24.78004185      11.41643184
Si      18.22074629      25.71785362      11.12858921
Si      13.96631797      26.65010577      10.11966694
Si      17.62855000      27.61173880       9.80753444
Si      12.94535043      22.42481061       8.82943326
Si      12.36025401      24.27781265       7.50190273
Si      10.20922566      25.01817370       8.09534648
Si      13.90969736      26.01454547       7.80729952
Si      24.06401047      25.32695750       7.91089771
Si      23.45894981      27.20460406       6.60450442
Si      21.97895571      26.69246876      10.79364038
Si      21.35962088      28.60229387       9.48559598
Si      20.33608686      24.38650431       8.23624906
Si      19.74665728      25.58439626       4.62134747
Si      19.76990639      26.26199860       6.89448435
Si      17.62673484      26.95749085       7.51529292
Si      21.30823259      27.93384068       7.21142835
Si      17.04174262      28.83947001       6.21557139
Si      20.75360545      29.82958364       5.87002971
Si      23.45022272      26.56176529       4.37139265
Si       5.00569968      24.18943009      14.87175209
Si       4.43011115      26.06437524      13.63986753
Si      12.42976377      26.17530875      14.28848637
Si       8.74085298      25.17352560      14.58992456
Si       8.10056302      26.41973544      11.09711230
Si       4.39892348      25.43352409      11.33348863
Si       5.37434040      29.02951352      10.36731472
Si      15.52503549      28.40384747      10.42241675
Si      14.93254395      30.20214632       9.13283244
Si      11.81766766      27.40455545      10.78322569
Si      11.18265507      29.26779714       9.40018990
Si       9.06996269      30.01780248      10.02646782
Si      19.21728164      29.31370457      10.11963020
Si      18.59198131      30.53651292       6.55115657
Si      21.23172359       4.42326066      29.80333597
Si      27.65066353       3.15774898      28.29408661
Si      23.59394319       4.59453090      29.75694835
Si      24.36926861       5.06663280      27.60827240
Si      26.95149139       1.50356657      26.79875649
Si      27.77370973       2.00322171      24.67119942
Si      24.14648365       8.83919635      28.41272926
Si      23.90648068      12.61967854      29.23200988
Si      27.39889223       6.90360121      29.14149936
Si      30.47129991       7.58746019      26.96471108
Si      26.77112879       5.25922137      27.62950130
Si      26.48014561       9.00536250      28.41596838
Si      27.49550994       5.72636118      25.46772797
Si      27.22631901       9.45836747      26.25720618
Si      30.76631252       3.85812356      26.18330886
Si      30.11082129       2.15701371      24.68334081
Si      29.85547045       5.85702937      25.50297793
Si      30.88119797       2.65718653      22.50606937
Si      30.67149808       6.39572017      23.31285512
Si      29.62269375       9.66697931      26.30705243
Si      14.98688365       4.49523663      27.54024145
Si      14.74864681       8.23592334      28.32229263
Si      20.38740532       6.51642914      29.04161630
Si      18.01186793       6.33220026      29.03057070
Si      21.14262708       6.98528265      26.87994514
Si      17.37131837       4.63705923      27.54018159
Si      18.10814036       5.17334582      25.39675429
Si      17.91138207       8.91516494      26.17487161
Si      23.70282558       3.35751080      26.10876568
Si      21.35881348       3.25035193      26.08850181
Si      24.50121884       3.90689629      23.95602713
Si      20.71557282       1.59619602      24.62618655
Si      20.47473436       5.28132554      25.40213011
Si      21.46274483       2.05152963      22.45214139
Si      21.25664510       5.79052495      23.26619678
Si      27.06860457       0.29986933      23.20463855
Si      24.73460812       0.12383389      23.14430436
Si      27.86351848       0.84141631      21.03008845
Si      23.85525004       2.23933095      22.48423924
Si      24.86110667      38.99446502      19.52553938
Si      24.58718172       2.71072815      20.30392406
Si      27.19604563      39.14342274      19.47242055
Si      27.94923590      39.60650708      17.37298850
Si      17.63797093      12.63377622      27.00040062
Si      17.40213013      16.37660802      27.74156972
Si      23.23580589      10.86321658      27.73931102
Si      20.86317896      10.75244976      27.66354196
Si      24.05647030      11.37994200      25.55399025
Si      20.21537005       9.04880997      26.22312385
Si      20.00435213      12.80265289      27.00739638
Si      20.96309966       9.59414728      24.06427013
Si      20.70432334      13.31471903      24.83706697
Si      23.46344658       7.13634154      26.95264122
Si      26.60710843       7.80117427      24.76245759
Si      24.23547504       7.65753317      24.76093368
Si      27.33184287       8.32791438      22.63411036
Si      23.58540327       5.99951362      23.28725000
Si      23.33260528       9.73031305      24.05396783
Si      24.34273674       6.47041373      21.07503541
Si      24.11669865      10.27534188      21.93300263
Si      26.80086818       4.06068788      24.00631986
Si      29.94872133       4.74670351      21.82758221
Si      27.60299564       4.57386542      21.80547212
Si      30.73011524       5.22040631      19.64428610
Si      26.93498804       2.89585719      20.33945165
Si      26.69742279       6.63654694      21.09969878
Si      27.70677083       3.41855650      18.17466883
Si      27.47634130       7.15354788      18.95223465
Si      30.08138542       3.52761584      18.19739707
Si      30.82301496       4.05189597      15.99229707
Si      23.07419424      13.43740414      24.88560948
Si      26.34229340      11.53657443      25.59942261
Si      26.43790259      10.38407344      21.93032038
Si      27.26129386      10.87548341      19.75088925
Si      29.69588429       8.48497868      22.63715159
Si      29.79785103       7.29951497      18.96271448
Si      30.59765478       7.82660007      16.84913471
Si      11.73954091       6.40471162      26.79036173
Si      15.10212782       3.31682391      23.86940983
Si      11.81779833       5.23396204      23.12891649
Si      18.48711447       0.21800821      20.90386124
Si      14.42842394       1.59145143      22.40915575
Si      15.23452106       2.15816809      20.23339636
Si      21.82456743      37.16023244      18.01623336
Si      18.55436026      39.09195819      17.30580522
Si      13.82742416      10.29206909      27.66069818
Si      14.61866458      10.80740888      25.46430598
Si      10.84862746       8.48688386      26.14169496
Si      11.61227109       8.97788407      23.95786493
Si      14.08632302       6.55393028      26.80286931
Si      17.22502167       7.24844907      24.69054195
Si      14.87767070       7.05441789      24.68486743
Si      18.00178201       7.72006619      22.56618054
Si      14.18106162       5.40121781      23.17797910
Si      14.94069299       5.91403650      21.01917235
Si      17.49254226       3.48458746      23.88767300
Si      20.56592417       4.14611999      21.76095913
Si      18.21003713       4.00409534      21.71693971
Si      21.32693025       4.64455920      19.61963450
Si      17.56685775       2.25182711      20.23702901
Si      17.32692057       6.02052231      21.02707615
Si      18.33406662       2.83003660      18.08160157
Si      18.07793227       6.54151122      18.89432732
Si      20.81232611       0.38119035      20.94566274
Si      23.95001475       1.03868146      18.81353090
Si      21.60366086       0.89440191      18.76963591
Si      24.73101444       1.54103320      16.66797210
Si      20.92410415      39.20996732      17.28776354
Si      20.67652289       2.93699372      18.06492600
Si      21.73485417      39.74089996      15.14778956
Si      21.46375502       3.45433336      15.92047941
Si      24.15177762      37.30013468      18.00667038
Si      24.96602694      37.78328612      15.83740856
Si      24.27819147      36.11159679      14.35501902
Si      24.01033132      39.82816271      15.17004675
Si      24.80980759       0.38547890      12.99321901
Si      16.70807261      14.70246238      26.32019292
Si      16.91980820      10.95237816      25.50105667
Si      20.06815196      11.60050619      23.34054821
Si      17.70030092      11.46100253      23.37917511
Si      20.87482817      12.14446826      21.17860871
Si      17.06887848       9.70394657      21.87627555
Si      20.31499894       7.84510628      22.53200562
Si      23.43069734       8.53862096      20.43183118
Si      21.07640200       8.42522070      20.37244976
Si      24.27607868       9.06610145      18.27036635
Si      20.45616723       6.71347713      18.87905057
Si      21.20532471       7.19256897      16.75319506
Si      23.66536558       4.78750195      19.61253867
Si      26.78971465       5.45774008      17.44393870
Si      24.44974433       5.28217097      17.46663281
Si      27.55739261       5.95708383      15.31723610
Si      23.82937704       3.60921600      15.96466096
Si      23.54670252       7.33898067      16.77073011
Si      24.51941688       4.13468664      13.83044560
Si      27.05918481       1.71120222      16.66437431
Si      27.82940281       2.20317438      14.52228744
Si      27.13195042       0.50337476      13.03416054
Si      26.91811385       4.29489680      13.83632004
Si      23.18660896      12.30486450      21.21228503
Si      26.55893321       9.21836412      18.24155794
Si      27.33177786       9.71270424      16.12328211
Si      26.68914573       8.03285029      14.60143654
Si      29.93202570       6.10635348      15.32618770
Si      30.69728943       6.61117260      13.19843067
Si      14.55702885       0.41646177      18.70106280
Si      15.27085481       0.94858017      16.56616846
Si      10.90346778       7.29277759      22.48997750
Si      14.27778459       4.21448437      19.54202118
Si      17.41731311       4.89893505      17.38567525
Si      17.63771970       1.10853692      16.55632343
Si      20.81207142       1.79718274      14.41721557
Si      18.42250613       1.62275196      14.41111613
Si      21.57007277       2.28685963      12.27719349
Si      21.06103314      38.01749986      13.65902404
Si      24.16300151      38.66060864      11.50918634
Si      21.75421115      38.57161927      11.52068126
Si      20.54294527       5.51072143      15.23974853
Si      23.88561291       2.42141064      12.28633608
Si      34.85192762      25.38511924      28.00275479
Si      32.94303926      26.88202458      24.99937295
Si      33.88383652      23.31484316      27.55725180
Si      31.82512058      23.06653426      28.69966807
Si      32.76455614      19.44672127      31.18516701
Si      30.68708749      19.21562003      32.37316427
Si      31.13064886      28.43200149      21.93233548
Si      32.01281090      24.80488549      24.56504339
Si      29.99843419      24.57326740      25.69729303
Si      28.08120484      26.06213497      22.66295339
Si      30.88620718      20.94583525      28.21271435
Si      29.04224317      22.46026112      25.16278797
Si      28.85900363      20.73273344      29.35218288
Si      27.00486950      22.22677681      26.32485421
Si      27.90602042      18.64826219      28.91385431
Si      25.91040330      18.39338879      30.02034591
Si      27.95340741      27.60093481      16.16999549
Si      24.96750780      25.27577509      16.88246702
Si      28.34565078      27.79981473      18.48085989
Si      26.48218245      29.25280177      15.48157618
Si      26.30788256      27.58546488      19.66477464
Si      24.41672004      29.03989839      16.64342207
Si      27.21716978      23.97766616      22.19090226
Si      25.32191017      25.48251632      19.19844294
Si      25.19113095      23.77099061      23.33663503
Si      23.31908090      25.21674737      20.33263960
Si      26.02662088      20.11981173      25.87311241
Si      24.22643640      21.64899200      22.87969598
Si      24.02774334      19.92439322      27.00603999
Si      22.16189060      21.43234819      24.03980903
Si      23.09690937      17.78006040      26.54503454
Si      22.93852475      16.06216050      30.74357089
Si      21.07289364      17.60319695      27.68563420
Si      24.60873146      30.78866440      12.49071012
Si      23.50485578      26.94550159      16.14609984
Si      21.42683100      26.72029741      17.31452763
Si      22.37334811      23.12444762      19.83294191
Si      20.50215883      24.62414179      16.84194725
Si      20.35072906      22.89602458      20.97855447
Si      19.39253625      20.84983764      20.54135447
Si      19.21758382      19.04719189      24.71834613
Si      33.37354311      27.08089748      27.30380132
Si      34.28708323      29.18159953      27.80974965
Si      31.29874672      26.90308689      28.48707878
Si      34.66024712      29.36766889      30.09414242
Si      32.82491049      30.84273395      27.07139601
Si      32.59356771      29.17052314      31.24437015
Si      30.72819250      30.69534955      28.30227749
Si      32.23785065      23.28989368      30.99628357
Si      33.13054547      25.38798676      31.49560979
Si      30.21944288      23.04167777      32.14934023
Si      33.50860951      25.55683942      33.78167919
Si      31.68049197      27.05499352      30.74770019
Si      31.50270308      25.33703557      34.90763058
Si      29.64266279      26.85589595      31.89903353
Si      30.55151757      23.23452252      34.44302409
Si      28.52183371      22.99435436      35.58068647
Si      29.65158561      30.08108576      21.28494855
Si      27.58099550      29.84857629      22.43368780
Si      28.89790313      32.12422645      25.19876486
Si      31.48810006      28.56307046      24.29563151
Si      28.51913039      26.28041055      24.97126930
Si      29.49316524      28.35638288      25.44784163
Si      26.48167281      26.03255966      26.13424592
Si      29.84031479      28.60462724      27.77288046
Si      27.94422495      30.05644256      24.75670962
Si      27.76947462      28.33396400      28.88552379
Si      25.89150494      29.85066422      25.92494460
Si      30.33231001      24.73854318      28.01043844
Si      27.40272219      22.44864273      28.65418017
Si      28.32044890      24.54869230      29.12866050
Si      25.32176202      22.22862993      29.81752318
Si      28.67376418      24.75725222      31.41072625
Si      26.83125575      26.22879334      28.46078933
Si      26.63912759      24.49809985      32.55801867
Si      24.81230112      26.00076200      29.58567715
Si      29.22246308      20.93172416      31.64908083
Si      26.29511750      18.64083870      32.33993297
Si      27.20109809      20.69412017      32.86091785
Si      24.22465741      18.37518425      33.50372326
Si      27.56811047      20.91821371      35.11963046
Si      25.75560633      22.36838725      32.14321043
Si      25.52230832      20.69062347      36.28630994
Si      23.66723342      22.15368574      33.28707141
Si      23.86154855      32.83840939      16.36800419
Si      27.78826301      31.53757472      18.28132127
Si      24.80015146      29.30157766      18.95339455
Si      25.70256971      31.37859372      19.45560055
Si      22.75283188      29.05356452      20.10727101
Si      26.11398137      31.51420322      21.71445945
Si      24.09593307      31.31611140      22.87352709
Si      26.65435941      27.81513426      21.96696903
Si      23.67128544      25.41364585      22.66388978
Si      24.60237162      27.53720707      23.09459656
Si      21.63457665      25.18483460      23.76490605
Si      24.99577258      27.72811556      25.44378296
Si      23.12614927      29.19272399      22.40816096
Si      22.94414250      27.52094755      26.54662450
Si      21.13678451      28.98006873      23.57337324
Si      25.51632127      23.95449622      25.61074302
Si      22.55788265      21.63845042      26.30983127
Si      23.48557948      23.72758514      26.78593772
Si      20.53345599      21.37065923      27.45412503
Si      23.83747897      23.89113726      29.13252710
Si      21.96823409      25.35874082      26.11384723
Si      21.83535939      23.68946794      30.26851022
Si      19.97070039      25.15822899      27.24743726
Si      24.39964002      20.14071853      29.34554717
Si      21.41059004      17.77292650      30.00723454
Si      22.34218774      19.87508398      30.45209333
Si      22.74869410      20.07806692      32.78331290
Si      20.87599982      21.57898531      29.83509931
Si      20.70244427      19.84781653      33.97064722
Si      18.82383634      21.37533552      30.91825899
Si      22.93327310      30.76233629      15.92465289
Si      21.26944898      30.72868837      19.38029526
Si      21.84914127      26.90012254      19.59827118
Si      18.85354242      24.59774251      20.30538022
Si      19.83375469      26.73116540      20.78435986
Si      20.15134045      26.88878474      23.08029926
Si      18.10191035      26.66770396      24.22047027
Si      20.68799812      23.10613484      23.30771368
Si      17.69574303      20.76274149      24.01966506
Si      18.64700457      22.88610517      24.46242834
Si      15.69226467      20.50243061      25.13816627
Si      19.02429467      23.04811807      26.81633889
Si      17.15510884      24.53205028      23.76104233
Si      17.02536722      22.83901032      27.91284564
Si      19.56069450      19.29726128      27.00990279
Si      17.55993899      19.06458933      28.14614213
Si      17.91331789      19.22234602      30.41533531
Si      16.06322301      20.79543063      27.40994153
Si      32.22060800      31.44606091      37.47516960
Si      31.10900169      30.88003514      30.52994303
Si      32.09420026      32.92336315      31.02369872
Si      29.08077658      30.64351524      31.70141316
Si      32.43259178      33.15961713      33.30804445
Si      30.41476602      32.91441597      34.46705461
Si      32.98009304      29.38470437      33.54439786
Si      30.00713468      27.03637035      34.25384757
Si      30.94321189      29.14683662      34.68459904
Si      27.95013226      26.80169271      35.32253542
Si      31.31449195      29.34176094      37.01558120
Si      29.47729703      30.80815326      34.02779452
Si      29.29492869      29.11297344      38.17293174
Si      27.39948803      30.60934142      35.12487048
Si      31.86933806      25.51407521      37.24714909
Si      29.80059411      25.31536088      38.37635694
Si      28.33377240      27.00683641      37.69552750
Si      26.27628187      26.75253411      38.83547429
Si      27.41684572      33.82585450      24.51295233
Si      29.24887167      32.35110533      27.53261179
Si      26.29259877      30.03457486      28.23784808
Si      27.23361456      32.11388474      28.67748478
Si      24.20559243      29.78191079      29.34872536
Si      27.60252801      32.35910618      30.98452027
Si      28.16879435      28.53242912      31.20294503
Si      25.15970557      26.18926206      31.90191701
Si      26.11157677      28.31743400      32.37606755
Si      23.11532115      25.99091016      33.04996612
Si      26.47252510      28.51884190      34.64539748
Si      24.63267482      29.97625653      31.68192623
Si      24.43311474      28.32316518      35.79857783
Si      27.02000127      24.72263090      34.91266341
Si      24.03964523      22.36745319      35.55812692
Si      24.99091209      24.47195962      36.05082086
Si      22.01641405      22.19269875      36.74360869
Si      25.33546803      24.67530163      38.37758661
Si      23.53932564      26.18348492      35.32214834
Si      23.32591684      24.42618165      39.50226264
Si      22.37675034      22.34734403      39.04705704
Si      24.46865727      31.49002479      25.17393495
Si      21.48347708      29.17343169      25.83995860
Si      23.29757622      27.64403373      28.89622510
Si      20.37354102      25.36901692      29.55250712
Si      21.31204373      27.49398735      30.02480663
Si      18.27252533      25.12868776      30.69012806
Si      21.66310181      27.62084990      32.34251472
Si      22.18695483      23.86215832      32.53604804
Si      19.22207367      21.53518399      33.25849282
Si      20.16927088      23.65995333      33.69416233
Si      20.52201680      23.83109387      35.99659963
Si      18.68979931      25.33805027      33.00865202
Si      18.46434972      23.61756777      37.15479423
Si      18.46935058      26.85573401      26.55460847
Si      17.36540623      23.02703523      30.25012514
Si      29.64860624      29.32862482       0.43836447
Si      26.67450385      26.99661220       1.16968565
Si      27.61215028      29.08369180       1.61857952
Si      21.82283203      26.17181468      38.77978413
Si       7.01310002      28.83607819      30.83605360
Si       5.64149855      25.74523915      29.06915294
Si       4.28592360      22.57889973      27.28755730
Si       7.85711572      25.00337270      28.63964573
Si       9.92308787      26.77265864      32.15991743
Si       8.59546174      23.68334304      30.41957416
Si      12.09087073      26.05392424      31.78742475
Si      12.90354213      24.75097105      33.52688265
Si       9.49150663      18.57123998      26.16245449
Si       6.48272911      21.87233470      26.86075147
Si       7.19243540      20.52770203      28.61489109
Si       5.87398088      17.44097251      26.82056360
Si      10.84672317      21.70143349      27.94631120
Si      13.82433597      19.61535069      29.33150564
Si      10.75425265      22.93358688      29.96276492
Si       9.42824394      19.82105746      28.15146059
Si      11.49857526      21.60091501      31.74808765
Si      10.19280605      18.47312445      29.94493925
Si      15.12491364      22.76559608      31.09938526
Si      15.08332641      24.01755810      33.11568713
Si      13.74763253      20.90393408      31.31320406
Si      15.85089134      22.65397135      34.87843028
Si      14.49984139      19.54449356      33.10654059
Si       8.09052523      16.69897818      26.39891561
Si       8.82876525      15.38903068      28.16742958
Si      12.38686065      17.76708968      29.49825140
Si      11.04618868      14.64819117      27.72498358
Si      38.15826804      31.68342988      32.54602393
Si       2.41119675      32.75234739      35.68618526
Si      39.09105701      26.61325822      28.34887052
Si      36.82255157      28.56618244      30.76752459
Si       2.63586730      29.01147363      29.71495624
Si       0.42014868      29.71666895      30.13168120
Si       3.34262864      27.67894944      31.51659276
Si      39.04198572      27.83146885      30.34219943
Si       1.14189519      29.57433731      33.89450843
Si      39.75737303      26.50211524      32.10930329
Si       3.97510092      32.10902366      31.51515754
Si       6.87508242      30.11104077      32.87481476
Si       4.74551578      30.79930376      33.26003519
Si       7.65693957      28.71292992      34.62900646
Si       4.67267353      32.04686005      35.29853941
Si       3.31561512      28.90762217      33.45241021
Si       4.08967593      27.55794316      35.27564143
Si       0.68290174      21.45699201      27.85311003
Si      37.65319019      24.72342858      28.51234034
Si      38.41956399      23.36454924      30.32110206
Si      37.11918688      20.26869840      28.53152859
Si       1.27615041      25.89931412      27.92896334
Si       4.23699983      23.85273989      29.26227690
Si       2.00859877      24.53304343      29.70901781
Si       4.95583894      22.47584420      31.02407626
Si       1.96441103      25.76178324      31.68906217
Si       0.63964125      22.67074536      29.87341316
Si       2.71912793      24.42707072      33.44900860
Si       1.39977401      21.35366721      31.68984179
Si       5.59946959      26.96351132      31.05308557
Si       8.49820247      24.88533282      32.35953516
Si       6.33759306      25.61533880      32.83908244
Si       9.26656805      23.55326346      34.15774958
Si       6.27314735      26.85400214      34.83343330
Si       4.93007056      23.73353965      33.04274669
Si       7.00798670      25.53896844      36.61796764
Si       5.66081235      22.38253366      34.81839783
Si       9.84268940      27.98304321      34.20348916
Si      12.84411754      25.94792261      35.55018581
Si       9.21276058      24.77470802      36.14827082
Si       2.27884966      16.25693612      27.44545961
Si      39.24307503      19.56454060      28.11146515
Si      39.98201543      18.22462260      29.85828381
Si      38.69697324      15.09520441      28.07612573
Si       2.86172406      20.70427793      27.47420877
Si       5.83907941      18.67168972      28.77902369
Si       3.63380733      19.40468119      29.20604481
Si       6.52961122      17.36462051      30.57323959
Si       3.60464805      20.62715255      31.22490837
Si       2.22026841      17.51166938      29.42262789
Si       4.31238320      19.26331931      33.01842672
Si       2.98133066      16.13433423      31.21174342
Si       7.18866029      21.81268748      30.60241450
Si      10.14504066      19.73705773      31.96084574
Si       7.94230301      20.39943090      32.36519728
Si      10.87567174      18.37611755      33.71196602
Si       7.87556758      21.69223767      34.40304923
Si       6.53242858      18.51849511      32.60976637
Si       8.64892841      20.31917058      36.16373747
Si       7.26890899      17.21474887      34.34222832
Si      11.48503501      22.85407079      33.76097127
Si      14.45469434      20.76700260      35.10862415
Si      12.25948897      21.49129385      35.52503543
Si      10.81658757      19.64160964      35.75164813
Si      11.57368092      18.29303550      37.53161736
Si       0.88489270      14.34222702      27.63947699
Si       1.63142480      13.02773157      29.40837132
Si       4.48168588      15.57782363      27.04800166
Si       7.41290865      13.51224492      28.35746679
Si       5.21769529      14.21352197      28.80346408
Si       8.20382479      12.14937139      30.12193008
Si       5.18242623      15.44680917      30.78789923
Si       3.80424090      12.29410638      29.02948088
Si       5.92932305      14.08975167      32.57608709
Si       4.56811923      11.00254957      30.75182302
Si       8.78608962      16.63934009      30.14447942
Si       9.58204913      15.28557801      31.94852992
Si       9.48097194      16.48643286      33.91631140
Si       8.12344694      13.36264441      32.10808588
Si      10.22205939      15.15732194      35.71923334
Si      13.08120493      17.68941746      33.31440545
Si       6.77157211      10.27661406      30.29595136
Si      38.11671259      32.91264094      34.57453041
Si      38.86771054      31.55306899      36.36754362
Si      34.50029096      31.72725933      35.19645654
Si      35.25258989      30.39688424      36.98483930
Si      35.40998910      26.65494228      30.98377539
Si      36.17982735      25.33408762      32.74545283
Si      33.92545789      27.28549320      35.19257957
Si      36.76871796      29.77919729      32.74645552
Si      39.70106321      27.73102845      34.12535690
Si      37.49861810      28.45773580      34.57111861
Si       0.45929206      26.40539676      35.87225479
Si      37.46753504      29.64057894      36.53130361
Si      36.05778969      26.56694401      34.75765301
Si      38.17866012      28.30687090      38.33563874
Si      36.87286910      25.19709463      36.52846879
Si       1.08832234      30.83079480      35.90796730
Si       0.42990410      27.63372774      37.90631360
Si      37.01290688      21.49237395      30.48925643
Si      34.82648490      22.18702404      30.92591521
Si      37.77905710      20.15129252      32.31423351
Si      34.76061483      23.44391412      32.96161752
Si      35.51835155      22.08808970      34.70478309
Si      38.36597800      24.63681851      32.31168743
Si       1.32878935      22.59296985      33.65785411
Si      39.14339434      23.27419462      34.11633165
Si       2.08707271      21.20454212      35.44040147
Si      39.02822638      24.52676936      36.11714144
Si      37.71684041      21.42634619      34.29855637
Si      39.84573783      23.14766016      37.90621233
Si      38.46988672      20.04829183      36.07003766
Si       2.69407347      25.70895746      35.44580271
Si       5.64005164      23.60761400      36.84591269
Si       3.44318373      24.34358700      37.21342204
Si       2.01957657      22.40527605      37.47539217
Si       2.79067724      21.13987393      39.18640246
Si      38.63741452      16.34551571      30.08580267
Si      39.35016657      14.96338795      31.86035387
Si      37.12954711      16.93683297      34.29301170
Si      39.93428728      19.46185086      31.89796178
Si       2.93129715      17.43707562      33.25754798
Si       0.71652943      18.09080627      33.63963977
Si       3.66114546      16.08284042      34.99982235
Si       0.70124823      19.34919483      35.61857812
Si      39.29688292      16.21987775      33.81449764
Si       1.38743854      17.99873399      37.38802647
Si       0.10201195      14.86994040      35.61826701
Si       4.25978027      20.51061239      35.00670648
Si       7.22024503      18.45224844      36.36626392
Si       4.98694852      19.15575228      36.80779525
Si       8.03203945      17.10189286      38.14840460
Si       4.98750935      20.41679692      38.79668686
Si       3.62849719      17.29740371      36.98655370
Si       4.37503632      15.89532977      38.76599945
Si       1.61011492      14.27817539      31.42421853
Si       4.53404287      12.22010840      32.75853176
Si       2.32472118      12.95626096      33.16830377
Si       2.26497783      14.16799017      35.22099591
Si       3.01879540      12.77904720      36.98339856
Si       5.90375223      15.31259802      34.57933842
Si       8.78278097      13.28355917      35.90934834
Si       6.59993361      13.99825039      36.33542504
Si       6.56044098      15.23754772      38.33781080
Si       5.19018595      12.11482283      36.54145038
Si      10.15854868      16.42500054      37.68860840
Si      33.26784206      24.06888196      37.17013031
Si      33.88793181      28.51932741      37.16937413
Si      36.81655337      26.43888027      38.51983729
Si      34.62073002      27.12647650      38.96680937
Si      33.22657191      25.29711967      39.16570626
Si      35.48609676      23.33608239      36.69696441
Si      38.40488974      21.27255238      38.08103938
Si      36.20437001      22.00003187      38.45947504
Si      37.08410799      18.14717960      36.27959197
Si      39.99388732      16.14880030      37.65492130
Si       0.75617347      14.77064580      39.40663290
Si       1.40255600      19.22543084      39.40768856
Si       2.99006158      14.03356232      39.00150642
Si       3.71401532      12.69724959       0.74102913
Si       0.01677329      36.02935292      35.87245515
Si      36.74188783      34.02709858      36.16675326
Si      35.33486108      35.90652845      33.14190669
Si      33.48303712      32.05551603      36.40528162
Si       1.66163486       7.60694302      32.67271097
Si      38.48804123       1.76349183      32.88025677
Si      39.80492176       3.69795839      35.94046879
Si      38.38969168       5.61364340      32.91678980
Si      38.77309100      37.92499051      35.20910853
Si      39.91624424      39.89021841      35.92837600
Si      36.65717589      37.88296993      36.15844447
Si       0.06248809      39.87213199      38.23532220
Si      38.70376193       1.74865293      35.24104088
Si      37.99580723      39.80242070      39.24955996
Si      36.51329124       1.73893787      36.17939088
Si      37.00066802      34.00221599      38.49564557
Si      38.08316626      35.97609626      39.21694105
Si      34.77985260      33.97246079      39.46564849
Si      38.23479621      35.95447219       1.57762002
Si      36.82668138      37.86005941      38.53423805
Si      36.10630339      35.86734878       2.51863545
Si      34.73026777      37.83586529      39.44861947
Si      35.00344225      33.94357326       1.77751096
Si      32.85127638      33.88358085       2.75595070
Si      36.97335522       7.52984439      29.89719227
Si      33.81298549       1.66407832      30.11480910
Si      37.28031482       3.67463902      32.21614479
Si      35.86076468       5.53912624      29.18989498
Si      35.16340510       3.60225595      33.14732953
Si      33.71250122       5.49571858      30.14872943
Si      34.10557009      37.83826790      32.46548179
Si      35.26498662      39.76486542      33.15783999
Si      31.97365810      37.76695441      33.47686372
Si      35.43004571      39.78257943      35.52177691
Si      33.99894784       1.63581259      32.47428722
Si      33.29152826      39.68579802      36.44770305
Si      31.85188256       1.59172695      33.41197138
Si      35.54329861      35.93155437      35.47414292
Si      32.30311886      33.86849344      35.74704611
Si      33.38545608      35.84927500      36.40734670
Si      30.12534173      33.86643622      36.67528425
Si      33.55627504      35.83374152      38.77530706
Si      32.21152321      37.75934191      35.77928250
Si      31.39445306      35.78441821      39.75465775
Si      30.02139314      37.68392047      36.72248290
Si      33.70190649      32.02192760      38.74707287
Si      31.52057997      31.92184837      39.73119918
Si      31.72404610      31.94872147       2.02558216
Si      30.31752188      33.83431171      39.08528874
Si      29.55890853      31.90575900       3.03857395
Si      28.16910125      33.76510366      39.98017940
Si      32.31304377       7.40409094      27.15939546
Si      32.63873973       3.60989992      29.44889231
Si      30.48273041       3.49617453      30.41895836
Si      32.69086442      39.70754396      29.46785648
Si      30.60403785      39.65008066      30.36969279
Si      30.75227865      39.67704318      32.71871928
Si      29.35347281       1.57098615      29.72134873
Si      28.58664167      39.57512473      33.71840979
Si       2.94616245       9.57896176      35.68696914
Si       1.12034528       5.66106085      38.94044906
Si       1.04091152       9.49567694      39.01577492
Si      39.27711284       1.74167542       2.27427393
Si      39.18307246       5.57722084       2.29401082
Si      37.41005836      37.86692405       5.53539148
Si      39.45722863       1.75773434       4.58954822
Si      37.30432531       1.65373359       5.56711688
Si       1.82769540       7.65372656      34.96433741
Si      38.57601333       5.57021864      35.26094147
Si      39.66602823       7.59745634      35.98397696
Si      36.45237149       5.52908945      36.20303800
Si      39.89042261       7.52350092      38.30123780
Si      37.74797106       7.47632069      39.25925721
Si      36.34756860       9.42607448      36.20852193
Si       0.00320507       3.75266624      38.28837450
Si      36.73395916       1.66964452      38.51349839
Si      37.85308330       3.64877151      39.23523996
Si      34.57298725       1.64726461      39.51124478
Si      38.01243973       3.67280902       1.57217315
Si      36.61342887       5.53159236      38.59188905
Si      35.89958975       3.58593359       2.53760022
Si      34.49947209       5.48460856      39.56186668
Si      38.18844427      39.82525977       1.58656243
Si      34.89248399      37.75699241       1.79700760
Si      36.00102468      39.70361624       2.53111709
Si      32.72421740      37.70459169       2.82728623
Si      36.19855572      39.66906620       4.87955846
Si      34.80663307       1.64503262       1.84473384
Si      34.04250443      39.66270504       5.84447873
Si      32.60647272       1.56427576       2.80773458
Si      36.28870902      35.89108209       4.85133461
Si      33.05746588      33.87850236       5.12080760
Si      34.13105315      35.82688646       5.79416253
Si      30.90830490      33.79879561       6.06599324
Si      32.91943616      37.69123465       5.13496951
Si      30.77502168      37.66083197       6.13141554
Si      37.16784502       7.51777783      32.27434016
Si      33.96720738       5.51262873      32.53548222
Si      35.04602601       7.46654956      33.22873235
Si      31.76302388       5.46761641      33.42887438
Si      35.22020312       7.42652469      35.53608563
Si      33.07066852       7.40914322      36.48841179
Si      35.33397629       3.64618255      35.53613023
Si      32.07770378       1.61491647      35.78189386
Si      33.18389161       3.53378120      36.48065902
Si      29.89027430       1.50109902      36.72643477
Si      33.36228199       3.50389799      38.81796392
Si      31.96107276       5.44699527      35.84559841
Si      31.22982517       3.43391479      39.78069542
Si      29.80118467       5.35958557      36.75479022
Si      33.50732237      39.68287854      38.79128362
Si      30.23673051      37.70098187      39.03400980
Si      31.33495133      39.62651421      39.74874078
Si      28.08583146      37.64339749      39.99699396
Si      31.52332770      39.62419201       2.13776002
Si      30.09114321       1.52817326      39.08413799
Si      29.36977076      39.55549041       3.06726958
Si      27.97088993       1.46834208       0.02625398
Si      31.61765086      35.77550859       2.12526836
Si      28.36626814      33.73645952       2.33136866
Si      29.50830612      35.72653347       3.02592330
Si      26.21648613      33.71402968       3.32273334
Si      29.64533686      35.68645175       5.39700529
Si      28.28046778      37.61609560       2.35301714
Si      27.53895609      35.61246492       6.35029780
Si      26.09346446      37.54015930       3.37352478
Si      26.39775409      33.66521745       5.65820182
Si      24.24092935      33.58920599       6.63232921
Si      32.50235552       7.38624774      29.45070282
Si      29.21396452       5.37519504      29.72583434
Si      30.35958234       7.34585430      30.39797003
Si      27.06859966       5.33790392      30.70943956
Si      30.59191913       7.34202765      32.74927420
Si      28.39919439       7.25836675      33.74574421
Si      30.67198412       3.50447768      32.77486329
Si      27.37068507       1.49201573      33.03029643
Si      28.50755120       3.44572326      33.72744092
Si      28.68270715       3.41259651      36.05617129
Si      27.27687792       5.32655435      33.03258906
Si      26.56424932       3.34684525      37.05682120
Si      28.76933903      39.57811654      36.03080206
Si      26.64389570      39.50231160      37.03534207
Si      26.83084563      39.55168634      39.33748830
Si      25.41985653       1.40270646      36.34824184
Si      24.71446915      39.45954139       0.32842738
Si      26.97585384      35.66302835      39.32009003
Si      25.03685879      35.58609778       2.66070554
Si       1.19306222       9.49338477       1.32443655
Si      39.07833774       9.42422549       2.31061602
Si      39.29799000       5.60185353       4.65888520
Si       0.47708414       7.54174749       5.34486728
Si      37.21220635       5.52232299       5.59145263
Si      39.24210468       9.40362272       4.67256048
Si      38.48404301       7.43066833       8.61616313
Si      37.08291295       9.37248641       5.66718698
Si      37.50294560       1.69665509       7.91360914
Si      38.64151560       3.60790974       8.60666865
Si      35.37461724       1.60086908       8.86234715
Si      37.41460700       5.49765151       7.94242495
Si      35.25672417       5.44058605       8.90131745
Si      36.52554489       9.36963820      38.59801438
Si      34.42172607       9.31851384      39.52512896
Si      37.94996316       7.48259275       1.60401327
Si      34.69675635       5.48092574       1.91685844
Si      35.76334951       7.40711884       2.57941167
Si      32.52455505       5.40796019       2.82843318
Si      35.99131601       7.40622831       4.90853496
Si      33.85927421       7.30639157       5.90037575
Si      32.46650373       9.24285381       2.87563074
Si      36.08311572       3.56169774       4.88927311
Si      32.84542657       1.54608650       5.15796487
Si      33.94868213       3.49539861       5.86447775
Si      30.73141971       1.49226286       6.12760059
Si      34.13320272       3.49824504       8.20851330
Si      32.74340031       5.37256319       5.16658173
Si      31.98455628       3.42195518       9.15589161
Si      30.62451844       5.35238535       6.15147904
Si      34.24309616      39.66716690       8.14752674
Si      30.97608211      37.66921575       8.42389082
Si      32.12047095      39.57665125       9.11664188
Si      30.88936911       1.47567089       8.48244849
Si      28.76678902       1.41301362       9.42878508
Si      33.29001824       7.35986598      38.83287485
Si      30.01688544       5.39488368      39.08863038
Si      31.14793619       7.28246712      39.78405473
Si      27.84398510       5.31888636       0.03658560
Si      31.34700286       7.28615403       2.11972755
Si      29.16237440       7.19003532       3.10490349
Si      31.41117835       3.43080353       2.11555845
Si      28.19501972       1.45360858       2.37178157
Si      29.24367725       3.41221469       3.11797490
Si      26.06807444       1.39627824       3.35095383
Si      29.45433315       3.40273633       5.45995291
Si      28.06179543       5.30660205       2.39905033
Si      27.34824407       3.31824802       6.41597480
Si      25.92529784       5.19744022       3.38713480
Si      29.60387561      39.54486749       5.41270060
Si      26.25792960      37.53621143       5.67433639
Si      27.44897556      39.48391847       6.39104620
Si      24.14655768      37.45051995       6.64681227
Si      27.62221565      39.46520862       8.70084558
Si      26.21935135       1.36522325       5.66985103
Si      25.46599703      39.38109267       9.72821176
Si      24.10630516       1.27776191       6.69076403
Si      24.37496606      37.50252336       8.96428558
Si      28.58626526       7.27218372      36.06430554
Si      26.44454190       7.17120424      37.01617823
Si      26.67311292       7.19578572      39.40820359
Si      26.76741230       3.32151966      39.34681318
Si      24.82377612       3.26517858       2.66943882
Si      24.89469728      39.41288309       2.65823081
Si      22.98496104      39.37599656       5.94290162
Si      37.33343881       9.29701647       7.96664607
Si      35.14263503       9.27884615       8.91608969
Si      38.71216431       7.45080810      10.93801238
Si      35.43965957       5.41335976      11.23339469
Si      36.55270391       7.36285804      11.92544910
Si      33.34059279       5.37958886      12.22891168
Si      33.18325243       9.18901386      12.23127748
Si      32.63630700       9.25735621       5.20654075
Si      30.48479373       9.14162888       6.14918831
Si      34.05274038       7.32367701       8.18209145
Si      30.77382619       5.31106122       8.54844201
Si      31.90540644       7.29532396       9.18427591
Si      28.61645014       5.22779603       9.45575465
Si      32.09499147       7.22616239      11.51222155
Si      30.67178210       9.14503910       8.51481043
Si      28.52042048       9.06398646       9.44755510
Si      32.21515991       3.44542361      11.52263737
Si      30.03074724       3.32283687      12.46137178
Si      28.83409729       5.24230549      11.81820278
Si      27.92507519       9.15793880       2.39131110
Si      25.84410107       9.05369001       3.42846367
Si      29.33615543       7.20047777       5.45126384
Si      26.09340791       5.19144054       5.73024568
Si      27.20131596       7.14967884       6.43770953
Si      23.93686819       5.14380571       6.68214721
Si      27.40707482       7.15813793       8.73948947
Si      23.86414495       8.99924763       6.68611762
Si      27.50341751       3.29284014       8.71495225
Si      24.22218292       1.27489013       8.99475892
Si      25.39063719       3.27618099       9.72577246
Si      24.67548607       7.10026801       2.71496855
Si      28.05607279      29.60595424       5.06325568
Si      27.85069936      29.33104143       8.89140015
Si      25.02249297      31.08058597       6.93139147
Si      26.24062168      31.04330271       8.91568713
Si      27.37523031      33.16061709       9.06229242
Si      33.20461345      29.99758915       9.21568753
Si      29.06337495      29.38875994      10.87615723
Si      30.14158519      31.44128428      11.10058730
Si      32.97741457      29.74847118      13.06948217
Si      29.32782494      29.64107333       7.05845380
Si      31.81706047      31.97787802       5.42238562
Si      30.36039175      31.65846599       7.25663200
Si      28.78920693      33.43180494       7.27833682
Si      31.61087215      31.72168222       9.23880350
Si      32.73433393      33.81958751       9.46497965
Si      35.81627983      28.06912518      15.06064897
Si      37.47682012      28.60913492       9.41781229
Si      36.00652009      28.29580602      11.21658149
Si      38.57486116      30.70861779       9.59933578
Si      34.43843052      30.03596995      11.23467388
Si      37.26697233      28.38030042      13.24456245
Si      35.56542179      32.12491406      11.41761065
Si      38.36870080      30.38234933      13.44441102
Si      34.63299301      30.30349078       7.39300147
Si      37.19735018      32.67507711       5.77839771
Si      35.75895272      32.36282495       7.63643738
Si      38.29054347      34.72576167       5.95650257
Si      34.16697467      34.09595248       7.62154183
Si      37.04507576      32.39984488       9.66504668
Si      35.27015839      36.17939496       7.81828225
Si      38.10370540      34.48445593       9.81384721
Si       1.16729525      28.74051137      15.41157768
Si       1.42701532      28.98301832      11.61045747
Si       3.95127272      31.40171647       9.97944680
Si      39.81174159      30.71547100      11.65145782
Si       2.67751985      29.03181097      13.59451401
Si       0.91065308      32.78883391      11.76227955
Si       3.69492909      31.10481711      13.79067660
Si       1.16152311      33.05534932       7.93093272
Si      39.55469111      34.76418309       7.97215584
Si       2.36258773      33.11916828       9.97163372
Si       0.62180419      36.86931484       8.18626076
Si       3.48810756      35.15839099      10.14478196
Si       5.21032452      31.36972281      11.92883902
Si      27.15854325      32.87980112      12.90751670
Si      26.85085582      32.60547150      16.77838826
Si      25.78680665      34.86795067       9.08552772
Si      24.30491346      34.55165219      10.94409377
Si      26.84661081      36.91758241       9.32627098
Si      25.50040378      34.63235342      12.94155072
Si      26.60003213      36.68616537      13.14325350
Si      32.78098723      29.48704946      16.88131559
Si      29.71214629      30.96463527      18.70491767
Si      32.54557648      29.25435033      20.74568273
Si      28.86180769      29.10426725      14.69545784
Si      31.40398122      31.44715080      13.09197481
Si      29.94901038      31.20642556      14.89038430
Si      32.50781532      33.54258176      13.26014564
Si      28.35114022      32.95504047      14.93854768
Si      31.16783902      31.22325714      16.90512262
Si      29.44452170      34.97227044      15.09901482
Si      32.26449197      33.35025329      17.11020457
Si      28.56970000      33.18689746      11.10637031
Si      31.12900497      35.51615403       9.48508564
Si      29.64611610      35.22543472      11.25368337
Si      32.26775179      37.64518949       9.68357414
Si      28.10494911      36.99015837      11.30965605
Si      30.90061832      35.31824192      13.29956812
Si      29.14909937      39.04890576      11.51355899
Si      32.00947302      37.35180936      13.49457863
Si      35.36511446      27.57051054      22.67400909
Si      37.01713077      28.08898219      17.01291636
Si      35.60718292      27.80345642      18.87037610
Si      38.09645073      30.19657220      17.22712347
Si      34.01312086      29.54635580      18.88558807
Si      36.82948190      27.86365487      20.86291031
Si      35.14400691      31.61017553      19.15992516
Si      37.95200320      29.89674253      21.08176038
Si      34.23864443      29.79710966      15.06321780
Si      36.77960276      32.18303707      13.44705074
Si      35.25910576      31.87612781      15.27152891
Si      37.90764585      34.22699904      13.65824341
Si      33.73952350      33.59326262      15.28695078
Si      36.56344681      31.95224164      17.25616199
Si      34.81467376      35.69064211      15.45295014
Si      37.66428461      33.99688618      17.45528231
Si      33.93645548      33.87423512      11.41138707
Si      36.54387332      36.21643196       9.80418292
Si      35.08210915      35.90312020      11.66542849
Si      37.59373950      38.28760701      10.02135147
Si      33.47505798      37.66261674      11.69062922
Si      36.30831128      35.96374283      13.67568546
Si      34.55091199      39.73868654      11.91199987
Si      37.39700145      38.02882034      13.83980568
Si      36.03119976       0.05862384      10.03002332
Si      37.14804549       2.10178138      10.25388486
Si       0.74923362      28.23067917      23.04470921
Si       2.40027362      28.76225633      17.38772251
Si       0.97173056      28.46692988      19.21280541
Si       3.52406564      30.88071789      17.60194800
Si      39.36641612      30.20492106      19.25130040
Si       2.19111642      28.54454267      21.24649929
Si       0.45262067      32.30629863      19.45795243
Si       3.25157499      30.62697342      21.43809593
Si      39.58223036      30.47927308      15.42670384
Si       2.15157549      32.85415093      13.79548820
Si       0.73442942      32.54969553      15.59663230
Si       3.26884866      34.92956798      13.97770700
Si      39.08387207      34.30474570      15.65332341
Si       1.93403070      32.59145164      17.61047920
Si       0.19080966      36.35942204      15.77579942
Si       3.01681769      34.63884230      17.79595707
Si      39.30823081      34.54869749      11.81713107
Si       1.86028185      36.91723970      10.20804554
Si       0.44813540      36.58829222      12.00820758
Si       2.99928008      38.99287649      10.36345843
Si      38.83666272      38.33876016      12.03263780
Si       1.62867354      36.67088175      13.97897350
Si      39.93019184       0.42288696      12.22413010
Si       2.74327494      38.67231788      14.21030742
Si      39.06117834      38.57931285       8.20397525
Si       1.42602757       0.67181047      10.42126266
Si       4.45905905      34.93303895      15.98796848
Si       4.69415520      35.17184149      12.17246652
Si       5.81218499      37.23902346      12.39378433
Si      26.40602794      36.41826739      16.92689932
Si      30.92522596      30.99761161      20.73878120
Si      32.04356116      33.06946703      20.91789520
Si      29.04070637      34.49512440      22.79500016
Si      31.84225753      32.78499041      24.77831752
Si      30.64848193      35.05887368      17.12751748
Si      29.22672485      34.76335366      18.95622743
Si      31.76660052      37.12610819      17.33066098
Si      27.66023715      36.47906256      18.99291818
Si      30.44287176      34.77084222      20.93323883
Si      28.75670133      38.55837247      19.16946375
Si      31.56712527      36.84460531      21.15227710
Si      27.88355071      36.73799240      15.11485462
Si      30.40249751      39.08611747      13.54756479
Si      28.92722105      38.82610867      15.33551007
Si      31.52053941       1.15244987      13.72601266
Si      30.17782893      38.86626446      17.34360681
Si      31.25545732       0.89526585      17.53908581
Si      36.61566520      27.57613332      24.71572979
Si      37.71894265      29.67756992      24.89560633
Si      36.38594015      27.35409537      28.51661732
Si      34.64526198      31.09426522      26.74705031
Si      37.49480786      29.40223270      28.71846444
Si      33.77958381      29.31257560      22.73775556
Si      36.31022982      31.68958091      21.05664174
Si      34.87767537      31.39935764      22.93727018
Si      37.42979334      33.72858033      21.27577859
Si      33.30965349      33.10276354      22.95592437
Si      36.13931390      31.40630962      24.95309216
Si      34.35644900      35.15712621      23.10181430
Si      37.22693956      33.49529591      25.08916207
Si      33.51864067      33.35877429      19.08715201
Si      36.02637726      35.68763828      17.49552453
Si      34.61042640      35.42168888      19.32520534
Si      37.13960829      37.77969101      17.67911529
Si      33.03556247      37.13579676      19.30224455
Si      35.82371818      35.45281337      21.30080957
Si      34.12701849      39.20745547      19.52743033
Si      36.95472063      37.54870930      21.52122753
Si      33.21229669      37.38506107      15.49327365
Si      35.81060738      39.75781726      13.89595725
Si      34.32523666      39.49918340      15.69100682
Si      36.87777580       1.85005845      14.07442339
Si      32.74712109       1.19896744      15.73563698
Si      35.54123682      39.52426066      17.70209108
Si      33.81823998       3.25846218      15.91567917
Si      32.94253681       1.47163710      11.87196158
Si      34.01752444       3.53553042      12.09028969
Si      35.28425918       3.62618118      14.09986258
Si       1.97529369      28.26763321      25.04104796
Si       0.53033341      27.97239258      26.83807069
Si      38.94337073      29.70343751      26.85673966
Si      39.99858177      31.78005197      27.11093689
Si      39.15076249      29.99391390      23.07978792
Si       1.70892461      32.32929523      21.47080433
Si       0.24896604      32.03454547      23.24245440
Si       2.73031064      34.40844127      21.64291051
Si      38.66860772      33.78807410      23.31594212
Si       1.47218873      32.08970698      25.26229420
Si      39.77159152      35.82894827      23.48699431
Si       2.54907473      34.19321969      25.44448849
Si      38.91037099      34.02723173      19.45114709
Si       1.41860205      36.41905625      17.84266431
Si       0.02494155      36.11274552      19.64167048
Si      38.40384011      37.79154894      19.66895856
Si       1.19568477      36.19842252      21.65303619
Si      38.62243424      38.05205504      15.89607756
Si      39.68411042       0.16405383      16.05502110
Si      38.31532253       2.11418801      12.23123119
Si       4.06484027      34.43600998      23.63215711
Si       4.27867037      34.66171902      19.81227948
Si      30.24883561      34.53737987      24.78400701
Si      31.34667192      36.64023435      24.96126316
Si      31.15662720      36.37376283      28.82146270
Si      29.97806327      38.61006998      21.20140411
Si      28.54008099      38.27751953      23.00926538
Si      31.06653563       0.68287470      21.36512084
Si      29.77725215      38.33332097      25.00443286
Si      30.83640074       0.41552899      25.18349954
Si      35.89444057      31.17304791      28.75258037
Si      37.03287920      33.21932116      28.96414215
Si      33.95159245      34.62763873      30.75969098
Si      36.75828566      33.00371526      32.79267045
Si      33.08508051      32.82742590      26.75464163
Si      35.62771007      35.20311969      25.13342176
Si      34.15654214      34.90926982      26.96710402
Si      36.71684478      37.30550364      25.35275650
Si      32.58384010      36.66399967      27.00028799
Si      35.36730805      34.95288826      28.97851956
Si      33.68348375      38.70205654      27.18773157
Si      36.50290502      37.05561458      29.14371362
Si      32.79458884      36.90762255      23.16935523
Si      35.37407486      39.28548009      21.52249616
Si      33.86275690      38.97135641      23.39293746
Si      32.32309311       0.69087369      23.37912499
Si      35.12850796      39.03202178      25.31179189
Si      32.47424406       0.90220163      19.58772983
Si       1.27223018      31.82961935      29.12730578
Si      39.80298184      31.50357475      30.93491430
Si      38.21717813      33.27988711      30.95597453
Si      38.41194931      33.53227355      27.10954042
Si      39.56356859      35.57455522      27.29689022
Si      37.96013784      37.32252554      27.34019382
Si      38.16602619      37.60160382      23.46476284
Si      32.30571349      36.40576884      30.78289429
Si      32.05747615       0.45484755      27.21185603
Si      28.35487820      27.81214228       6.96011975
Si       2.18075975      26.05525071      12.14834599
Si      39.17149684      26.42518274      14.55863351
Si      39.77431370      24.69990995       9.38122883
Si      33.76978101      27.13188227      10.78986958
Si      36.82113182      25.12336157      11.84798887
Si      33.84507321      25.46964822      14.20469196
Si      36.75172501      26.74148491       8.41078175
Si      35.44294475      25.67365921      10.06362403
Si      34.43160681      23.74240407       9.08219022
Si      30.79129521      27.52025665      13.15743231
Si      32.46048757      26.06008005      12.39764648
Si      31.48766451      24.12950003      11.51116259
Si      32.35229999      27.70730081       8.94703156
Si      30.04649297      26.35102859       6.19527819
Si      31.42065744      25.80281665       8.05978207
Si      30.08167870      24.70323348       9.70856297
Si      32.07641945      22.37242873       6.38771045
Si      29.12870264      22.74738887       8.79910854
Si      38.67626210      26.49346048      23.14570184
Si       1.69445034      24.47617264      24.16901169
Si      38.73500515      24.86973967      26.56961573
Si       0.26687032      26.70582966      18.89887562
Si       1.64759169      26.12117692      20.73419483
Si      39.27685314      24.74869606      18.02985129
Si       3.34395732      24.65068622      19.93966867
Si       0.33934630      25.08388599      22.34378691
Si       2.33717489      22.72259234      19.07153402
Si      39.34579381      23.14005667      21.44975768
Si       3.21026182      26.31660581      16.52640066
Si       0.89607372      24.99432013      13.79951288
Si       2.23283229      24.38617781      15.61307500
Si      39.89220258      23.06825081      12.87203840
Si       3.91859268      22.94435589      14.85407397
Si       0.99847420      23.29514208      17.22522965
Si       2.94452209      21.03364060      13.93633839
Si       0.00093961      21.42300449      16.33021930
Si       1.59779087      21.58977645      12.15332413
Si       0.60398066      19.63366185      11.22698914
Si      37.40295430      25.43460368      24.75171334
Si      36.41980163      23.45017246      23.86931954
Si      34.95142867      25.74244327      18.59915466
Si      36.31000186      25.19609373      20.40187316
Si      33.96134349      23.80819418      17.64211186
Si      38.00014672      23.73755486      19.61550098
Si      35.00835812      24.10450755      22.02721058
Si      37.05548598      21.75026783      18.73408048
Si      34.04583415      22.14450370      21.15286153
Si      37.89896126      25.37364074      16.19867696
Si      35.50483239      23.97957444      13.46294464
Si      36.92689174      23.45281270      15.29579219
Si      34.56026177      22.05348758      12.55396458
Si      38.60455855      21.94299164      14.49592471
Si      35.63042435      22.32029240      16.92717474
Si      37.63420168      20.02204057      13.68329702
Si      34.66908864      20.40526729      16.03169204
Si      38.49196373      23.62839766      11.06288310
Si      36.16313782      22.31428115       8.36750540
Si      37.55688794      21.71408487      10.18578830
Si      35.20327543      20.35655497       7.49957823
Si      39.23244303      20.21974100       9.41102871
Si      36.24224020      20.61673838      11.79942821
Si      35.30043469      18.66832651      10.93462685
Si      32.58644736      24.37617871      15.85498815
Si      31.56424151      22.46691360      14.97205395
Si      33.26735021      21.00428632      14.22104931
Si      32.32891075      19.02157756      13.35159028
Si      33.19730324      22.65885230      10.74614351
Si      30.81234658      21.31228277       8.05087093
Si      32.23146029      20.67760986       9.85542609
Si      33.88223451      19.32389103       9.16128785
Si      30.90788031      19.65100157      11.51722524
Si       4.83495809      22.42572714      25.23235239
Si       5.42254955      20.69959521      20.15258477
Si       5.50915644      19.05573167      23.58593255
Si       0.45866482      23.36560875      25.81865427
Si      39.48031226      21.47185523      24.93107511
Si       2.54340203      19.40471877      25.96756176
Si       3.42157444      23.04548336      23.41135316
Si       1.09989424      21.62714991      20.71183189
Si       2.44992438      21.05701503      22.52022452
Si       0.07123461      19.74946313      19.84972757
Si       4.10073663      19.64180167      21.76792225
Si       1.16153816      20.01315339      24.16983627
Si       3.16295345      17.67336863      20.87525654
Si       0.21571740      18.01208696      23.27456044
Si       4.07015880      21.26853906      18.29664777
Si       1.67863165      19.93593998      15.59306257
Si       3.05773997      19.33379173      17.36349378
Si       0.72103333      17.97065424      14.70361730
Si       4.71559967      17.90205602      16.66310597
Si       1.79697069      18.27527368      19.08127984
Si       3.77628519      15.94477670      15.75525491
Si       0.84785277      16.30692722      18.12407756
Si       1.31359673      16.27916235       9.59614490
Si       2.35474374      16.53967042      13.94416080
Si       1.46678647      14.58450159      13.04486002
Si      36.55099071      21.84880192      27.29874006
Si      38.21533521      20.41512609      26.57254862
Si      37.23747108      18.42397708      25.67320252
Si      38.09939553      22.00797282      23.09230342
Si      35.74683993      20.69176698      20.41831571
Si      37.11093455      20.11490495      22.21310994
Si      34.70986224      18.76342900      19.49823011
Si      38.83135332      18.62249971      21.44925462
Si      35.85935686      19.02259371      23.83585564
Si      37.80561218      16.74919261      20.53365588
Si      38.68890327      20.28712510      17.98749343
Si      36.33118702      18.96777839      15.30182931
Si      37.72888470      18.36032786      17.10257366
Si      35.41140399      16.99595275      14.39391847
Si      39.42212113      16.88614040      16.37701794
Si      36.46702821      17.29341026      18.71833362
Si      38.45555822      14.98909499      15.42143747
Si      35.49550282      15.32990083      17.85980933
Si      39.31871090      18.55891241      12.90296794
Si      37.00536459      17.20242062      10.17457471
Si      38.33607934      16.61517821      12.00367350
Si      35.99762871      15.28066869       9.27275184
Si       0.03787654      15.17723700      11.25351123
Si      37.06398675      15.54942476      13.62776786
Si      39.06959786      13.24929860      10.34687289
Si      36.10938456      13.63389659      12.73265106
Si      33.36676404      19.35533116      17.68610102
Si      34.04231046      15.93899330      16.06180341
Si      33.12700043      14.00497572      15.11793580
Si      34.01251639      17.57583019      12.58567750
Si      31.66854475      16.29510857       9.85645316
Si      33.02648838      15.68510253      11.69387161
Si      34.69703215      14.24739616      10.91383087
Si       7.20654783      17.55990101      22.90981847
Si       6.22624360      15.65440918      21.91827837
Si       0.28331962      16.37959880      26.77275581
Si       4.25394797      17.93999595      25.18827054
Si       1.90072590      16.56596416      22.50472782
Si       3.28650582      16.02189880      24.33609719
Si       0.91324131      14.69011401      21.58207612
Si       4.92932663      14.59031806      23.56659140
Si       1.96514489      14.96517023      26.00404148
Si       3.95998936      12.61812536      22.70060952
Si       1.00461829      12.99694526      25.06660560
Si       4.85111501      16.25069121      20.11522128
Si       2.50109778      14.85871571      17.43780194
Si       3.89439693      14.30380010      19.24527653
Si       1.55049497      12.96401674      16.51571333
Si       5.60750746      12.83765373      18.49359966
Si       2.63298659      13.22589916      20.85173073
Si       1.63726542      11.26573164      19.97090232
Si       2.14160795      11.21009982      11.40341116
Si       3.19700310      11.46694278      15.77559765
Si      38.92610076      17.01392482      24.92885246
Si      36.55329248      15.62899497      22.17753793
Si      37.90513547      15.05554022      23.99426282
Si      35.54188670      13.70944715      21.31412434
Si      39.61924261      13.57416447      23.26722043
Si      36.67451957      13.98293813      25.68501873
Si      39.52271808      15.25769110      19.82606129
Si      37.16643553      13.88810647      17.10313959
Si      38.53829477      13.32272517      18.90233751
Si      36.20621377      11.97778781      16.20125948
Si       0.23670649      11.87640119      18.17931081
Si      37.28304548      12.23258100      20.58316047
Si      36.27996995      10.25394230      19.67723344
Si       0.12761199      13.54549266      14.65316539
Si      37.78915203      12.17738622      12.02288726
Si      39.17071126      11.55537242      13.81895257
Si      36.81163157      10.21857766      11.10477084
Si       0.84486259      10.14965028      13.06861297
Si      37.89467286      10.48334287      15.44446971
Si       0.73375024      11.79932338       9.61165098
Si      34.16273915      14.29626770      19.46417282
Si      34.92831849      10.90905878      17.84919718
Si      33.96766722       8.92561922      16.95156605
Si      34.77588591      12.55312218      14.37573254
Si      33.85884918      10.57478799      13.47906966
Si      35.53852850       9.16119349      12.76711729
Si      29.48451366      28.64450465       3.82605483
Si      34.52085149      28.41587164       5.87753557
Si      39.58315351      28.16658255       7.92733482
Si      31.25039949      30.14762618       3.33384686
Si      33.04381177      28.95692334       2.38149004
Si      37.23515869      33.01428315       3.32465588
Si      35.51773048      31.49494382       3.81282639
Si      39.05875547      31.79078656       2.36570772
Si      36.29319644      29.90454472       5.38234380
Si      34.79034852      30.41878225       1.86690963
Si      38.09316788      28.69444309       4.42231625
Si      36.59398236      29.25420390       0.91693663
Si       2.30164507      32.74518980       5.34104590
Si       0.57959574      31.27411895       5.86822704
Si       4.10919125      31.56052622       4.38509978
Si       1.35882832      29.61756117       7.41224442
Si      39.79075664      30.20314746       3.90212839
Si       3.10665083      28.44280908       6.42917634
Si       1.60348020      28.98242986       2.96922314
Si       7.34034465      32.44784580       7.40508643
Si       5.54407576      30.99655508       7.91111020
Si       9.07219827      31.31730682       6.45069274
Si       4.84009405      29.91137544       5.94676942
Si       8.10682352      28.20248141       8.51435976
Si       6.67861085      28.69497946       4.99170591
Si       9.84791221      29.71282854       8.00318743
Si      11.68455861      28.47054135       7.06079108
Si      39.31522714      33.80699152      38.37955254
Si      37.57080592      32.31544404      38.90594217
Si       1.11024188      32.60421686      37.40322968
Si      38.32392199      30.75860370       0.39715504
Si       0.14104875      29.50001294      39.50502499
Si       0.80671501      33.25503732       1.84003591
Si       4.35857323      33.54431874       0.43626909
Si       2.61043045      32.08608437       0.89567106
Si       6.12700466      32.36987477      39.42403707
Si       3.36250318      30.47627435       2.46030687
Si       1.86599186      30.98524240      38.92518739
Si       5.18743014      29.26982033       1.49344296
Si       3.67646301      29.81499399      38.00648191
Si       5.82424562      33.00403339       3.88744410
Si       7.61381973      31.84879847       2.90969176
Si      11.16905852      32.13375051       1.50872469
Si       8.39514617      30.23655322       4.46050126
Si       6.88238430      30.75948325       1.00429048
Si      10.15486909      29.03840892       3.55143280
Si       8.66473271      29.55534368       0.05006691
Si      10.85812007      32.80065089       5.95324521
Si      13.43769426      29.97922108       6.55301087
Si      11.96091971      30.50517081       3.01791692
Si      15.22874479      28.79274120       5.60242071
Si      13.74191857      29.33690911       2.09844396
Si      16.97411414      30.23163563       5.08264381
Si      18.74562360      29.03165226       4.11871133
Si       5.38941611      31.27464254      37.45267358
Si       7.20474711      30.10145058      36.56999098
Si       9.69250116      32.66078300      38.00696737
Si      10.45673722      31.04768674      39.53098371
Si       8.96351277      31.58716612      36.02420765
Si      12.23461249      29.87042857      38.57686787
Si      15.50348306      30.78628451       1.56345898
Si      32.05121196      25.86727286       4.44043307
Si      35.32308085      26.80771324       7.40357783
Si      37.05847094      25.59167784       6.50431797
Si      32.79298644      24.27109736       6.01813930
Si      34.61375509      23.10095964       5.07411683
Si       0.32103824      26.56734956       9.46075237
Si       2.10774806      25.36084888       8.50128376
Si      37.85382805      24.00896771       8.01444790
Si      39.64798141      22.80897348       7.09240247
Si      32.31251065      27.87631023       0.41555372
Si      33.81406279      27.34720277       3.91693380
Si      37.28316119      27.61654706       2.45141844
Si      35.62266347      26.13318085       2.99659090
Si      39.15073291      26.42547188       1.53187423
Si      36.38122457      24.51097910       4.47849153
Si      34.89762593      25.07257773       1.01745251
Si      38.16904426      23.34684006       3.56619771
Si      36.68695726      23.88745128       0.07437612
Si      38.82304852      27.08953833       5.97006546
Si       2.39619401      27.35220179       4.52191139
Si       0.62614246      25.88994023       5.04490646
Si       4.15571040      26.17880941       3.55996937
Si       1.37703610      24.26838870       6.55126453
Si      39.93032518      24.85587615       3.04879925
Si       3.17751933      23.08478893       5.60543114
Si       1.70272762      23.67514593       2.13122070
Si       3.81200880      26.80927156       7.99649643
Si       7.41948835      27.11056315       6.51683403
Si       5.66069615      25.63851425       7.08099545
Si       9.22363852      25.95904321       5.57251273
Si       4.89990595      24.59310584       5.07129750
Si       6.74503788      23.37684847       4.15527403
Si      11.74593642      23.08921228       6.15318205
Si      38.42775284      25.35905328      39.53450781
Si       0.86819537      27.91181621       0.99689432
Si       4.43033925      28.19715056      39.54384182
Si       2.67951310      26.72333726       0.06352659
Si       6.20283800      27.01112017      38.61144778
Si       3.41507812      25.09837920       1.58829465
Si       5.22888981      23.87250563       0.65348616
Si       5.89232359      27.66323196       3.04324573
Si       9.43371683      27.96783493       1.54473247
Si       7.67677061      26.45099553       2.10600838
Si      11.25460165      26.72110742       0.64443050
Si       8.44002780      24.84153785       3.62803125
Si       6.98179645      25.39769384       0.12205421
Si      10.26862113      23.64235071       2.71039619
Si       8.77056364      24.20904432      39.15296733
Si      10.92729673      27.41688158       5.06982030
Si      14.47977058      27.72562667       3.63991771
Si      12.73115963      26.22468262       4.13081432
Si      16.27954931      26.51528242       2.61756777
Si      13.51076447      24.58276259       5.65571692
Si      12.03061608      25.15858850       2.16092886
Si      15.34410075      23.41661596       4.73207472
Si      13.83939635      24.01227668       1.21037767
Si       7.98828502      28.46339028      38.07503445
Si      11.49755799      28.76935237      36.65501367
Si       9.78399548      27.26978891      37.10712712
Si      13.32348997      27.55022682      35.64764767
Si      10.56285878      25.65234067      38.69488881
Si      12.30250589      24.49278836      37.75204003
Si      12.94622227      28.23982412       0.09651045
Si      14.76320994      27.01197019      39.16430054
Si      15.51711403      25.41456390       0.73534567
Si      14.06264704      25.98487461      37.18216731
Si      17.31962850      24.23465534      39.75559553
Si      15.86096695      24.78649651      36.24801942
Si      17.99836378      27.98502392       2.13398722
Si      20.59517975      25.19201961       2.73660035
Si      19.12269415      25.72452362      39.24530743
Si      37.16196756      20.27139677       5.61356565
Si       0.42217999      21.18188185       8.58735893
Si       2.16707474      19.98736651       7.66544098
Si      37.93844920      18.62143321       7.17488651
Si      39.73132689      17.42928980       6.21279007
Si      37.40672344      22.26364180       1.61773547
Si      39.19731636      21.08940389       0.62914683
Si      38.25518706      17.99905584       2.72336679
Si      38.91219732      21.73188113       5.13449171
Si       2.44752517      22.03545806       3.66812595
Si       0.74078347      20.51106964       4.20499570
Si       4.29438629      20.78532308       2.68720061
Si       1.45069607      18.94416616       5.67287052
Si      39.94709165      19.46375086       2.19109111
Si       3.25835374      17.71326071       4.71222153
Si       1.76580651      18.25368621       1.25538960
Si       3.95436894      21.49754748       7.15750700
Si       7.48129190      21.79692287       5.66387432
Si       5.71873523      20.26860271       6.15680155
Si       9.28441153      20.56446383       4.73836757
Si       5.00388912      19.21361736       4.23184277
Si       6.79966067      18.04136704       3.28552539
Si      11.84906624      17.76902209       5.33569154
Si       0.97604763      22.53498108       0.13118622
Si       4.54489796      22.82231795      38.67846273
Si       3.51425159      19.73512067       0.74110311
Si       5.33198104      18.52983504      39.80023534
Si       6.03036860      22.29345002       2.22512548
Si       9.53436585      22.58271072       0.72487326
Si       7.80482876      21.06654796       1.24445706
Si      11.30115333      21.40316320      39.81240568
Si       8.55398635      19.50373811       2.81190426
Si       7.06905552      20.03063586      39.29175468
Si      10.34289447      18.31838841       1.81255395
Si      11.03927511      22.06082170       4.15859426
Si      14.57108291      22.39121371       2.78251642
Si      12.82570705      20.88092407       3.24449481
Si      16.39094216      21.12073353       1.82439513
Si      13.56982952      19.23285732       4.81035399
Si      12.08456128      19.81540965       1.35118112
Si      15.35956528      18.06177999       3.86580313
Si      13.87723095      18.55742524       0.35042889
Si      10.61885772      20.34181988      37.79915035
Si      13.06488569      22.87594593      39.25778202
Si      16.61732847      23.19011230      37.81768263
Si      14.89793068      21.70039356      38.33490553
Si      15.62395767      20.03916121      39.85487063
Si      18.11915663      22.64215012       1.33473625
Si       0.45451723      15.84235865       7.74684445
Si       2.28151251      14.62384095       6.83436197
Si      38.99309512      16.38436634       4.23538259
Si       2.52880768      16.62896827       2.79268874
Si       0.78565467      15.20002838       3.32330456
Si       4.34369017      15.46945008       1.87134276
Si       1.57363100      13.56669618       4.83039697
Si       4.04724266      16.11318115       6.28920803
Si       7.59766931      16.38623004       4.80330109
Si       5.82743495      14.94009022       5.29349240
Si       9.33238837      15.21251699       3.87305130
Si       5.12177677      13.86100859       3.38767419
Si       6.08166980      16.95029994       1.33687345
Si       9.59795817      17.25353058      39.85176250
Si       7.88672062      15.71973409       0.37576016
Si      11.40961429      16.05966347      38.92926298
Si       8.64959045      14.10463036       1.90426088
Si      11.11214408      16.69616405       3.42853735
Si      15.38054856      38.89700115      20.41729658
Si      13.57248116      39.54348987      23.72172735
Si      20.25580639      36.93652324      19.02672723
Si      18.46189248      37.59713119      22.35499619
Si      25.14167812      35.03153556      17.59194684
Si      22.29287508      37.60125413      20.01052353
Si      26.76325078      37.25098922      20.23571932
Si      23.30932902      35.68240316      20.92864095
Si      13.94432060      37.95087741      22.03534396
Si      15.01712862      36.07800808      23.00117290
Si      18.85718631      36.00628386      20.62636965
Si      19.84824783      34.09499133      21.58903894
Si      21.65643147      33.49863611      18.29331815
Si      23.68187140      34.09051947      19.23890438
Si      16.85287707       3.98406333      29.06070522
Si      21.73211844       2.02459821      27.65051810
Si      11.73902810       0.23256245      27.05711004
Si      13.39581626       2.42874651      29.68400853
Si       9.95255975       0.88912161      30.35705609
Si      15.63245021       0.21448437      24.68098206
Si      15.21468695       1.77794288      26.38647483
Si      16.65120790      38.30250860      25.68523243
Si      17.25135215       2.37861295      27.37345627
Si      13.77237167       0.80607691      28.06821059
Si      18.30138056       0.52875662      28.28997847
Si      14.85262508      38.94028522      28.92538095
Si      20.51046250      38.24970661      23.28009206
Si      20.14356116      39.85565819      24.96836951
Si      21.52097607      36.36420555      24.24120742
Si      22.17857387       0.47285052      25.95239544
Si      18.68591149      38.89048482      26.63549337
Si      23.15221239      38.57340647      26.88748804
Si      19.71657097      37.03009891      27.56252296
Si      25.40860866      36.30492589      21.88512742
Si      24.96812491      37.95132656      23.58031694
Si      26.41225675      34.41161236      22.87177349
Si      27.03237929      38.52723020      24.56034793
Si      23.58077294      36.95876105      25.22254543
Si      28.09674978      36.64025377      25.52512199
Si      24.57997991      35.04509477      26.12099156
Si      10.32840065      39.30761595      28.67092064
Si      11.40421854      37.37431914      29.61671814
Si       7.94017061      35.86326749      30.32858080
Si      12.17951556      38.63433026      25.32590145
Si      13.21256574      36.74811947      26.31742680
Si      14.62060592      33.23851782      25.56426930
Si      15.20844842      37.37609083      27.28886757
Si      11.77252592      35.76554125      27.93186429
Si      16.29246578      35.45413394      28.22328293
Si      12.87335920      33.92349910      28.89104971
Si      17.07345588      36.70518549      23.99013079
Si      18.49812642      33.22640701      23.21838743
Si      18.08622544      34.80579931      24.91900434
Si      19.49986009      31.28531112      24.17637164
Si      20.08933108      35.45865574      25.89852646
Si      16.64021013      33.85519701      26.54670257
Si      21.15034577      33.58069094      26.83786661
Si      17.65645770      31.96384824      27.47642236
Si      21.92890591      34.76863359      22.55526717
Si      22.96872395      32.84445115      23.49002491
Si      25.01515166      33.46864917      24.51268221
Si      21.53901257      31.93285784      25.15849735
Si      13.22233732      32.30209407      27.18015846
Si      14.24470834      30.43549521      28.15100335
Si      18.09441962      30.40749459      25.78298287
Si      19.96141651       2.71181918      31.01869057
Si      23.81093727       2.68937721      28.65612800
Si      24.80140659       0.80874967      29.60049323
Si      23.01183597       1.43001764      32.88201285
Si      28.63393632       0.75047538      27.24519850
Si      29.68081043      38.84852556      28.19739774
Si      26.88329994       1.42271387      30.56486785
Si      27.89842369      39.54438305      31.52511060
Si      11.98772067       1.50789625      31.34701000
Si      13.02533537      39.62546929      32.28070331
Si      16.89759433      39.58324428      29.96937995
Si      16.46994454       1.16501624      31.64684226
Si      17.89356229      37.67689293      30.87161082
Si      18.51909637       1.79582802      32.58520528
Si      15.05317943       0.21638906      33.29335238
Si      19.56640130      39.89682948      33.56156935
Si      16.11312433      38.34204817      34.25435537
Si      20.31256761       1.12909007      29.30985452
Si      21.74153731      37.65966935      28.53342626
Si      21.33069129      39.25076392      30.21686896
Si      22.79606257      35.73002277      29.47889118
Si      23.41365250      39.87382926      31.23402342
Si      19.96415620      38.32400444      31.85651502
Si      24.42777774      37.95667310      32.18624906
Si      21.02480690      36.39929789      32.83178884
Si      25.22106108      39.21084351      27.90080830
Si      26.65156143      35.68057373      27.14050417
Si      26.25774006      37.32467757      28.88294684
Si      27.69064256      33.83659932      28.10318394
Si      28.27003713      37.90561150      29.80178079
Si      24.84380600      36.42038088      30.50527732
Si      29.31988772      36.05215791      30.75678409
Si      25.85978686      34.46393108      31.44369902
Si      29.70291050      34.39700216      29.11815059
Si       8.52736592      39.97961190      32.03651803
Si       9.97420872      36.48430808      31.26381397
Si       9.58459567      38.06321554      32.95802516
Si      11.05666946      34.57863011      32.19510749
Si      11.61125964      38.69130771      33.90159529
Si      12.62410098      36.81099609      34.87466677
Si      13.42590659      38.00471755      30.59887939
Si      14.85750284      34.53690539      29.85087396
Si      14.44428860      36.10442729      31.57191467
Si      15.89181795      32.63185027      30.81749236
Si      16.48604528      36.77221067      32.54168041
Si      13.01780714      35.19028015      33.22257798
Si      17.53541179      34.86177634      33.49442986
Si      14.07793782      33.31506044      34.15424952
Si      18.31664848      36.10452188      29.21170372
Si      19.74437956      32.61559381      28.47874636
Si      19.33969494      34.23026560      30.16096672
Si      20.78319171      30.72697252      29.38546901
Si      21.39040321      34.83600454      31.14841418
Si      17.92069559      33.27131748      31.79505383
Si      22.39390855      32.90892390      32.05672179
Si      18.93149390      31.37919539      32.72280310
Si      23.19570707      34.14487329      27.78991698
Si      24.22271946      32.23878846      28.78633379
Si      26.25355491      32.91656251      29.75760768
Si      22.78057094      31.32445083      30.38757072
Si       6.55497768      34.91297756      31.92722068
Si       7.54064181      33.03718442      32.83604769
Si       9.62380985      33.68128970      33.84793192
Si      10.63614211      31.77008266      34.77741507
Si      11.43092013      33.03932155      30.57584351
Si      12.83048466      29.47226721      29.79321172
Si      12.41703148      31.06846944      31.47929786
Si      13.86881343      27.62820026      30.74080914
Si      14.50281412      31.69401905      32.50073788
Si      11.02397503      30.18156043      33.10941212
Si      15.52506522      29.84778227      33.36348737
Si      16.31189802      31.03476900      29.12764244
Si      17.73308652      27.56310378      28.35968320
Si      17.31876833      29.16576301      30.09360606
Si      19.36917913      29.78683511      31.05291601
Si      15.93205259      28.23535865      31.71545893
Si      16.94773391      26.34290159      32.63983327
Si      25.04789842       2.07482227      33.93568403
Si      26.08418442       0.20057023      34.81560853
Si      18.15236242      39.01024418      35.23321696
Si      17.70161402       0.59641137      36.86460376
Si      19.18309393      37.10130758      36.13020145
Si      20.81673444      39.32423202      38.80053455
Si      17.38552554      37.75928618      39.46909737
Si      21.60785694       0.53513674      34.57313167
Si      23.01687110      37.06634645      33.79995033
Si      22.62820782      38.60565839      35.51135980
Si      24.05021321      35.14061499      34.75639214
Si      24.66171209      39.25785616      36.43883864
Si      21.22221854      37.71267725      37.14243610
Si      25.69343557      37.37852339      37.41508715
Si      22.25103880      35.81464003      38.07921757
Si      26.52682750      38.59014570      33.14215703
Si      27.89861156      35.10246251      32.41919450
Si      27.45746419      36.69215387      34.11567037
Si      28.93294084      33.24261572      33.36678064
Si      26.08064362      35.81355562      35.75439322
Si      27.11673118      33.86823030      36.67081919
Si      11.24265306      35.82282891      36.52983746
Si      12.25215972      33.97614096      37.45398330
Si      14.69508684      37.43784853      35.87520589
Si      16.12046241      33.96138379      35.08892985
Si      15.70125340      35.50458220      36.79041662
Si      17.16551642      32.06356154      36.07233388
Si      17.74896279      36.16980528      37.77808114
Si      14.31775304      34.61910789      38.44034079
Si      18.78683058      34.23774317      38.68169065
Si      15.34968254      32.69992017      39.39090580
Si      19.55430271      35.48330203      34.44474655
Si      21.00087814      32.02932020      33.71063313
Si      20.58728362      33.60226409      35.42551168
Si      22.00264493      30.07569009      34.67490015
Si      22.59972586      34.20048512      36.39743715
Si      19.20596846      32.71341226      37.01709342
Si      23.69200878      32.34830586      37.33364415
Si      20.25947663      30.77317655      37.95874913
Si      24.47245979      33.56799853      33.09290775
Si      25.49376539      31.63969657      33.99357128
Si      27.52378015      32.27097619      34.98445826
Si      24.06813921      30.73180626      35.62924656
Si      12.69529195      32.37905590      35.79737963
Si      14.11652857      28.90983070      35.03923905
Si      13.71478793      30.49000793      36.75784506
Si      15.15127066      26.98685273      35.98067163
Si      15.76553958      31.10663272      37.67320521
Si      16.78190362      29.22659417      38.69155635
Si      17.52795252      30.44595009      34.35824999
Si      18.97542128      26.95285664      33.64098426
Si      18.56943701      28.58977301      35.30051192
Si      20.59355109      29.21092575      36.29009970
Si      17.14939240      27.65441402      36.93209182
Si      21.66398599      27.33220713      37.24620073
Si      15.53815481      25.43670188      34.28213395
Si      19.43073285      38.35561402       0.44739308
Si      20.41558992      36.50676174       1.40424355
Si      24.27299588      36.44902276      39.01661059
Si      23.90449799      38.08448292       0.74200104
Si      25.29496440      34.54932671      39.97713218
Si      22.48666064      37.10890300       2.37800659
Si      23.51484212      35.20063177       3.32771381
Si      17.38976969      33.35267467       0.34464871
Si      18.43389376      31.44677191       1.32988519
Si      20.04389845      33.66681847       4.00825846
Si      20.84023101      34.88787445      39.68411592
Si      22.27486815      31.45461869      38.95977943
Si      21.84531401      32.98000597       0.66501352
Si      23.26551850      29.51726716      39.89313144
Si      23.90053150      33.65049627       1.63935012
Si      20.46304842      32.06306558       2.27331807
Si      24.94599366      31.77243100       2.61909037
Si      21.54204992      30.16603149       3.24308505
Si      25.72801500      32.91504372      38.34757441
Si      26.72240361      31.06880715      39.25634878
Si      28.78736217      31.69685791       0.20783707
Si      25.34394805      30.11309550       0.86615281
Si      18.80811398      29.87087011      39.65766718
Si      19.88512814      27.93697692       0.54322767
Si      21.90059773      28.54365108       1.55687112
Si      22.92963387      26.67084786       2.50227992
Si      23.67156025      27.90241118      38.23102196
Si      22.10641563      34.29486232       4.97693513
Si      23.50272160      30.80591212       4.20214431
Si      23.11782260      32.40682157       5.88536176
Si      24.57563634      28.92804845       5.14354047
Si      24.93094077      27.31756394       3.44059674
Si      36.23614944      15.52649141      26.36478161
Si      34.57866134      10.60041285      22.32620822
Si      33.80634382      12.75125893      25.36601342
Si      33.51249560      14.24802528      21.85523425
Si      33.66942642      10.60588896      24.45109121
Si      31.37862895       9.95811091      24.35937415
Si      33.23702789      15.75104637      18.35592049
Si      31.83805651       9.32592459      17.77898849
Si      33.34105804      12.11278486      20.94542469
Si      33.06920874      13.58567490      17.45698156
Si      31.10571510      11.43510519      20.85181790
Si      30.80831257      12.98290996      17.32982591
Si      32.13449739       7.79489775      21.30671651
Si      30.86129178       9.29649754      19.94582142
Si      30.53013184      14.47769260      13.84729076
Si      31.34422162       8.64856675      13.32122731
Si      31.58611799      10.80536388      14.26068631
Si      30.63415266      10.81904202      16.43185773
Si      30.35546933      12.28979636      12.91735741
Si      35.22666051      19.22929433      25.96167318
Si      34.49714774      21.39614775      29.00985265
Si      34.23617714      22.93200550      25.48803943
Si      35.37217658      15.55660733      28.56514948
Si      35.48660712      17.70440080      29.52150711
Si      33.09222099      14.90789231      28.45682280
Si      34.35229412      19.24792752      28.09731302
Si      32.05195744      18.61148481      28.00797856
Si      32.53292393      17.93360505      21.38438190
Si      34.06448644      20.70267172      24.60046563
Si      31.77954215      20.13251814      24.49535299
Si      31.54925924      21.62391809      20.97103067
Si      35.06769887      17.10286350      25.01698488
Si      32.63157768      14.29460999      24.02397057
Si      32.83127495      16.44722291      24.94233556
Si      30.38601845      13.65062110      23.94580504
Si      31.91614833      16.46283086      27.11718506
Si      31.61537860      17.91605939      23.60179006
Si      29.60679291      15.80338607      27.02451759
Si      29.34452919      17.32654475      23.53048061
Si      32.94049300      12.75455707      27.56872870
Si      30.64888097      12.11826675      27.43466343
Si      29.40863699      13.57740265      26.08462122
Si      27.48653338      11.49460108      29.53570059
Si      27.20866133      12.99341359      26.02316647
Si      31.19537128      23.11852662      17.49941081
Si      32.05296151      17.26544245      17.01056993
Si      29.80954458      16.61703966      16.91426849
Si      31.28132316      19.46152232      20.04030840
Si      31.04708647      20.90417057      16.57742726
Si      29.08102364      18.80676322      19.98359949
Si      28.79987337      20.30469622      16.49471655
Si      32.33642396      15.76466192      20.52426787
Si      29.92406104      12.96255141      19.51702246
Si      30.11133023      15.16888419      20.43110248
Si      29.17973656      15.11556986      22.60775455
Si      28.86038713      16.67772155      19.09347994
Si      26.90025720      14.45738860      22.48879058
Si      26.62158340      16.05423740      19.00222551
Si      30.19028391      11.47054305      23.02722086
Si      27.91086616      10.83878895      22.96268376
Si      26.77282394      12.33392197      21.62041542
Si      29.24346719      19.66579513       9.86969571
Si      28.52923551      21.83521295      12.92946555
Si      29.34340982      15.98320277      12.45350433
Si      29.53767231      18.15040860      13.43100705
Si      27.06969590      15.36027648      12.38818568
Si      28.61917960      18.16844147      15.55846125
Si      28.30943958      19.66244331      12.03998331
Si      26.35805650      17.53990907      15.49334888
Si      26.06943779      19.03512032      11.94069636
Si      29.60917575      14.49362119      15.96636524
Si      27.35125555      13.86543311      15.90401435
Si      26.44970052      13.87666182      18.05327190
Si      26.19091971      15.37532547      14.55047636
Si      28.06700413      21.16395173       8.49992705
Si      25.79930446      20.58149857       8.42850696
Si      25.88214586      16.84974903      11.01237541
Si      31.17559782      18.61239341      30.20806450
Si      28.91119992      17.97547307      30.08975257
Si      32.72072171      25.93942887      20.63573383
Si      30.50925831      25.32326667      20.51960036
Si      30.62627605      21.61396655      23.14920641
Si      28.32557543      20.99228469      23.04099997
Si      30.92401907      20.14052013      26.64765762
Si      28.46251951      17.33153564      25.67341440
Si      28.62623030      19.46522136      26.58853901
Si      26.20356089      16.65448882      25.58508707
Si      28.74961725      15.82084472      29.15844463
Si      26.27901938      12.97322517      28.22046559
Si      26.47205629      15.19309215      29.06568158
Si      25.57736078      15.19013685      31.23453206
Si      25.26445580      16.68618904      27.74277335
Si      23.02699309      16.06430772      27.65828194
Si      30.04273645      24.61858497      16.10948575
Si      30.20145601      26.77613820      17.02459900
Si      27.78723554      23.98489681      16.04105732
Si      30.29590991      23.16319779      19.63306491
Si      27.87697130      20.33516079      18.63549392
Si      28.04621395      22.46546472      19.52169392
Si      25.61373170      19.70029120      18.56726962
Si      26.89697390      24.03280250      18.17969862
Si      24.61154840      23.39153506      18.12363580
Si      28.13615745      18.82744758      22.18739141
Si      25.76388367      16.01212273      21.16097862
Si      25.90605013      18.20921935      22.05356969
Si      23.46933985      15.40972641      21.07681229
Si      24.99652197      18.22361006      24.28173163
Si      24.73527209      19.70660783      20.73158440
Si      22.72089851      17.60409074      24.16603597
Si      22.46157924      19.07312834      20.62174155
Si      25.99770270      14.51784961      24.71041391
Si      22.55531190      15.43584092      23.26244995
Si      27.21386519      27.01568314       8.97518797
Si      26.48522397      29.20122711      12.06225003
Si      27.33721379      23.38633041      11.57139757
Si      27.51653971      25.53207689      12.53704232
Si      25.04259524      22.71548739      11.50176252
Si      26.56063091      25.54386675      14.69361349
Si      26.28624219      27.03971212      11.13995100
Si      24.34874548      24.91512359      14.56484619
Si      24.05866073      26.40539869      11.04453737
Si      27.59189543      21.87951001      15.10701572
Si      25.16159010      19.02628308      14.10682626
Si      25.30637649      21.21452810      15.00896216
Si      24.41201165      21.22178137      17.19335994
Si      24.15245150      22.72975498      13.66942735
Si      22.17365298      20.60424089      17.10761173
Si      21.87248325      22.09347164      13.60955781
Si      25.44250224      17.53776963      17.65587078
Si      22.27772028      16.93301150      19.73268910
Si      25.98938842      28.55698094       7.66284531
Si      27.02637868      24.82853210       8.08156214
Si      24.59251695      22.03788128       7.09005789
Si      23.84616844      24.25557733      10.15884014
Si      24.86974089      20.55967339      10.55395839
Si      21.57608724      19.09537535      22.82664205
Si      23.15884965      26.40847774      13.22944401
Si      20.99182760      22.09413555      15.75297121
Si      21.28460262      20.61025971      19.28261322
Si      20.56856691      20.28059248      11.93548671
Si      18.24667893      21.97313760      17.94742015
Si      20.44083246      21.17918279      14.05185179
Si      20.19542041      19.53019442      15.68038754
Si      16.07728086      19.06089156      19.14128064
Si      20.13211240      20.50080903      17.83091787
Si      19.88066011      18.82181159      19.45252738
Si      16.00041784      20.03954240      21.29185515
Si      15.73405090      18.31501965      22.90557342
Si      19.59483860      18.05939982      23.13773946
Si      16.45609425      15.18952342      10.56879841
Si      22.72411419      19.58990754       8.02685773
Si      22.38059933      18.77955931      11.77396606
Si      22.49797461      17.83284773       9.68679660
Si      22.16004533      17.10978422      13.41483431
Si      20.51320770      16.65879184       9.24601682
Si      24.30772209      16.40845479       9.54888921
Si      20.28849752      14.95217820      10.82143348
Si      24.10429550      14.71900199      11.10533382
Si      18.21048818      18.31230533      15.24918169
Si      18.35684015      17.35643743      13.12828718
Si      18.02794972      16.63026293      16.87550675
Si      16.32786236      16.15450021      12.74334477
Si      20.20815212      15.91785505      13.02819423
Si      16.09692612      14.44885468      14.30375541
Si      19.96976673      14.23369168      14.60674377
Si      14.07538522      17.85076712      18.73482316
Si      14.22922486      16.85060833      16.62218525
Si      13.86713791      16.12569345      20.31034672
Si      16.03791756      15.41300362      16.45797845
Si      12.00942474      13.94774600      17.74692521
Si      15.82558988      13.74889190      18.09664379
Si       9.74426174      15.60257947      23.79903886
Si      11.86259000      14.88699583      19.93057225
Si       7.83005291      13.46827504      21.28976581
Si      11.67101659      13.19318777      21.53438090
Si       7.76767206      14.43140744      23.41101373
Si      24.03433542      15.67646060      13.28737332
Si      23.78728091      13.95650772      14.91780580
Si      22.06551119      18.07270442      15.54963262
Si      21.81886860      16.41009167      17.16127959
Si      21.50529794      15.64136431      20.89274310
Si      19.89108597      15.16472471      16.74376747
Si      23.69138288      14.94481038      17.01549254
Si      19.63616898      13.47028551      18.34915640
Si      23.45321940      13.23700700      18.62360098
Si      17.91511237      17.59677950      19.03697074
Si      17.60710619      16.83710506      22.75853680
Si      17.71184283      15.87864456      20.62234845
Si      17.34684965      15.14223646      24.39175595
Si      15.68048507      14.70192624      20.21910596
Si      19.50736075      14.43337210      20.50965741
Si      15.45854558      12.96030770      21.82892572
Si      19.26549101      12.71788113      22.11981150
Si      13.77442354      17.09714814      22.49926751
Si      13.43076644      16.32316348      26.25533474
Si      13.53789219      15.39046456      24.08217567
Si      11.54688843      14.20969401      23.64171861
Si      15.41521059      13.92966267      24.01194797
Si      11.34154486      12.49015990      25.30253688
Si      18.67144989      14.48824269       6.68711373
Si      18.43169160      12.74013205       8.28957238
Si      14.25849610      12.30480793      11.74830113
Si      16.42474063      11.54291610       7.90698825
Si      16.23488453       9.87862119       9.46314290
Si      10.10448406      11.79201180      15.27990002
Si      12.31310862      11.06400203      11.33559720
Si      12.04590234       9.39619285      12.99008473
Si      26.04758741      12.29949683       8.87754999
Si      22.46476017      14.24203413       7.00104621
Si      22.15996596      13.48120203      10.72053076
Si      22.23197599      12.58408209       8.56847568
Si      21.90650829      11.80598050      12.35963553
Si      20.27788237      11.31854746       8.17567273
Si      24.08167189      11.10707048       8.47148624
Si      20.01072102       9.65566920       9.77725182
Si      23.86037023       9.40046244      10.04427747
Si      18.31168889      13.76048425      10.44309300
Si      17.97340182      13.01399764      14.20851152
Si      18.03029331      12.04887675      12.09132719
Si      17.76107075      11.29357646      15.81634238
Si      16.07931825      10.82516635      11.63160358
Si      19.93105698      10.57982134      11.93056228
Si      15.88733897       9.13873855      13.25952895
Si      19.69524237       8.91537430      13.54830795
Si      14.17032727      13.24575968      13.93028120
Si      13.85278443      12.54734708      17.67237060
Si      13.94581484      11.54879782      15.49385254
Si      13.56007918      10.82161493      19.25517739
Si      11.93598118      10.36305233      15.09328781
Si      15.77580540      10.13196857      15.39198912
Si      11.72806526       8.65834070      16.73234471
Si      15.52586441       8.36386234      17.02409893
Si      10.02059387      12.75833378      17.35609874
Si       9.69610424      12.00519838      21.10382021
Si       9.80234408      11.06737488      18.98900135
Si      11.64138794       9.63663435      18.86604497
Si      11.40099913       7.95915782      20.46847809
Si      25.93912253      13.28389937      11.00695799
Si      25.64880989      12.52416260      14.74958472
Si      25.73515324      11.56167308      12.60022282
Si      25.40508124      10.84250958      16.38303283
Si      23.78596967      10.36485124      12.21087156
Si      27.57927583      10.09195984      12.49955433
Si      23.53221373       8.67178257      13.83284663
Si      21.79896675      12.77198046      14.47709924
Si      21.46924984      12.01397810      18.22952025
Si      21.58375349      11.06576087      16.08837643
Si      19.60203877       9.87727937      15.70500101
Si      23.36482193       9.62977846      15.98111947
Si      19.37993301       8.18189299      17.32902089
Si      17.69327358      12.28971718      17.95564499
Si      17.33673141      11.56714017      21.69874631
Si      17.42767313      10.58174582      19.62091232
Si      15.46058326       9.38728884      19.14609369
Si      13.51615009      11.75127527      21.40598313
Si      13.29620491      10.08868681      23.02273656
Si       9.36441802      11.28051986      24.86309577
Si      10.06726253       8.20974173      12.55569738
Si       9.85320553       6.46420759      14.20406452
Si      21.85550296       8.24023848       9.65053063
Si      21.99106594       7.22324531       7.51214912
Si      21.65033090       6.55141358      11.27946058
Si      23.61320143       4.10091097       8.99405451
Si      18.02594704       8.45473383       9.36083019
Si      17.71764241       7.68880238      13.14571359
Si      17.84334500       6.70378395      10.99498253
Si      17.50234010       6.01451015      14.74477536
Si      15.86833089       5.53027836      10.56037168
Si      19.66236152       5.27399943      10.86549725
Si      15.63358810       3.83617275      12.17557055
Si      19.45204275       3.54411877      12.48772384
Si      13.89014836       7.92459896      12.88912472
Si      13.59144941       7.20298134      16.59733520
Si      13.67656609       6.18973793      14.46107079
Si      13.37520371       5.51079277      18.21112015
Si      11.64460184       5.02150396      14.04564198
Si      15.54258821       4.76467907      14.34003398
Si      25.67833233       7.96915286       9.93603085
Si      25.39138899       7.19406815      13.73626361
Si      25.47828611       6.25719775      11.57371236
Si      23.51983957       5.07650581      11.13996742
Si      21.60054012       7.45994206      13.42615834
Si      19.34223731       4.51817970      14.56937323
Si      17.39338015       6.95089628      16.90802263
Si      21.61583489       2.90568105       8.60028533
Si      21.37023500       1.17106342      10.20407664
Si      17.45569595       2.35717104      12.06925405
Si      13.34790539       1.87612548      15.54809378
Si       2.53098921      11.13037638      39.56604761
Si       0.82167165      11.38195255       7.99616820
Si       0.40569934      11.11175562      31.25507113
Si      38.48936685      12.46526777      28.20378856
Si       0.64186956      12.45115263      36.53501272
Si      38.70405517      13.76882347      33.46059578
Si       0.82183828      13.74197925       1.82790865
Si      38.95118523      15.12294891      38.76224936
Si      38.44697839      10.95739374      30.02340241
Si      36.58621800      11.40921995      31.35222898
Si      34.41878970       9.04172970      29.27500690
Si       0.35643092       9.62172593      33.06176260
Si      38.43665555      10.03920803      34.44233189
Si      38.67681831      12.24296259      35.23681995
Si      36.50769566       9.85671951      33.11598491
Si      36.79628258      12.71160746      36.59443803
Si      34.66400016      10.32012622      34.50445090
Si       0.54651483      10.92501934      38.31126546
Si      38.73380641      11.42367085      39.66350635
Si      36.78773024      10.32003757       2.79984803
Si      38.89220419      13.57522404       0.55962984
Si      36.74569296      11.20899827      38.41353657
Si      37.00727212      14.05443280       1.84809803
Si      34.87399408      11.64289553      39.78283079
Si       0.79953092      12.22221782       3.57473452
Si      38.84603965      11.18580295       6.71426628
Si      38.93340339      12.68046684       4.92601360
Si      36.97403459      11.64160156       8.07119327
Si      39.12517460      14.88638355       5.79082438
Si      36.94809238      12.50789609       3.66408013
Si      37.22410697      15.35470844       7.16988633
Si      35.08501086      12.97900077       5.00689562
Si      34.82389285      10.09840984       1.54674566
Si      35.04463685      11.44761565       6.79211500
Si      33.17713801      11.90654956       8.18675559
Si      31.25250198      10.81489675      11.32695447
Si      36.79580812      15.16362672      30.42443528
Si      35.10803384      17.75898340      32.63746449
Si      37.24209668      17.74208444       0.92621132
Si      35.36353830      19.09972974      37.88655376
Si      35.55434348      20.36052276       3.15680353
Si      34.63977449      11.22923743      30.08503595
Si      34.71670847      12.71525598      28.27673920
Si      32.74638082      11.68128545      31.47365613
Si      33.00096085      15.37000927      30.47723042
Si      36.74848279      13.59337216      32.21205433
Si      34.82845190      12.51319612      35.36022986
Si      34.84651736      14.04796272      33.54209355
Si      32.94683924      12.96168875      36.72300499
Si      35.06311975      16.20920116      34.39854531
Si      32.94501195      13.85259352      32.30675019
Si      33.18345532      16.68079576      35.79827871
Si      31.03216771      14.31356174      33.65724121
Si      36.98396543      14.92731281      37.47596774
Si      35.05301535      13.85025842       0.60660909
Si      35.12537549      15.39216017      38.81837992
Si      33.17056628      14.29705347       1.97457390
Si      35.27811642      17.54634886      39.66857635
Si      33.14925871      15.16156450      37.53618894
Si      33.38570191      18.03103279       1.02822506
Si      31.26810626      15.61702593      38.91330012
Si      37.19833609      16.19937105       2.71182512
Si      35.23949525      15.18598455       5.86911805
Si      35.32244706      16.69231523       4.09656572
Si      33.39605347      15.57101440       7.23295862
Si      35.46633646      18.85628047       4.92402524
Si      33.34429730      16.46114194       2.82579478
Si      33.60704295      19.29557941       6.30317956
Si      31.50681909      16.95256848       4.21899684
Si      32.45289342       8.85374703      27.92085504
Si      30.60952133       9.27212062      29.34441636
Si      30.77287909      11.46674182      30.14353181
Si      28.93636824      11.91266407      31.59315568
Si      32.69534484      10.15059383      33.21116976
Si      30.75822954       9.06303617      36.34280982
Si      30.86677327      10.58268546      34.58979577
Si      28.91045818       9.51215605      37.70666973
Si      31.00850844      12.81140177      35.46055292
Si      28.87812690      10.37257662      33.29628415
Si      29.18242411      13.22879137      36.79469757
Si      26.99156202      10.83651798      34.69614696
Si      32.89460325      11.46981744      38.50085782
Si      30.99415483      10.36454044       1.64932470
Si      31.03013564      11.90613899      39.85668185
Si      29.17276444      10.81711021       2.97081482
Si      31.23610624      14.11438318       0.69331179
Si      29.07000740      11.71470993      38.61905053
Si      29.38387411      14.51757961       2.08478714
Si      27.25233591      12.16592957      39.92948477
Si      33.09431685      12.73816515       3.74365131
Si      31.23667459      11.68307489       6.93674106
Si      31.23984555      13.21171225       5.14309573
Si      29.36714870      12.14567403       8.31109903
Si      31.42407217      15.40659493       5.97998450
Si      29.29308493      13.01080151       3.84285123
Si      29.56110194      15.86272184       7.33236724
Si      27.43520457      13.48944419       5.21186440
Si      33.35098299      14.05292675       9.03035879
Si      29.53067147      14.30867890       9.08417975
Si      26.94796352       9.30325360      36.45957928
Si      27.12853235      10.62700568       1.74210460
Si      25.30384052      11.08819275       3.09350639
Si      27.23013046       9.73785016       6.14718114
Si      27.39271891      11.94135049       6.98151069
Si      29.25761442      10.58248894      10.05591141
Si      33.41108766      20.40778317      34.82010996
Si      33.65605817      21.71725194       0.09367392
Si      31.73356551      23.04359147      37.08726840
Si      31.93652675      24.36772788       2.32181169
Si      33.12146650      17.60561347      31.37080975
Si      31.22756584      16.49210837      34.47412518
Si      29.37045414      16.95329696      35.83592448
Si      31.43274040      20.21074338      33.56552515
Si      29.61820845      20.68466453      34.95724468
Si      33.35031740      18.83646712      36.62045015
Si      31.41908318      17.80497968      39.76965944
Si      31.53518259      19.34470511      38.00800585
Si      29.57841795      18.25206481       1.14610594
Si      31.63216744      21.51876030      38.82017286
Si      29.53652149      19.15488522      36.75215934
Si      29.82448166      21.99607283       0.23370914
Si      27.65433464      19.62328543      38.11071971
Si      33.56687201      20.18008802       1.87808155
Si      31.63151697      19.11550745       5.02618298
Si      31.72283628      20.63847692       3.24263878
Si      29.78340314      19.57231175       6.39799295
Si      31.88627421      22.82616326       4.09746891
Si      29.73860962      20.43003167       1.96406525
Si      30.01228349      23.28757313       5.48933282
Si      27.91450100      20.92849963       3.37720926
Si      29.08474090      14.08686281      32.41964744
Si      27.16780967      13.04248422      35.52908240
Si      27.20164290      14.55256606      33.73749728
Si      25.30971233      13.49326052      36.90230075
Si      27.35480031      16.76529750      34.59808707
Si      25.52383940      17.22878136      35.96134515
Si      29.31046329      15.42358334      37.64828132
Si      27.36683518      14.33169014       0.82395064
Si      27.45713978      15.90001931      39.05120841
Si      25.48664179      14.79556981       2.14802504
Si      27.62110205      18.06031777      39.85292838
Si      25.47279071      15.70449770      37.76061101
Si      25.77209411      18.50479717       1.28698933
Si      29.52137546      16.71215614       2.91958796
Si      27.60278494      15.63737719       6.04450753
Si      27.65745494      17.21380372       4.29789394
Si      25.73380063      16.11108946       7.44336738
Si      27.81228587      19.35535343       5.16178835
Si      25.67245972      16.96250512       3.01953843
Si      25.97944929      19.81432354       6.50491873
Si      23.81348088      17.47265340       4.37229585
Si      29.74762675      18.04121444       8.18872206
Si      25.92287777      18.30098257       8.27720067
Si      25.23155786      11.95961440      38.69826872
Si      25.46838049      13.24163440       3.94619860
Si      23.61320149      13.73365773       5.31421971
Si      23.79994376      15.92580236       6.14566157
Si      27.82511575      21.81595934      38.97407837
Si      26.01402702      22.21841454       0.31291976
Si      29.98660115      24.13729059       1.03679149
Si      28.05817265      23.09430835       4.21875464
Si      28.09223005      24.63856428       2.41974076
Si      26.22019805      23.53547278       5.53133173
Si      28.26623047      26.80260262       3.27809954
Si      26.14849625      24.42859010       1.12448797
Si      26.42360019      27.23811319       4.64961643
Si      24.29751636      24.89864727       2.53915005
Si      23.80692881      18.34775901      39.94111606
Si      25.91467818      20.70210623       2.07963381
Si      23.98731616      19.67094342       5.22698855
Si      24.08464564      21.17798343       3.43600133
Si      24.21279203      23.35830036       4.26854761
Si      18.58523861      21.84729319      36.56481067
Si      20.96000222      23.31874628       0.09861918
Si      20.15026916      21.92207877       1.81374888
Si      14.72070567      17.42721994      27.89268931
Si      13.90230062      15.98821104      29.63361411
Si      17.93198368      19.05148654      34.00456757
Si      18.13354123      17.60796834      29.69808197
Si      17.29940312      16.25091894      31.45148938
Si      20.69265613      16.43902828      33.24078039
Si      16.29933213      17.58020403      33.11819678
Si      12.12534547      15.94142728      33.06249996
Si      15.52613165      16.15489917      34.83617122
Si      24.04533219      16.66455607      35.04589612
Si      20.28675645      20.59295783      37.50409295
Si      21.29826819      19.24419388      35.82456685
Si      19.47069334      19.16208721      39.23188348
Si      19.69545747      17.77735684      34.92004981
Si      23.08437875      18.00195165      36.71691443
Si      18.88214778      16.41048750      36.60905947
Si      22.27407943      16.55263022      38.43406111
Si      16.93492959      20.34283692      35.71285837
Si      16.13424417      18.96650177      37.42712164
Si      14.51509253      17.49485459      36.54534260
Si      17.91620272      17.70710341      38.33416821
Si      13.69842962      16.10229974      38.23106381
Si      17.06706319      16.28523200       0.03086613
Si      21.94141532      20.71090240       2.66327827
Si      22.92682149      19.33857119       1.00859088
Si      21.13724056      19.29663089       4.40200041
Si      21.29497122      17.91636220       0.11642526
Si      20.49975597      16.52885594       1.83652818
Si      18.53087529      20.49126161       0.90509141
Si      17.68423784      19.08638440       2.63000935
Si      16.11927092      17.60416654       1.71595058
Si      19.46306824      17.85062715       3.50902951
Si      15.31733950      16.20260845       3.42233268
Si      18.65594015      16.42662439       5.17151171
Si      16.62205241      13.44853286      28.87008323
Si      12.27679012      14.55710000      28.76822230
Si      11.40520889      13.19690001      30.47391497
Si      15.06594453      12.02021597      27.93887583
Si      10.83485475      10.45789424      27.92392096
Si      14.20819195      10.65042255      29.71193615
Si       9.86256115      11.70979500      29.58246050
Si       9.05375909      10.32209908      31.29811792
Si      23.42305625      13.89794310      32.45671327
Si      22.77245772      11.11960532      29.83268782
Si      20.81208585      15.10396644      28.94726607
Si      19.07102312      15.03421526      32.35556422
Si      20.03700104      13.64485379      30.63454180
Si      18.22656510      13.61243125      34.04247342
Si      18.42342051      12.23950492      29.81433991
Si      21.82104254      12.41484822      31.61782279
Si      17.60510578      10.86206347      31.51631595
Si      21.00564448      11.05297348      33.27469461
Si      15.65216759      14.79261065      30.54309011
Si      13.90588679      14.69657223      33.96360468
Si      14.86451159      13.38363708      32.27546447
Si      13.04977553      13.32997377      35.65472808
Si      13.23552836      11.92675550      31.41124501
Si      16.63898248      12.11022803      33.16480439
Si      12.44444836      10.53954928      33.10968876
Si      15.80822730      10.76954631      34.87939157
Si       9.62230074      13.10392908      33.86169678
Si      11.42201936      11.86545658      34.78935247
Si      10.63698441      10.45645831      36.51393976
Si      25.22246239      12.64981952      33.36684539
Si      24.38494336      11.27576640      35.06879473
Si      22.48017912      15.22400156      34.13406508
Si      20.62954896      15.14290584      37.54042818
Si      21.59183316      13.79602332      35.83214293
Si      19.84351379      13.71843530      39.24951608
Si      20.00253575      12.36253312      34.97857743
Si      23.37709897      12.54575452      36.77404835
Si      19.17576537      10.97234747      36.64424936
Si      22.56296172      11.20353871      38.43915090
Si      17.23847517      14.92867265      35.76125677
Si      15.45130644      14.84411948      39.10853789
Si      16.43902722      13.52441688      37.42481071
Si      14.63456988      13.47895196       0.83176042
Si      14.84701405      12.02890390      36.56141986
Si      18.24868549      12.27632857      38.40536451
Si      13.98540595      10.68176839      38.29348970
Si      17.38386339      10.86949816       0.09556604
Si      12.08616979      14.65989205      37.34446640
Si      11.26877459      13.26413109      39.05734312
Si      13.04488029      12.00203712      39.99196371
Si      24.03049565      15.35344594      39.35790649
Si      22.26081407      15.27636855       2.70272133
Si      23.22724691      13.94209016       1.06309391
Si      21.45623006      13.85771386       4.45103770
Si      21.56695389      12.51287484       0.15362770
Si      20.77850247      11.08425433       1.85600197
Si      18.84333866      15.06372932       0.93659884
Si      17.07750398      14.98173324       4.35021745
Si      18.05936381      13.67071158       2.66309837
Si      16.20730291      13.59246634       6.03050414
Si      16.44697874      12.17076192       1.73940041
Si      19.83458635      12.44105415       3.53814772
Si      15.59179187      10.77855962       3.45425190
Si      18.94818618      11.02285558       5.26299701
Si      13.66923551      14.76977627       2.50771533
Si      20.46244815      15.19430828       6.12079784
Si      16.93950203       8.05529242      28.93661545
Si      12.59105789       9.17972929      28.82202968
Si      11.75146496       7.73715206      30.49308186
Si      14.50831680       5.18256385      29.74670127
Si       9.32153134       4.88312443      31.34702766
Si      24.55674495       9.84153943      30.78700020
Si      23.72801412       8.49936106      32.51027370
Si      19.38013160       9.57247326      32.38612115
Si      20.34937615       8.25391915      30.67552064
Si      18.54583669       8.16340788      34.11513365
Si      22.14398202       7.01421485      31.62634081
Si      17.88923821       5.40654340      31.54490089
Si      21.28637493       5.58411289      33.34040703
Si      15.99042852       9.37473710      30.60880454
Si      14.16551701       9.28433786      34.03684827
Si      15.18424512       7.94140344      32.31415438
Si      13.36371075       7.87954831      35.71196840
Si      13.53292507       6.52113474      31.46480028
Si      16.93432515       6.72975125      33.25500856
Si      12.73965973       5.08583304      33.10710736
Si      16.08769876       5.31180727      34.94896257
Si      10.80669365       9.06057833      32.18385700
Si       9.96338263       7.64941097      33.95084804
Si      25.35125630       8.60624278      37.71672688
Si      25.51614835       7.24690566      33.42398911
Si      24.66385316       5.81052204      35.15273846
Si      22.74448990       9.78232388      34.19033336
Si      20.95000375       9.68857195      37.62880078
Si      21.89874379       8.37836138      35.87953940
Si      20.13749545       8.31582505      39.27996660
Si      20.28921930       6.91368093      34.99994014
Si      23.72623640       7.17402166      36.83178103
Si      19.49565286       5.58929665      36.74593429
Si      22.94424775       5.77032605      38.48295598
Si      17.57139792       9.53629923      35.76156040
Si      15.77532362       9.41013234      39.20891798
Si      16.72679600       8.14219698      37.51507822
Si      14.95818865       8.00776782       0.90099088
Si      15.11214734       6.64481488      36.62665149
Si      18.51963074       6.86683662      38.36194840
Si      14.28591596       5.27997430      38.30466414
Si      17.69623971       5.45352292       0.16930751
Si      12.39902505       9.23973280      37.42601316
Si      24.34025298       9.93458512      39.38981028
Si      22.58395502       9.86069854       2.78250993
Si      23.57613627       8.55192375       1.12638662
Si      21.75097635       8.44874107       4.47893749
Si      21.95524186       7.07378472       0.19864960
Si      21.10100508       5.64487487       1.91770043
Si      19.18833353       9.64660129       0.97115159
Si      17.39750532       9.54628329       4.38495580
Si      18.35192918       8.24835817       2.70558607
Si      16.71146402       6.78524950       1.82503199
Si      20.12165840       6.99141474       3.61635494
Si      23.50505855       7.20814738       5.38670293
Si      20.76703933       9.78591866       6.18252459
Si      19.66248981       4.15553113      32.47218383
Si      18.88155566       2.76027245      34.17004502
Si      16.28027308       3.93766309      30.63089793
Si      14.50789418       3.84117307      34.06766187
Si      11.12132554       3.64598155      32.24136595
Si      23.08088725       4.38143914      34.27149658
Si      21.25344270       4.26811410      37.62912299
Si      22.26434249       2.96764404      35.94756680
Si      20.43509167       2.91818333      39.36030251
Si      23.18642784       0.32514750      38.56555944
Si      17.89002659       4.08365928      35.82901957
Si      16.11822411       4.01367076      39.22636001
Si      17.06110261       2.67681690      37.53286200
Si      15.45058038       1.21399960      36.65579860
Si      18.86685826       1.42986404      38.44895629
Si      22.88317419       4.43798216       2.87166561
Si      23.84316918       3.06863345       1.10436054
Si      22.03842077       3.01722745       4.52840124
Si      22.23505466       1.62544987       0.26271923
Si      21.41118446       0.26916522       1.96452866
Si      19.47116911       4.21312974       1.04407742
Si      21.05638982       4.35214252       6.24275644
3068
Lattice="40.0 0.0 0.0 0.0 40.0 0.0 0.0 0.0 40.0" Properties=species:S:1:pos:R:3 relative_density=0.96 cell_dim_angstroms="_JSON [40.0, 40.0, 40.0]" n_grains=16 grain_size=20.0 crystalline_fraction=1.0 grain_radius=19.536497026242902 pbc="T T T"
Si      22.66444687      36.42100330       8.53129842
Si      22.86902960      38.70891619       8.02620854
Si      20.98429042      39.31065091       6.75582101
Si      19.40400724       0.18543805      10.21401672
Si      21.15473977       1.58712842       6.19385983
Si      19.17668883       2.22248486       5.09278677
Si      19.56926861       2.45104091       9.60686211
Si      17.62385474       3.13314177       8.47598447
Si      19.45937873       5.87786136       6.42129108
Si      19.27589786       4.50164771       4.52336303
Si      17.69399338       5.41252868       7.90335448
Si      17.28915588       5.10565028       3.42029943
Si      15.71097091       6.05389645       6.81496090
Si      14.12479305       7.00709800      10.20182399
Si      15.85898885       8.33140676       6.24970308
Si      13.86390420       8.92865431       5.15793024
Si      12.30082590       9.89941892       8.53312820
Si      13.83191501      11.23848391       4.71856502
Si      11.93643472      11.85607246       3.47137904
Si      22.67624815      35.20448983       6.51867889
Si      20.68519540      35.77732019       5.40725279
Si      18.59155595      33.13417063       7.29091411
Si      18.52106620      34.95285365       2.37663148
Si      20.88906849      36.06084671      10.03058774
Si      19.16931832      38.97810386       8.21108848
Si      19.02072383      36.69677962       8.75356099
Si      17.19888665      39.56975501       7.07525249
Si      18.82150610      35.41805970       6.79258590
Si      16.79895080      36.00877775       5.75240724
Si      15.30876581      36.90776620       9.15460349
Si      20.80526967      38.04099270       4.78529476
Si      18.90634959       0.94660412       3.13647690
Si      18.79510316      38.67872142       3.74625156
Si      16.90043702       1.53998699       2.06346984
Si      18.28066815      37.25278562       1.94886208
Si      16.94169371      38.27139887       5.13330012
Si      14.94456114      38.89774930       4.06470895
Si      16.63477695       0.23222668       0.12788960
Si      14.63065123       0.74437072      39.01070035
Si      17.61547232      39.84063238      11.70057752
Si      15.80027641       2.79063646       9.91994854
Si      15.73804012       0.50067070      10.44856701
Si      13.81646934       3.40465899       8.81850136
Si      15.40191814      39.17409146       8.53741937
Si      13.91244444       0.32666465      11.91967614
Si      13.42691136      39.83978107       7.45186089
Si      11.83651124       0.74838329      10.90006967
Si      17.35048601       1.84980960       6.52543591
Si      15.47030364       4.75765494       4.86860710
Si      15.35714112       2.48423227       5.45401218
Si      13.47266136       5.45399604       3.84444160
Si      15.09030636       1.17866653       3.51839385
Si      13.52289195       2.11560508       6.87572714
Si      13.08679053       1.74163001       2.42765364
Si      11.54252096       2.76590063       5.79210011
Si      17.02918424       3.81187584       1.47398627
Si      14.71749489       4.74354950       0.58531620
Si      14.57767904       2.99271678      38.32544214
Si      12.98872849       4.05358685       2.02021238
Si      12.67775681       3.91568463      37.29112714
Si      11.17179197       4.75169430       0.70337457
Si      10.98135691       6.63482538      35.74636350
Si      12.27526458       4.32331454      12.14507512
Si      10.37009517       7.22306233      10.54593288
Si      11.98033011       2.99592569      10.22752172
Si      10.01075554       3.69214783       9.15150294
Si       8.30628885       4.57334101      12.43283333
Si      13.89982981       5.68832862       8.26845882
Si      12.02690799       8.60554281       6.58920231
Si      11.92241942       6.33096903       7.17246882
Si      10.04405744       9.22631658       5.48971342
Si      11.61841482       5.04540405       5.22907797
Si      10.07487532       5.97010782       8.57925852
Si       9.64549241       5.66893277       4.11614501
Si       8.09445758       6.61068117       7.48894802
Si      13.61793094       7.70054538       3.16808388
Si      11.71323292      10.56630085       1.51791144
Si      11.60936488       8.29025024       2.09795680
Si       9.72084279      11.19889046       0.44141257
Si      11.35594268       7.02445935       0.13317246
Si       9.78470865       7.94223756       3.53824787
Si       9.33892477       7.61443946      39.07959074
Si       7.80013049       8.58674971       2.45681248
Si       9.47392999       9.88976331      38.50418576
Si       7.48319173      10.51906785      37.42268406
Si       8.47477079       6.85327703      11.88746822
Si       6.41770300       7.51276484      10.96012742
Si      10.47571635       9.49790266       9.96045404
Si       8.53767539      10.22710632       8.84637127
Si       8.22299906       8.89143157       6.93763121
Si       6.64771011       9.70596151      10.14441143
Si       6.23501576       9.52175506       5.85369728
Si       4.51985140      10.30774463       9.34462732
Si      10.13928012      11.51216130       4.94833017
Si       8.16584109      12.14007586       3.83467179
Si       7.89127085      10.86347859       1.87944460
Si       6.35615341      11.80257026       5.29741718
Si       5.90048296      11.49272553       0.79837619
Si       4.25959189      12.21989839       4.31848369
Si       9.48880757      13.48532688      39.94381012
Si      18.46973649      32.10642924       5.18061006
Si      16.32343984      32.55285255       4.32883990
Si      15.00898572      35.60437034       7.22108874
Si      13.05417003      36.26310882       6.09435750
Si      12.74669339      32.65634144       4.60683983
Si      11.07092291      33.61908202       8.18202185
Si      16.61085949      34.81015378       3.73949223
Si      14.71940839      37.66200456       2.07819737
Si      14.57430172      35.40845070       2.73025001
Si      12.70133990      38.21823755       1.00932243
Si      14.27567629      34.11250390       0.79272986
Si      12.76109155      34.96389022       4.15795116
Si      12.28775402      34.70988867      39.68921381
Si      10.78070680      35.61973535       3.07585927
Si      14.27449378      39.38524059      37.12643962
Si      12.40645936       0.21195792      35.96250339
Si      12.48771136      36.95935183      39.03583812
Si      10.47961218      37.56879398      37.97616774
Si      13.48182103      36.78965569      10.63004183
Si      11.59689547      39.54462054       8.89590690
Si      11.56712810      37.23708092       9.34133632
Si       9.60107853       0.09646329       7.78576769
Si      11.19571809      35.85760933       7.47481717
Si       9.86328550      37.00868686      10.94514624
Si       9.22723348      36.52709631       6.37932946
Si       7.65953553      37.53752717       9.77037581
Si      13.13266411      38.53950906       5.51720238
Si      11.24298866       1.46786527       3.85750289
Si      11.16314386      39.18684133       4.41239650
Si       9.26813192       2.08309458       2.74483579
Si      10.89355536      37.88807381       2.47358368
Si       9.33444831      38.81083285       5.83799494
Si       8.90184719      38.50670576       1.39218174
Si       7.35721543      39.47229075       4.75607539
Si      12.79250498       0.50009826       0.45476058
Si      10.93650191       3.41112582      38.78755865
Si      10.81220869       1.13572562      39.36127039
Si       8.95237626       4.06110148      37.70817682
Si      10.58976310      39.84683351      37.40894186
Si       8.99659050       0.78038056       0.80929192
Si       8.59745857       0.50408256      36.34926393
Si       7.02401771       1.43700308      39.71535517
Si      12.47941692       2.49969899      35.42463265
Si      10.50457569       3.15534429      34.32953256
Si       8.48434828       6.36094343      32.79894599
Si      10.01894563       1.70391407      32.54600305
Si       8.67494791       2.77801224      35.75806568
Si       6.68911835       3.37144801      34.64802212
Si      10.02856538       0.41054722      12.36420329
Si       8.16506552       3.21089381      10.52352700
Si       8.00011572       1.01318903      11.33975357
Si       6.25848284       3.98819823       9.39163169
Si       7.83422677      39.83599569       9.31238836
Si       5.92804143       0.36045053       8.04241604
Si       9.72471444       2.37483448       7.22751619
Si       7.82538683       5.30338561       5.55568570
Si       7.76024708       3.02311277       6.11522309
Si       5.84483966       5.91538452       4.45053847
Si       7.43315662       1.74585457       4.17154539
Si       5.89877484       2.64571704       7.49749627
Si       5.44216206       2.36944315       3.09270610
Si       3.89110381       3.29722818       6.46590953
Si       9.38811986       4.36047582       2.18205353
Si       7.52317552       7.26809982       0.53128771
Si       7.40456026       4.98907318       1.09120712
Si       5.53708927       7.92101694      39.45732855
Si       7.12076414       3.71278697      39.13892537
Si       5.55641971       4.63957738       2.49904810
Si       5.13129322       4.30879430      38.03891206
Si       3.55884441       5.24408271       1.41916138
Si       9.09958845       6.33308275      37.12332562
Si       7.16720454       9.26305584      35.46007792
Si       7.11129161       6.98870222      36.05383491
Si       5.18432624       9.92513863      34.38320434
Si       6.69041100       5.67005993      34.15325741
Si       5.32280016       6.59523931      37.52802407
Si       4.79907432       6.32206271      32.91747048
Si       3.30509022       7.21852789      36.49480091
Si       2.75789795       7.83146548      11.31098758
Si       4.40558636       3.64174287      10.79426376
Si       2.28119056       4.18507185       9.94601765
Si       6.28393574       6.29643020       8.95337026
Si       4.41414403       9.16021909       7.29536863
Si       4.29868813       6.87608325       7.83736354
Si       2.37342605       9.62480720       6.22467068
Si       4.02782324       5.57370020       5.90031639
Si       2.60732240       6.45157941       9.41332422
Si       2.06846623       6.20757863       4.76786899
Si       0.59137078       7.02801256       8.35035115
Si       6.00596363       8.19961232       3.92439385
Si       4.11894425      11.06917598       2.27337893
Si       4.06025641       8.76525568       2.73388536
Si       3.64628998       7.50775662       0.79158298
Si       2.22741980       8.47795693       4.17745200
Si       5.64907522      10.19101160      38.85670919
Si       3.68472894      10.68155754      37.66198631
Si       0.46400251       9.23125073       7.53913784
Si       2.57061712      11.94926744       5.93088902
Si      10.47587086      34.32832054       1.13629163
Si       8.49110224      35.00127169       0.07311651
Si       8.20280802      36.93493203      34.95424981
Si       8.03507441      33.76967427      38.12336898
Si       6.16464190      34.30072167      36.80135129
Si       7.38330930      36.26566492       7.81293936
Si       7.26153315      34.09991884       8.71953670
Si       5.34673795      36.78104578       6.75868535
Si       8.91953684      35.21584495       4.45318517
Si       7.07824616      38.15523667       2.83089259
Si       6.93166029      35.87687644       3.38712432
Si       5.07775339      38.83162125       1.80099700
Si       6.64855872      34.55592950       1.46328616
Si       5.09331998      35.50132142       4.80319938
Si       4.74496185      35.50277592       0.45930884
Si       3.10512007      36.14668688       3.72717404
Si       8.65320711      37.25313489      39.42069084
Si       6.74891870       0.16306487      37.76014689
Si       6.67667900      37.88050694      38.31530246
Si       4.75165587       0.74101511      36.66407573
Si       6.35351020      36.60398963      36.36819918
Si       4.81102930      37.73893578      39.73755938
Si       4.36004986      37.20182300      35.27411221
Si       2.76098506      38.14307668      38.66092764
Si       8.23765037      39.22272124      34.41171473
Si       6.42915192       2.03576889      32.73042338
Si       6.26463161      39.74746548      33.24554118
Si       4.43912421      39.48158373      34.70356368
Si       4.08985446       0.39703501       9.50695110
Si       2.07693593       0.66988288       8.32264762
Si       3.52665208      36.48153080       8.21601764
Si       5.50984185      39.04290156       6.14245621
Si       3.60589686       2.01825413       4.51555040
Si       3.52788503      39.74128657       5.09103409
Si       1.60241844       2.62215355       3.44520370
Si       3.20980156      38.42754293       3.16840539
Si       1.70158791      39.24965021       6.48690497
Si       1.23100724      39.06851818       2.07349617
Si      39.62603274      -0.15643060       5.55521517
Si       5.19112398       1.08417404       1.14222367
Si       3.27840909       3.99107259      39.45015738
Si       3.21720752       1.71502036       0.03424180
Si       2.91492491       0.41998867      38.09590437
Si       1.40738310       1.33788717       1.48550807
Si       4.86760286       3.01825262      36.09193064
Si       3.00984650       5.90943648      34.38672465
Si       2.87631197       3.64604887      35.01072091
Si       2.08080142       2.98834827       7.93243446
Si       0.34296137       5.63091090       6.47566023
Si       0.03698934       3.32508275       6.82013746
Si       1.72634689       4.89301573       2.84911707
Si       2.90283247      34.85816917       1.77085958
Si       0.90795676      35.49442033       0.70066033
Si       4.40905172      33.94301677      38.32442089
Si       2.55659019      36.81406033      36.73227186
Si       2.38061372      34.53754823      37.29393518
Si       1.31207075      35.79678284       5.20741223
Si      39.39233152      38.72751264       3.49866598
Si      39.34762040      36.45289470       4.09363844
Si       0.96184269      37.77467895       0.12893359
Si      10.43686925      37.00090637      23.44154846
Si      11.68677119      37.90506701      18.03522865
Si       8.79384056      36.23147807      20.04103061
Si      12.62101522      38.55172842      12.76248683
Si       9.80780298      37.01269416      14.65408072
Si       5.96320719      34.58676538      22.05454521
Si       6.98237239      35.38473592      16.61096309
Si       7.82199524      36.01076370      11.55025640
Si      15.27933354      36.84991600      18.50478637
Si      16.05944149      34.10836337      21.15921173
Si      16.32371330      37.60821312      13.29123706
Si      17.40253465      36.51031543      17.55325899
Si      19.82152182      36.35933086      13.82509229
Si      17.07075451      34.86193774      15.91033251
Si      18.39018266      37.29808689      12.21303831
Si      18.19427954      35.56307417      10.63859306
Si       8.49344460      32.83223210      27.78157422
Si       9.28806949      30.04224232      30.34399821
Si       9.62198396      34.97876305      24.32244540
Si      11.29015493      34.48317220      25.90382946
Si       9.57659359      33.49972803      22.49568761
Si      13.21737748      34.30950612      24.56778236
Si      10.59597979      32.42729492      26.80972038
Si      13.22487128      32.44876289      23.13041894
Si      10.38958948      30.80635562      25.11951853
Si      12.43655210      36.59191862      22.27408549
Si      10.82150298      35.89724819      18.89924760
Si      12.40958743      35.11448321      20.44547650
Si      10.66370969      34.25341489      17.22672083
Si      14.55317387      34.85590029      19.51630864
Si      11.67817780      33.14761438      21.50424046
Si      14.28409333      33.21360634      17.85694358
Si      11.44538655      31.54648849      19.80015727
Si      13.73364987      37.62603514      16.91221646
Si      11.89290456      36.51634470      13.68734228
Si      13.49548581      35.92843039      15.30370334
Si      11.70171574      34.97676964      11.92065247
Si      15.57349064      35.59964598      14.25544140
Si      12.75130588      33.89167762      16.21003815
Si      15.42280028      33.90721219      12.63160178
Si      12.52721940      32.26826688      14.52600653
Si      13.81843961      34.49518819      11.01742916
Si      13.59298145      32.98274000       9.23158894
Si       5.94533564      32.81605006      31.31125381
Si       4.07670629      31.89449433      28.11908290
Si       5.60752355      31.11384537      29.72441914
Si       3.82374336      30.22987698      26.47754327
Si       7.73626953      30.83524390      28.76528625
Si       7.54794735      29.25344781      27.03634139
Si       6.93666062      33.58643664      26.18877231
Si       5.14057460      32.57081881      22.94202775
Si       6.75339222      31.93184003      24.52859505
Si       5.21184317      30.97185000      21.22021368
Si       8.83029255      31.51535062      23.51018093
Si       5.93127266      29.94374216      25.47581016
Si       8.65739285      29.85845119      21.85301855
Si       5.78885420      28.24606470      23.85649342
Si       7.98490582      34.20567318      20.91686605
Si       6.21435194      33.37975069      17.56945021
Si       7.77134941      32.64720105      19.17068796
Si       6.01749689      31.70170773      15.93444598
Si       9.87875401      32.26556342      18.20369574
Si       7.24325121      30.56020051      20.11276755
Si       9.71187043      30.64379436      16.51161877
Si       6.82833368      28.92432177      18.47781116
Si       9.09324604      35.00513657      15.64764163
Si       7.22618264      33.91438543      12.43177368
Si       8.92031715      33.36942697      13.96809249
Si       7.16896442      32.39987111      10.63400741
Si      10.97733302      32.96775679      12.90363690
Si       8.12547514      31.38389000      14.94360154
Si      10.77483080      31.32073333      11.23837622
Si       8.03343158      29.67526475      13.33160806
Si       9.28569836      32.17905701       9.63375685
Si       3.10555640      28.22400714      27.47247006
Si       2.94868747      26.47679489      25.90670097
Si       4.26634269      28.81922343      22.15980381
Si       3.99298634      27.20849884      20.46842577
Si       5.31076653      29.64871578      16.83614064
Si       5.05505979      27.99662271      15.18335921
Si       6.73167776      30.24094967      11.45704886
Si      16.88878436      31.43096240      23.72551986
Si      18.10725364      33.76522663      20.05625381
Si      17.92210124      32.08666290      18.42208648
Si      18.78100805      29.46702267      20.97805382
Si      19.10875953      34.36711221      14.84913932
Si      20.81726289      33.71720084      16.32720383
Si      19.07393973      32.77479109      13.12070279
Si      20.05300904      31.80959012      17.46965813
Si      22.66206239      31.72655099      13.90548839
Si      19.73038177      30.17611548      15.81046308
Si      21.98442381      34.39149979      11.27144708
Si      21.19396648      32.37596792      12.18739854
Si      23.69811997      32.47471745       8.60832894
Si      20.84732582      30.72767305      10.54749464
Si      11.14786817      28.05672101      27.67112042
Si      14.78247971      26.99959189      28.27826619
Si      12.46400690      30.43626629      24.07772130
Si      14.01402829      29.72311422      25.69588628
Si      12.25759924      28.78776997      22.41518706
Si      16.09828418      29.40976199      24.64822735
Si      13.24120821      27.71937203      26.65462636
Si      15.90292011      27.70177547      23.04051734
Si      13.06205686      26.06918214      24.98952616
Si      15.31193204      32.09070305      22.10802576
Si      13.53226562      31.18891012      18.78190429
Si      15.05007659      30.46980346      20.42523336
Si      13.29847860      29.51912726      17.14604263
Si      17.14244509      30.10645295      19.41879668
Si      14.36586753      28.45853402      21.43032331
Si      16.91800134      28.50116220      17.71756241
Si      14.08110766      26.83455134      19.75576727
Si      16.35903450      32.81864119      16.82749154
Si      14.62019843      31.88829541      13.52754974
Si      16.17865760      31.19158740      15.14215439
Si      14.41051973      30.24304100      11.86229132
Si      18.24779499      30.80375981      14.09836260
Si      15.37295963      29.19942036      16.09133818
Si      18.01039679      29.12430197      12.47105035
Si      15.22486771      27.54452267      14.43106439
Si      17.48092434      33.52400674      11.56371835
Si      15.67567930      32.67007241       8.18587437
Si      17.32412908      32.04669709       9.74212851
Si      19.47371064      31.64561646       8.87767831
Si      16.56884492      30.16617831      10.93352429
Si       6.86759108      27.19967568      27.95501160
Si       6.54806359      25.45396960      26.41246027
Si      10.37102282      26.06476902      28.64990614
Si      10.18429135      24.41004613      26.98962202
Si       9.62232825      28.78242431      26.03615924
Si       7.83768166      27.85775878      22.77285649
Si       9.40030080      27.13647205      24.37307106
Si       7.66351059      26.23522415      21.08199462
Si      11.50234880      26.78385043      23.38292273
Si       8.63939890      25.15398584      25.38097244
Si      11.25685288      25.13853164      21.72270568
Si       8.44354192      23.51941441      23.70268975
Si      10.73143864      29.54172760      20.79553629
Si       8.96900959      28.66771350      17.54305653
Si      10.48286234      27.87686576      19.15650480
Si       8.48597643      26.97480239      15.98646560
Si      12.55123744      27.50839198      18.10429302
Si       9.74507055      25.83948730      20.06543735
Si      12.33225658      25.81654213      16.48745776
Si       9.46916706      24.22283099      18.38161636
Si      11.79605880      30.25777435      15.49778479
Si      10.05844048      29.29741782      12.19825780
Si      11.54563364      28.58019427      13.87133410
Si      13.63721296      28.25452700      12.84921618
Si      10.50281105      26.69460894      14.81038757
Si      12.87742007      30.98372830      10.24135203
Si       5.01639515      26.24229379      24.81238402
Si       4.83991182      24.71439792      23.03446316
Si       6.92212549      24.22938400      22.05730826
Si       6.67492314      22.63442266      20.34812744
Si       6.09994382      26.92086789      19.46691429
Si       5.82654319      25.30089726      17.78530738
Si       7.15375846      27.66495886      14.17607091
Si      21.71210692      29.70490191      14.63875931
Si      21.75606047      27.91444016      13.11981645
Si      22.94455210      30.44252247       9.52107253
Si      13.98928094      24.99616746      29.22028765
Si      13.80563376      23.33913893      27.56174877
Si      15.16869658      25.69216746      24.01696112
Si      16.59148946      25.01774186      25.76381465
Si      14.96530926      24.07493591      22.32188522
Si      18.03833445      27.52312277      22.07127232
Si      16.03814069      26.47093257      18.50741234
Si      17.47624400      26.06034238      20.31980556
Si      16.00515725      24.71230894      16.95075550
Si      17.06115634      23.78694045      21.29475132
Si      16.69843535      22.10043333      19.69684065
Si      19.13606218      28.23133942      16.98920896
Si      19.03744284      26.55442601      15.34496943
Si      20.16380488      28.74447818      11.60773023
Si      12.82563909      19.69364627      26.86826254
Si      12.26428877      24.07498079      25.94556384
Si      10.50736308      23.11377943      22.65234709
Si      12.04082748      22.41740513      24.29295871
Si      10.31861722      21.46606421      20.98564531
Si      14.14063446      22.09453247      23.28499669
Si      11.28126344      20.40535748      25.24386590
Si      13.37851197      24.82905339      20.75967323
Si      13.30067800      23.29670396      18.97858147
Si       7.66365153      21.50363866      24.62837162
Si      33.36504802       6.58250479      15.71876154
Si      37.23824408       4.81268370      12.23750284
Si       2.47723320       8.84232248      15.82048982
Si      33.26142027       6.80097397      19.56807903
Si      36.01561002       8.74518530      21.40988684
Si      33.14921963       7.09515871      23.30221367
Si      35.65035332       7.13690709      15.73108216
Si      36.15752160       8.49401712      17.58335527
Si      36.93115262       5.17153890      15.89359132
Si      38.42059835       9.13005491      17.64022816
Si      35.54136225       7.37604289      19.55806814
Si      39.65011540       7.12884932      17.74561143
Si      36.83580423       5.41892320      19.70521805
Si      38.43075802       8.87313634      13.80506539
Si      39.45743605       5.56819736      12.05514063
Si      39.75102463       6.93277035      13.94721960
Si       0.53738254       3.48929791      12.25111009
Si       2.03549582       7.48899999      13.94913026
Si      39.21255914       5.73985579      15.90021347
Si       3.37600245       5.57385135      14.19920771
Si       0.51476880       3.79392756      16.10893079
Si       2.77976746       4.17715966      12.40493394
Si       4.24081649       2.02660005      12.49438314
Si      32.72975877       5.61204446      21.52611531
Si      34.04045907       3.66222028      21.62448333
Si      32.84998670       5.42965781      17.70265198
Si      34.12949398       3.49215039      18.07552595
Si      36.41421211       4.00950141      17.87126516
Si      37.70602052       2.05046386      18.01961419
Si      -0.02874352       2.43083308      14.27235959
Si       1.30586256       0.49874136      14.38537929
Si      -0.05888288       2.35256808      10.28192683
Si      38.72863044      10.75786161      23.25299887
Si      38.66139272      10.82257243      27.04223735
Si       2.36498930       9.07924172      19.62449727
Si       1.01333979      11.31323327      23.27336063
Si       5.07415749      11.02506471      21.51665919
Si       2.26518149       9.33195137      23.45605644
Si       4.76869237       9.35219120      15.68683721
Si       5.19988703      10.61685706      17.62144843
Si       6.09398003       7.43184345      15.97697426
Si       4.65170408       9.62098888      19.67939830
Si       5.98301947       7.68880677      19.82007472
Si       8.37522332       8.00079115      16.00752705
Si       9.65657177       6.05296089      16.31344159
Si      35.43600857       7.63242426      23.39799426
Si      35.85902315       9.00015094      25.26298468
Si      36.74644879       5.68468041      23.51979126
Si      38.15225505       9.50887747      25.15988195
Si      35.35512136       7.87707763      27.26650923
Si      39.49674118       7.59664449      25.40960842
Si      36.72636219       5.96699607      27.25994598
Si      38.29170470       9.33481928      21.43287111
Si      39.11587499       5.98997428      19.73124610
Si      39.59733490       7.38409740      21.56127398
Si       0.41703577       4.03858363      19.88186101
Si       1.88432667       7.92331475      21.61362737
Si      39.02738093       6.25142859      23.54021813
Si       3.15597666       5.95323264      21.76781786
Si       0.30377757       4.28880502      23.74454747
Si       1.93565997       7.67618314      17.78854224
Si       2.80048234       4.34158995      16.11632252
Si       3.25290088       5.73673164      17.95274649
Si       4.10717869       2.39299235      16.25566520
Si       5.53092431       6.31481082      17.96729573
Si       2.70488559       4.57382492      19.91984547
Si       6.81416360       4.35046162      18.10824127
Si       3.99320580       2.61594319      20.08873548
Si       5.66451618       6.10038441      14.08728673
Si       6.49715381       2.68815831      12.45449141
Si       6.91665820       4.11898761      14.27310815
Si       9.21368171       4.50479446      14.60033167
Si       6.38535823       2.97100714      16.25400641
Si      10.59622911       2.61094553      14.42058758
Si       7.66463971       1.00647679      16.42566338
Si      32.54111574       5.80940081      25.17424412
Si      33.48961401       2.60789157      23.65259407
Si      33.94328502       3.95522268      25.52490353
Si      36.22804842       4.50649279      25.48659342
Si      33.37093872       2.74886797      27.45960221
Si      37.50776637       2.54676852      25.70373165
Si      34.67601734       0.80367135      27.65796427
Si      36.30938467       4.27484458      21.69030109
Si      37.14957282       0.93104290      20.01119870
Si      37.61506547       2.32609167      21.84561459
Si      39.88908836       2.91977582      21.88004037
Si      36.88597733       1.28219764      23.82197595
Si       1.18158954       0.96354341      22.04203509
Si      38.38768742      39.50498084      24.16044292
Si      39.98997683       2.60586989      18.06820707
Si       1.29093579       0.65132622      18.18622706
Si       3.56613503       1.24072550      18.23148024
Si       0.68410753      39.59455042      20.19693822
Si       4.84480079      39.27297413      18.36610583
Si       2.04327472      37.67615118      20.17182330
Si       3.61439849       0.93414841      14.47955771
Si       5.02642705      39.05718068      14.58769084
Si       7.31073369      39.61304680      14.56534537
Si       4.39296697      37.88336028      16.52427127
Si       0.91154716      11.49741906      27.14873255
Si       2.21748611       9.54844491      27.30688113
Si       4.55245151       9.87249219      23.49817832
Si       5.00141036      11.29424530      25.31603938
Si       5.87833123       7.93603213      23.63051510
Si       7.27058442      11.90804806      25.37522126
Si       4.48571156      10.16773038      27.31453109
Si       8.48182587       9.68290658      25.62520775
Si       5.75785696       8.19739037      27.48001876
Si       7.38983199      11.42914201      21.53469200
Si       8.26885913       8.23840411      19.81345759
Si       8.85120937       9.59026622      21.64722237
Si       9.64308253       6.34061397      20.01267269
Si       8.15895626       8.50595694      23.61537305
Si       9.32130684       6.48267907      23.90484155
Si      39.01297958       6.48762998      27.42503644
Si      39.36885694       7.87168003      29.29202297
Si       0.25067803       4.49632235      27.59416353
Si       1.65326699       8.42914848      29.29618042
Si       2.94894007       6.47475727      29.46898367
Si       0.08190857       4.78019303      31.42062058
Si       1.77287273       8.18227773      25.44618046
Si       2.58516480       4.85124790      23.76302608
Si       3.06049193       6.22299966      25.61075777
Si       3.89625224       2.90700774      23.91145197
Si       5.33417338       6.81754309      25.62477604
Si       2.52078519       5.10564744      27.60669491
Si       6.61223460       4.85183289      25.78709301
Si       3.79127560       3.13281206      27.74175788
Si       5.43165482       6.53868411      21.79427496
Si       6.26660958       3.21124031      20.08988460
Si       6.72684831       4.58307686      21.94192593
Si       7.56947971       1.26478026      20.28487177
Si       8.99591773       5.19730105      21.96296776
Si       6.17774811       3.46908358      23.93711853
Si      10.32204555       3.26145247      22.11358074
Si       7.46763724       1.51027911      24.08688812
Si       9.10357061       4.86247129      18.26491216
Si       9.92908530       1.63817552      16.45479727
Si      10.46749064       2.94796518      18.33193163
Si      11.09413864      39.59664761      16.51353739
Si       9.85080933       1.83170193      20.30743227
Si      11.18537512      39.89854241      20.20426190
Si      13.41532544      -0.05783689      16.66318029
Si      36.93428282       1.45443850      27.70457706
Si      37.40523873       2.83975368      29.54479579
Si      38.25790143      39.51453304      27.80732988
Si      39.69602101       3.36823977      29.58060904
Si       0.99246306       1.41327284      29.73781535
Si      38.13613273      39.74993898      31.83330873
Si      39.78059999       3.14488443      25.72954542
Si       0.71432459      39.82136039      24.04252165
Si       1.07187019       1.19034976      25.91949875
Si       1.93030622      37.81515845      24.19400839
Si       3.35249077       1.75718067      25.88735805
Si       0.55114468       0.02455838      27.89299560
Si       4.62583494      39.79136057      26.08170313
Si       1.81531751      38.04831005      28.04440780
Si       3.47131106       1.49120204      22.08484726
Si       4.32436775      38.20063457      20.39229010
Si       4.77419042      39.54395341      22.26795698
Si       5.70836830      36.30154941      20.46602350
Si       7.05964225       0.09243507      22.25726916
Si       4.20840166      38.39396066      24.23827742
Si       8.37328177      38.14769548      22.39479072
Si       5.49024719      36.42705183      24.36280466
Si       7.10877945      39.90275711      18.42536957
Si       8.42776757      37.95778978      18.48776400
Si      37.93487555      38.45459856      29.88130741
Si      38.99187152      36.35615042      29.97732178
Si       1.36209222      36.69086181      26.17894571
Si       5.66397922       8.37324263      31.34585428
Si       8.04647188       8.68515662      27.70955505
Si       9.52421606       6.86337565      27.54446186
Si       2.37362854       5.30654886      31.42669757
Si       3.70256402       3.37334061      31.58774918
Si       5.23096636       7.04039974      29.45773434
Si       6.07476346       3.68981355      27.75825459
Si       6.53083571       5.08594833      29.59385284
Si       7.35691088       1.72666726      27.92522295
Si       8.77080778       5.79541697      29.49999899
Si       5.95222228       4.05669589      31.62712909
Si      10.32109011       3.57714410      29.60051924
Si       8.91717795       5.30006929      25.89635654
Si       9.73227231       2.14005077      24.09409495
Si      10.34649152       3.43428725      25.95836676
Si      11.04584550       0.20045967      24.29324137
Si       9.66140139       2.18179742      27.82671908
Si      13.42761151       0.48685056      20.59872262
Si       0.42398777       0.28154374      31.71884278
Si       1.73413661      38.33519387      31.87647687
Si       3.27012915       1.99582342      29.73206625
Si       4.09778389      38.61162236      28.04508427
Si       4.55594043       0.03182462      29.86178457
Si       5.42044372      36.67304569      28.18577480
Si       6.83751038       0.59706024      29.92069728
Si       4.01608101      38.90238480      31.85217920
Si       8.13167522      38.64133308      30.09463992
Si       5.28735470      36.93248371      32.03331179
Si       6.90461297       0.36709125      26.06175607
Si       7.77470494      36.98379670      24.34814446
Si       8.02625766      38.31210786      26.27154724
Si      10.31664950      38.84007061      26.31898656
Si       7.71403684      37.17574357      28.30535054
Si      10.54044426      39.05552752      22.30251471
Si       1.18396529      37.15222423      33.83296769
Si       2.50481490      35.21350601      33.99754956
Si       1.26945604      36.93746388      30.04349079
Si       2.58498014      34.99274991      30.17441882
Si       4.86947735      35.55046292      30.17709033
Si       2.03664908      33.83812382      32.14834834
Si       4.93740839      35.29082316      26.34591746
Si       6.36409657      11.35189598      14.50393614
Si       8.48634478       9.92941016      11.59378503
Si       6.38101183      10.76456846      12.22702464
Si      10.06848108      11.65186313      11.83936035
Si       5.77661334      12.55182921      10.82336748
Si       9.47401820      13.50146112      10.51481089
Si       5.86899624      12.05199617       8.52739039
Si       5.04802933      13.85103116       7.25461570
Si      15.07640617      13.11547131       7.72998417
Si      13.15413202      14.47025942      10.24752820
Si      11.53667318      12.09595576       7.55597564
Si       9.44514490      12.92991267       8.23416250
Si      12.89804618      13.96928338       7.96446552
Si       8.83803809      14.78802342       6.92706791
Si      12.54542791      15.78475226       6.51234243
Si      16.61304957      14.89510474       7.77572387
Si      16.25666328      16.72454044       6.34175296
Si      20.07650945      17.84603880       6.20190050
Si       7.96679735      13.70681648      16.97484761
Si       9.52847124      16.03310133      19.60715039
Si       3.62299708      13.88245996      13.73611004
Si       5.94676305      14.57981120      17.80363478
Si       5.70513840      16.26046888      16.17709843
Si      11.63732183      13.99292502      14.43344458
Si      11.00801774      15.80637467      13.07617813
Si       9.56138114      15.39505965      17.34421828
Si       9.02014094      17.21735269      15.96125957
Si      12.58644377      18.25398523      15.71242606
Si       7.96365741      13.06280343      14.71330513
Si       7.33825418      14.28668359      11.10596251
Si       7.32596183      14.88983681      13.37808832
Si       6.72054424      16.11056929       9.75744558
Si       5.17642431      15.63141538      13.97398594
Si       8.88949642      16.61642669      13.69282604
Si       4.56617382      17.52276308      12.71782440
Si       8.31743551      18.49460131      12.40116308
Si       3.62459297      13.24163799      11.47348019
Si       3.13447373      15.08947538      10.10415661
Si       4.61294541      16.88379834      10.45561898
Si       4.15812913      18.69853454       9.03138784
Si      16.23488943      19.32652973      15.33537362
Si      14.56350079      16.33041112      10.53199383
Si      14.57634215      17.04123169      12.77270895
Si      14.07510302      18.15664812       9.13519702
Si      12.41037723      17.65532336      13.44700889
Si      16.34950659      18.54407662      13.12182766
Si      12.00829589      19.52328127      12.07966268
Si      15.69301578      20.34963128      11.76943164
Si      11.00775286      15.26195361      10.78949568
Si      10.42442120      16.49587048       7.23681041
Si      10.38799457      17.12770387       9.50096493
Si       8.24679638      17.85689750      10.14015191
Si      11.94199989      18.86054331       9.82640608
Si       7.68667573      19.70791988       8.80359435
Si      11.37634159      20.69540141       8.47108835
Si       6.67690069      15.53230879       7.47926131
Si      19.25492840      21.70312341      11.32607751
Si      17.83768391      18.44614478       6.59876755
Si      17.85392088      19.05366055       8.87018431
Si      17.18225539      20.28341301       5.28564094
Si      15.71308208      19.80560485       9.48374610
Si      19.45267480      20.74820879       9.18690715
Si      15.07438502      21.66953317       8.20273600
Si      18.79718890      22.59916515       7.89424215
Si      14.10455184      17.50690296       6.87616956
Si      11.35774981      20.05398911       6.20943655
Si      15.05436589      21.04314695       5.93695287
Si      23.15745744      21.82692586       8.96439742
Si      22.49687087      23.68571278       7.68495232
Si      21.49650663      19.70175356       6.46533930
Si      20.80534746      21.30006074       4.88486701
Si      18.69848529      22.05110787       5.61018837
Si      22.42789650      22.89772934       5.47082233
Si      18.14740973      23.89500771       4.25910112
Si      21.88571807      24.76916234       4.15395881
Si      11.12023752      18.41039432      22.16117073
Si       7.38306532      16.79744413      20.19217176
Si       6.81147429      18.68657972      18.91413611
Si       8.97254481      19.13124601      22.79198160
Si      14.23035970      20.63098953      18.31807585
Si      11.10468674      17.75272983      19.90351871
Si      10.45484700      19.04738520      16.30201933
Si      10.46229758      19.59264619      18.58826545
Si       9.92266829      20.90167158      14.96046176
Si       8.35979699      20.42828622      19.22781162
Si      12.04236140      21.31505593      18.84116432
Si       7.77556566      22.27870863      17.89972056
Si      11.42076735      23.19341374      17.57077286
Si       6.98237539      18.18384843      16.62360629
Si       6.17352014      19.20565662      13.05106943
Si       6.15406747      19.93184737      15.28690495
Si       5.71395303      21.04603683      11.66265529
Si       7.78368965      21.58626789      15.65298561
Si       7.19003406      23.40877327      14.29213388
Si       2.02133073      19.42021994       9.69557541
Si       3.70650025      22.13446959      12.22143287
Si       2.77679530      23.82007663      10.87134483
Si      17.94938619      20.87878622      15.75862948
Si      17.16963175      22.66459062      14.44373131
Si      14.10552099      20.01445502      16.05322406
Si      13.60326479      21.21804761      12.39936481
Si      13.56804219      21.83276547      14.66592447
Si      12.92631246      23.04171023      11.08257237
Si      11.45523657      22.65290820      15.28410902
Si      15.10128155      23.55300417      15.11892774
Si      10.95584447      24.54285393      13.98079402
Si      14.85635618      25.36318905      13.64162295
Si       9.86047044      20.24018480      12.70674029
Si       9.24605272      21.43605149       9.13313992
Si       9.26272701      22.09227156      11.38991108
Si       8.67013644      23.27970276       7.79274062
Si       7.13669387      22.88662021      12.00078870
Si      10.81266476      23.82154083      11.74922120
Si       6.51688905      24.72598638      10.67433677
Si      10.21999635      25.64976095      10.39626148
Si       5.56596114      20.55134509       9.36899321
Si      21.01935700      23.17195084      11.83181789
Si      21.07324035      24.01134738      14.02766947
Si      20.41726764      24.99102302      10.47122043
Si      18.82929438      24.31488388      14.66120978
Si      18.05137220      26.43839870      13.21401696
Si      17.10571590      22.18951396      12.14324005
Si      16.65572071      23.39000817       8.45376545
Si      16.63710314      24.00145264      10.72260330
Si      16.01386496      25.19007851       7.08513319
Si      14.51387616      24.74371156      11.40176822
Si      18.23792216      25.70066184      10.99006085
Si      13.77916003      26.52204244      10.05294773
Si      17.58675665      27.64902502       9.84802353
Si      12.93393973      22.42104995       8.81639862
Si      12.40638365      24.43041068       7.71704965
Si      10.17636951      25.05492727       8.12211553
Si      13.98136883      26.17594552       7.73663840
Si      24.13925207      25.34783459       7.94639362
Si      23.51746556      27.30798965       6.80599139
Si      21.87693383      26.79749510      10.83053967
Si      21.25716539      28.65172245       9.52661688
Si      20.30960226      24.37104745       8.20682726
Si      19.73463107      25.58881783       4.63458339
Si      19.83847746      26.25728473       6.88585413
Si      17.67984745      26.73722746       7.68319741
Si      21.32847428      28.03661156       7.25904416
Si      17.16746345      28.65159043       6.41865200
Si      20.77123925      29.83531110       5.85116619
Si      23.39558473      26.51738549       4.59477321
Si       5.23966581      24.51990233      14.99162145
Si       4.37658416      26.18640746      13.57475244
Si      12.69412557      26.11258398      14.18320780
Si       8.75215862      25.14924101      14.53021547
Si       8.10592869      26.40822635      11.09169923
Si       4.38662420      25.47054695      11.33472219
Si       5.24752852      28.88594709      10.23604168
Si      15.36867161      28.22364349      10.37395832
Si      14.99144964      30.21989560       9.18988836
Si      11.74486799      27.37726895      10.86308517
Si      11.34335342      29.32062992       9.60209302
Si       9.12068343      29.88494831      10.12385268
Si      19.05871122      29.47338750       9.66842382
Si      18.69103589      30.40444599       6.78878380
Si      21.23800325       4.40827322      29.81092411
Si      27.64282732       3.15520024      28.28327022
Si      23.57207907       4.68869213      29.80559399
Si      24.39980684       5.04436628      27.63398529
Si      26.70889758       1.61333537      26.77318912
Si      27.71621691       1.99125282      24.68246692
Si      24.15133886       8.82972997      28.46087921
Si      24.04857679      12.73392200      29.16119334
Si      27.48260898       6.92804094      29.11010338
Si      30.16750029       7.59457017      27.00188221
Si      26.74287448       5.23492994      27.65596007
Si      26.49820197       8.96985006      28.48595187
Si      27.51076127       5.72399028      25.48855150
Si      27.31696580       9.38090769      26.32068543
Si      30.81496019       3.86778166      26.25799461
Si      30.03894837       2.35227149      24.63637625
Si      29.85762795       5.85694190      25.44815104
Si      30.92392052       2.74502609      22.49390346
Si      30.67154130       6.42366344      23.31625279
Si      29.63581461       9.76745794      26.27664495
Si      15.06681646       4.52701658      27.55292527
Si      14.61927085       8.24187525      28.34683968
Si      20.41135258       6.49674762      29.11927333
Si      18.08390427       6.16698929      29.08502834
Si      21.17456178       7.02480295      26.96047086
Si      17.36545698       4.90697202      27.23439758
Si      18.15274210       5.21311587      25.04034637
Si      17.86803714       8.89723471      26.29938301
Si      23.77364160       3.33308343      26.14876210
Si      21.42507291       3.42013244      26.08993507
Si      24.49187721       3.92564005      23.99067440
Si      20.73742771       1.79209784      24.54007595
Si      20.46765785       5.44285745      25.37354399
Si      21.50294319       2.06298224      22.33443431
Si      21.29059672       5.79255972      23.20078236
Si      27.07729591       0.29859017      23.18086990
Si      24.72858826       0.19777198      23.13953671
Si      27.91880073       0.88012252      21.06371695
Si      23.84071056       2.26483525      22.46124431
Si      24.65791775      38.94511548      19.59762922
Si      24.60587749       2.73486249      20.28979260
Si      26.93835299      39.49558236      19.43583763
Si      28.01734464      39.61679494      17.35096429
Si      17.69695165      12.62540313      26.99651688
Si      17.38113890      16.41274497      27.66023454
Si      23.23872307      10.85338285      27.68638072
Si      20.88944601      10.77878584      27.74811363
Si      23.93560133      11.45537442      25.52386991
Si      20.21281071       9.06214217      26.29172927
Si      20.03719618      12.85022382      27.03294904
Si      21.05081952       9.35625048      24.11599785
Si      20.71319406      13.40091785      24.84914172
Si      23.52243930       7.12224110      26.97278963
Si      26.59947594       7.76763680      24.76880227
Si      24.25312695       7.64004394      24.80029330
Si      27.39460125       8.27698122      22.61646894
Si      23.63157958       5.98418971      23.25366467
Si      23.37593346       9.69449430      24.07134493
Si      24.35831086       6.47423365      21.07379036
Si      23.95789051      10.27492977      21.86958470
Si      26.83848281       4.05457944      23.97653714
Si      29.94829449       4.77107187      21.80838221
Si      27.60547861       4.58015862      21.81794306
Si      30.72740644       5.24555413      19.64147642
Si      26.95066990       2.88983322      20.32182979
Si      26.70321257       6.62578953      21.09338373
Si      27.72394941       3.40031559      18.16166257
Si      27.49022945       7.15326075      18.94245576
Si      30.07170448       3.52123394      18.18360335
Si      30.84243865       4.00203469      16.01472059
Si      23.06092843      13.53274002      24.85587966
Si      26.27805320      11.28675310      25.41723096
Si      26.30391428      10.17459073      21.75932773
Si      27.27451227      10.92010312      19.75138036
Si      29.73713118       8.47346080      22.64227306
Si      29.83334866       7.32776253      19.01476976
Si      30.54755086       7.80027494      16.82493071
Si      11.71137333       6.41310108      26.80647070
Si      15.08146640       3.31417732      23.86761960
Si      11.83021980       5.17473495      23.14656411
Si      18.46437772       0.19048083      20.91174031
Si      14.42374691       1.57215593      22.43181501
Si      15.19040553       2.00370936      20.25146811
Si      21.98092582      37.15179143      17.79206631
Si      18.54261268      39.02936914      17.32762817
Si      13.83617031      10.27115369      27.45284047
Si      14.53636823      10.84441131      25.28253435
Si      10.83304270       8.51435620      26.22072897
Si      11.55362341       9.00309235      24.03638787
Si      14.06005455       6.52797108      26.83685483
Si      17.13281618       7.30827959      24.73066915
Si      14.79383384       7.07858268      24.67169933
Si      18.05080742       7.58618538      22.58471006
Si      14.17330177       5.37091107      23.17915782
Si      14.89137619       5.94687625      21.01548734
Si      17.43257510       3.32261712      23.84305776
Si      20.55302737       4.12303260      21.72137227
Si      18.20983125       3.94513563      21.71357615
Si      21.30547928       4.67742835      19.56564282
Si      17.52916856       2.24160956      20.24384201
Si      17.24136604       5.98622185      21.06498572
Si      18.35155765       2.79134063      18.11121133
Si      18.09763349       6.48840516      18.93435288
Si      20.81225969       0.31520615      20.92270847
Si      23.94031908       1.03890576      18.80521032
Si      21.59387114       0.90156992      18.78451729
Si      24.75702684       1.56230767      16.66433375
Si      20.88870165      39.18471651      17.34167891
Si      20.69616234       2.95791881      18.08430295
Si      21.71554505      39.84163686      15.24127785
Si      21.47121162       3.47663622      15.92668944
Si      24.32127661      37.25747614      17.99517378
Si      24.87868968      37.81138380      15.77884188
Si      24.27421922      36.07019377      14.31903181
Si      24.06256171      39.91914252      15.13378755
Si      24.81143106       0.38255002      12.95408904
Si      16.55937380      14.59829929      26.41026404
Si      16.86235418      10.91118222      25.62071093
Si      20.23876026      11.49098974      23.56255520
Si      17.88755211      11.52770396      23.59615304
Si      20.94074490      12.07494469      21.08058560
Si      16.89156250       9.49870839      21.86041709
Si      20.38477825       7.82967560      22.45845472
Si      23.42597654       8.52225864      20.39648478
Si      21.07725071       8.48434824      20.31012589
Si      24.23465793       9.08828835      18.26291638
Si      20.43364439       6.74417710      18.86687347
Si      21.35193573       7.32388631      16.78152244
Si      23.65258418       4.77351847      19.61424774
Si      26.80001528       5.45025563      17.47675057
Si      24.45549595       5.28514930      17.46587985
Si      27.54343799       5.95365835      15.30415192
Si      23.81854120       3.59832153      15.95821998
Si      23.70203420       7.38631148      16.73036115
Si      24.54599298       4.13837021      13.78886949
Si      27.10446823       1.67809737      16.68683045
Si      27.82490645       2.21158170      14.51356626
Si      27.15803477       0.50733114      13.03706030
Si      26.89435488       4.25456839      13.81416554
Si      23.26543703      12.41497714      21.18586813
Si      26.58208079       9.21901920      18.28353748
Si      27.45015736       9.84073787      16.18862774
Si      26.93027617       8.13051836      14.66077066
Si      29.89069698       6.05883899      15.38833543
Si      30.60720994       6.47757315      13.18880676
Si      14.66315394       0.41642723      18.59890845
Si      15.43687303       1.13195956      16.49664219
Si      11.03163115       7.29280436      22.50919877
Si      14.34144495       4.11236565      19.65128900
Si      17.39071180       4.82589582      17.42899088
Si      17.78755050       1.11899321      16.55774968
Si      20.75921397       1.82365384      14.41425157
Si      18.41642746       1.63437610      14.35134407
Si      21.55667553       2.33338465      12.26200323
Si      21.25258623      38.21213283      13.61111966
Si      24.15752379      38.65982509      11.49340126
Si      21.81046235      38.60221339      11.36050395
Si      20.82363118       5.62963446      15.23887588
Si      23.90513216       2.44690359      12.28648447
Si      34.90006424      25.43584968      28.02230289
Si      32.97750243      26.88127189      24.99115195
Si      33.91790777      23.33457398      27.63374400
Si      31.84702033      23.15934079      28.73335838
Si      32.80735107      19.80257408      31.22943994
Si      30.43565756      18.98527916      32.25778521
Si      31.00610921      28.26502314      22.04002938
Si      32.02780352      24.77742681      24.54254185
Si      29.97824425      24.55167795      25.67231140
Si      28.12557176      26.05937739      22.65677596
Si      30.93621911      21.00020211      28.54254662
Si      29.04115741      22.45671179      25.16175027
Si      28.76327779      20.71327517      29.39346965
Si      27.00568652      22.22523326      26.31536614
Si      27.70465858      18.75136558      28.64600885
Si      25.84662449      18.37993126      30.03834480
Si      27.94294172      27.56755215      16.18490839
Si      25.01510721      25.34499303      16.93850973
Si      28.35839957      27.80210009      18.48755538
Si      26.46814692      29.25940401      15.48271750
Si      26.30622937      27.59678837      19.61668258
Si      24.42706217      29.04198756      16.63000583
Si      27.22768185      23.94208903      22.16726487
Si      25.35907688      25.47492062      19.25954029
Si      25.18550169      23.74396704      23.31543286
Si      23.28322363      25.24042065      20.33770798
Si      26.06472989      20.12146008      25.85024209
Si      24.22640211      21.64259056      22.87665185
Si      24.04050943      19.94684168      27.03351717
Si      22.17502543      21.39822462      23.99961862
Si      23.08248979      17.87538516      26.46856642
Si      22.92389200      16.07857183      30.73650086
Si      21.09909656      17.56524116      27.69307129
Si      24.60873146      30.78866440      12.49071012
Si      23.47933444      26.94350420      16.15291828
Si      21.44706452      26.72394550      17.31563874
Si      22.45888895      23.11483331      19.76259295
Si      20.50184410      24.62338943      16.84177972
Si      20.55642711      22.70069629      21.08076161
Si      19.29020850      20.79060712      20.55475326
Si      19.15932384      19.15922245      24.82451625
Si      33.36421067      27.06455889      27.30311900
Si      34.28070714      29.16809283      27.81588202
Si      31.32362619      26.87398639      28.45449752
Si      34.68524163      29.36732650      30.12347633
Si      32.61046976      30.63328586      27.04567982
Si      32.62876186      29.16599130      31.24484846
Si      30.64512553      30.69016131      28.33416523
Si      32.25815593      23.25807902      31.04631191
Si      33.17126359      25.38477771      31.46328354
Si      30.18906925      23.04958840      32.14353586
Si      33.54969163      25.45658416      33.78449161
Si      31.68226158      27.06728192      30.76954076
Si      31.51410126      25.33390036      34.96016410
Si      29.65061493      26.83012994      31.92787305
Si      30.56407466      23.24151956      34.45696284
Si      28.51483739      23.00123319      35.58535662
Si      29.40927364      29.82221215      21.29512425
Si      27.41724141      29.85668480      22.54335605
Si      28.99297384      32.13084613      25.15792659
Si      31.53355738      28.60596188      24.30599803
Si      28.52008589      26.25480259      24.96600661
Si      29.49050066      28.34271373      25.43877754
Si      26.48562798      26.02527949      26.12005699
Si      29.84327730      28.55896178      27.75229811
Si      27.98256652      30.03556218      24.81811160
Si      27.80919085      28.30053184      28.90009693
Si      25.89867172      29.81491065      25.88250820
Si      30.33417468      24.79472057      27.98309276
Si      27.36549579      22.44139475      28.62813343
Si      28.30741165      24.53196200      29.14360377
Si      25.35250866      22.21822708      29.82063507
Si      28.70163709      24.73322097      31.45168838
Si      26.82870281      26.21598738      28.43686275
Si      26.65700095      24.49630661      32.58622138
Si      24.79996647      25.98903646      29.60038347
Si      29.26227778      20.93924756      31.67984619
Si      26.29749313      18.58801159      32.33665508
Si      27.22116932      20.69525344      32.82085166
Si      24.24828170      18.40349194      33.47481109
Si      27.40283835      20.97589600      35.14819959
Si      25.73520085      22.38215031      32.13375290
Si      25.41983414      20.65091013      36.36936781
Si      23.69588211      22.15663121      33.28055856
Si      23.96581569      33.08735462      16.41643025
Si      27.66914766      31.49794166      18.35969512
Si      24.78431076      29.25782884      18.94398260
Si      25.57689625      31.41761933      19.42974413
Si      22.72759185      29.02094519      20.05858165
Si      26.17268699      31.66032841      21.69144061
Si      24.19505364      31.16846676      22.86439504
Si      26.62855038      27.72524418      21.94188444
Si      23.66475033      25.40904673      22.65128772
Si      24.60454047      27.51246506      23.11839114
Si      21.60048816      25.24632774      23.76383341
Si      24.98500024      27.69721837      25.43042315
Si      23.09003739      29.15095844      22.37801940
Si      22.92634382      27.49647861      26.54635037
Si      21.06851171      28.96207943      23.56373844
Si      25.53912957      23.93026347      25.63182800
Si      22.57171646      21.63159270      26.30508516
Si      23.50207254      23.73539915      26.78766075
Si      20.54398631      21.39410844      27.47017452
Si      23.86538130      23.89090156      29.10418091
Si      21.99327063      25.39108257      26.07665116
Si      21.81653608      23.69039506      30.23766792
Si      19.98332414      25.12854602      27.26632567
Si      24.41733461      20.11425506      29.34791303
Si      21.41551640      17.73298070      30.01711288
Si      22.36242905      19.83970088      30.45610429
Si      22.74821436      20.06836755      32.76380184
Si      20.91645473      21.56703183      29.78460856
Si      20.65253838      19.82890259      33.80244959
Si      18.88621448      21.46084648      30.96474886
Si      23.12970917      30.91965389      16.06502654
Si      21.26589901      30.73284044      19.37865640
Si      21.78327922      26.90943091      19.63563741
Si      19.10138931      24.36285088      20.27631988
Si      19.73104437      26.58181854      20.73637488
Si      20.08526032      26.89140877      23.04029761
Si      18.07349042      26.54193311      24.20666342
Si      20.68591017      23.11303125      23.39168492
Si      17.69062914      20.79159851      23.98324105
Si      18.60104902      22.90667297      24.45802609
Si      15.65895957      20.49541292      25.12967847
Si      19.02279230      23.04225659      26.76656768
Si      17.13326928      24.49432800      23.53583488
Si      16.97481900      22.86457605      27.90734881
Si      19.58411356      19.27447744      27.13431515
Si      17.50417246      19.06289470      28.21041092
Si      17.74165965      19.45644817      30.51664969
Si      16.06269914      20.74995152      27.43231159
Si      31.90615600      31.28704611      37.55524784
Si      31.16895372      30.89774087      30.61598939
Si      32.14846830      33.00020054      30.99728767
Si      29.12802854      30.58362751      31.73859941
Si      32.46523877      33.16672467      33.32140114
Si      30.54559163      32.79719849      34.62827142
Si      33.01729867      29.39128304      33.55272646
Si      30.03062229      27.01161193      34.24082488
Si      30.95835068      29.13153147      34.65821252
Si      27.98541844      26.77602215      35.37668494
Si      31.28803545      29.09094733      36.98602013
Si      29.42585565      30.81075246      34.05901842
Si      29.25254512      29.11696850      38.16331925
Si      27.46930989      30.29063625      35.25404759
Si      31.76163097      25.72023888      37.26780753
Si      29.75334103      25.29244717      38.41464787
Si      28.31933500      27.01054466      37.69231018
Si      26.28581492      26.77179640      38.84882030
Si      27.40330583      33.80932551      24.72849592
Si      29.40860413      32.48071407      27.44545918
Si      26.19044434      29.85941452      28.21389494
Si      27.47220737      31.79335217      28.58902983
Si      24.15523701      29.75936677      29.38311348
Si      27.74258109      32.38643808      31.14190102
Si      28.16468572      28.50523308      31.21385734
Si      25.16710095      26.18469552      31.91320179
Si      26.08913378      28.31188867      32.29935857
Si      23.12593112      26.00057566      33.06388375
Si      26.36551204      28.30952574      34.63382503
Si      24.59803176      30.01976796      31.67764620
Si      24.34652238      28.36435920      35.83739709
Si      27.02289850      24.68452753      34.90054949
Si      24.02506675      22.37935705      35.59752060
Si      24.98477171      24.47655101      36.05380315
Si      21.98179780      22.09668056      36.72584249
Si      25.36451722      24.66261328      38.36676135
Si      23.54561390      26.20453120      35.36795283
Si      23.34885996      24.38061051      39.54465687
Si      22.51662738      22.24692462      39.01085692
Si      24.33808528      31.43344105      25.19657619
Si      21.46370839      29.20757241      25.86863070
Si      23.29412608      27.63560860      28.86338984
Si      20.35088595      25.40283114      29.57165099
Si      21.26040140      27.52017444      30.03636343
Si      18.25466632      25.19675094      30.61584392
Si      21.62796291      27.66766228      32.35396358
Si      22.27478772      23.87427220      32.53548602
Si      19.10402580      21.52695438      33.30484726
Si      20.31051898      23.49090619      33.76839166
Si      20.61490076      23.89217384      36.06483437
Si      18.69891262      24.97350109      32.91410601
Si      18.56585094      23.91495125      37.21795463
Si      18.58287544      26.84513754      26.48061290
Si      17.33903423      23.06739584      30.22137214
Si      29.64281809      29.37191706       0.46829010
Si      26.66933783      26.98758984       1.15891358
Si      27.61287761      29.09132278       1.62198537
Si      21.78794611      26.05355229      39.00180939
Si       7.01768543      28.85574801      30.85475635
Si       5.61741756      25.63542940      29.18568392
Si       4.31319510      22.64449577      27.32160933
Si       7.81906770      25.02601089      28.62827283
Si       9.90715329      26.79166074      32.16949412
Si       8.59363613      23.67572332      30.39039920
Si      12.11357646      26.13011037      31.69846263
Si      12.89374550      24.65670645      33.35602645
Si       9.50539811      18.58551755      26.15431277
Si       6.47427012      21.87967731      26.79832446
Si       7.24210883      20.57638177      28.59731215
Si       5.92441152      17.41369686      26.81055748
Si      10.84548166      21.69860841      27.94474710
Si      13.84041681      19.62573175      29.31639962
Si      10.77973261      22.93410743      29.94434827
Si       9.42619149      19.83479276      28.14452740
Si      11.51644530      21.62388071      31.75236576
Si      10.16596878      18.51330759      29.94243796
Si      15.10926734      22.68501843      30.86151802
Si      15.00241718      23.68423989      32.98711087
Si      13.69633245      20.86051902      31.31234855
Si      15.86833364      22.64153442      34.90867659
Si      14.59180219      19.61258175      33.09281251
Si       8.11348826      16.69932091      26.33773156
Si       8.74981256      15.40897094      28.19738665
Si      12.35914303      17.80673894      29.47762667
Si      10.81283222      14.63281534      27.37860142
Si      38.26446826      31.54958411      32.63285415
Si       2.46251674      32.74511159      35.60083841
Si      39.05749055      26.58565836      28.32813342
Si      36.79184644      28.54570920      30.76772703
Si       2.71447519      28.98833468      29.66141628
Si       0.47267677      29.58934849      30.03817319
Si       3.36182796      27.66731854      31.49543207
Si      38.97980785      27.79827534      30.34123204
Si       1.12713076      29.59524793      33.91936957
Si      39.76596905      26.49931185      32.13614945
Si       3.74039498      32.02708252      31.52562484
Si       6.90944794      30.08271530      32.85791814
Si       4.71548016      30.81205637      33.28711473
Si       7.66064430      28.74548954      34.64035259
Si       4.68220945      32.02988232      35.29840757
Si       3.33668949      28.91780465      33.48621863
Si       4.07744132      27.57651994      35.26965584
Si       0.59908263      21.50175437      27.82881178
Si      37.62026225      24.74147759      28.58048703
Si      38.41626558      23.37342524      30.31921293
Si      37.12100879      20.17071257      28.57377822
Si       1.27761512      25.94422976      27.89189037
Si       4.14236955      23.81358899      29.35327381
Si       1.94588832      24.58023818      29.68516092
Si       5.01245178      22.47467390      31.07734979
Si       1.96388469      25.78872608      31.70078859
Si       0.61060253      22.65570314      29.87677031
Si       2.73657896      24.45539477      33.47533703
Si       1.38621841      21.35593116      31.67445228
Si       5.58258325      27.00863796      31.09361281
Si       8.51988009      24.90646565      32.39213595
Si       6.32607708      25.62249674      32.84080450
Si       9.26662300      23.54914639      34.16059506
Si       6.27443111      26.85686645      34.84104703
Si       4.93558177      23.73968553      33.05635268
Si       7.01717400      25.51949743      36.62670690
Si       5.68623431      22.39651943      34.83302930
Si       9.83951465      27.98018344      34.19735870
Si      12.60266139      25.36262325      35.57955671
Si       9.20158586      24.78440696      36.16025159
Si       2.38575366      16.35975707      27.53056624
Si      39.34570758      19.53826256      28.14743158
Si      40.04338094      18.24148614      29.97875583
Si      38.60799316      15.05730985      28.04227351
Si       2.84031626      20.83286263      27.59296494
Si       5.86774178      18.67984419      28.78957364
Si       3.67761039      19.39433597      29.25199626
Si       6.56588596      17.34086559      30.59010216
Si       3.57805398      20.62187746      31.25301035
Si       2.24847272      17.55331624      29.54984602
Si       4.34411215      19.27579632      33.01989369
Si       3.00596279      16.13608559      31.26408806
Si       7.21085683      21.78775501      30.61100074
Si      10.13221033      19.73401601      31.95110343
Si       7.93179601      20.43368613      32.39159102
Si      10.87836863      18.34485647      33.69507482
Si       7.87682413      21.66715951      34.39174338
Si       6.54056026      18.55144846      32.60420514
Si       8.65438212      20.32052809      36.15506034
Si       7.29904303      17.20939649      34.37853536
Si      11.47098531      22.83102121      33.76949803
Si      14.45626481      20.77445417      35.13283724
Si      12.24953048      21.48252804      35.53140577
Si      10.84313466      19.60383932      35.68073406
Si      11.57742307      18.29735222      37.49295059
Si       0.81351165      14.29671946      27.74596700
Si       1.62480764      12.92866716      29.47765547
Si       4.52214737      15.53593895      26.99829528
Si       7.39937358      13.48723012      28.30413740
Si       5.20919878      14.18619753      28.79647957
Si       7.94042849      12.18628794      30.18636698
Si       5.19859626      15.43944220      30.78498031
Si       3.83170982      12.28950615      28.97780551
Si       5.89347365      14.09131360      32.58058791
Si       4.57006405      10.96351079      30.77389748
Si       8.77450037      16.63658759      30.20217943
Si       9.59412344      15.27107659      31.93166630
Si       9.48893423      16.46543086      33.95468589
Si       8.11678308      13.45573083      32.15732593
Si      10.27887048      15.09547965      35.69599007
Si      13.13643029      17.78397453      33.35388874
Si       6.72712923      10.17393383      30.27032698
Si      38.13021226      32.88508808      34.56320185
Si      38.87417783      31.54208823      36.34453796
Si      34.86322432      31.50351340      34.82572133
Si      35.25178191      30.43852429      36.88641166
Si      35.39816915      26.66240114      30.96681587
Si      36.17892886      25.34001489      32.74760983
Si      33.89513554      27.31197987      35.19493676
Si      36.73389845      29.77028165      32.77399440
Si      39.70285267      27.73686615      34.13394373
Si      37.50078100      28.44358123      34.55738055
Si       0.47342809      26.41289171      35.91728057
Si      37.45342186      29.68019922      36.55683905
Si      36.08298370      26.57722245      34.74486859
Si      38.20502494      28.33383572      38.33241156
Si      36.88566242      25.24161577      36.50578376
Si       1.08154213      30.86488363      35.89799722
Si       0.41837672      27.66176014      37.90837421
Si      37.01247694      21.49689838      30.51295431
Si      34.84931118      22.23463356      31.07078536
Si      37.71308113      20.15676631      32.31384178
Si      34.69235490      23.53906181      33.02715974
Si      35.49024100      22.04219048      34.65946119
Si      38.37312835      24.61402983      32.31575021
Si       1.31843999      22.59165670      33.67213060
Si      39.12169521      23.30026767      34.11581109
Si       2.08901972      21.23213628      35.42755672
Si      39.09137707      24.52231526      36.12392280
Si      37.72862051      21.41520925      34.30013437
Si      39.80334415      23.16595644      37.90761314
Si      38.44390430      20.05409133      36.07910067
Si       2.66879811      25.70453341      35.46515579
Si       5.65287389      23.61662873      36.84215914
Si       3.44911326      24.34643958      37.21760313
Si       2.00192227      22.50260851      37.40335540
Si       2.77761594      21.25763268      39.24069886
Si      38.61713657      16.37433957      29.98965108
Si      39.41052614      15.04208020      31.75644989
Si      37.19966706      17.00124253      34.26969188
Si      39.94591197      19.51949604      31.94817436
Si       2.92394447      17.41603128      33.23300871
Si       0.70318202      18.07001972      33.63584451
Si       3.69013435      16.05396038      34.98809244
Si       0.64233215      19.38620198      35.58203944
Si      39.34851196      16.15870381      33.82427386
Si       1.50524911      18.11693189      37.36242973
Si       0.04190948      14.78542831      35.60151606
Si       4.28896378      20.51551021      35.01537222
Si       7.23291855      18.45996182      36.36807238
Si       5.03334745      19.17142714      36.79386858
Si       7.87058555      17.18631232      38.23849141
Si       4.94827614      20.52304155      38.71501259
Si       3.66757041      17.26957258      36.99956159
Si       4.41429149      15.97506215      38.81421700
Si       1.60056233      14.25853835      31.41617704
Si       4.52807097      12.18800852      32.78088061
Si       2.32529394      12.89981688      33.19253822
Si       2.27209428      14.18721765      35.15896245
Si       2.99336716      12.80026380      36.91448159
Si       5.89015479      15.33772081      34.57363467
Si       8.80340512      13.28904255      35.99861268
Si       6.58480327      13.97867054      36.36193272
Si       6.59319581      15.21602556      38.36145606
Si       5.20112464      12.08530982      36.53802469
Si      10.01873766      16.53700187      37.53544928
Si      33.47877020      24.11734690      37.15796691
Si      33.88971401      28.54630321      37.19982498
Si      36.77366392      26.47586270      38.50427184
Si      34.57821810      27.17179340      38.98049921
Si      33.12687056      25.32823600      39.14287606
Si      35.61537969      23.26874247      36.66264171
Si      38.41889769      21.27397965      38.08909630
Si      36.21194484      21.96008655      38.52342817
Si      37.07525436      18.15657269      36.31391360
Si      40.11133894      16.22630649      37.45804129
Si       0.87896721      14.78042959      39.55026288
Si       1.34065172      19.39854425      39.32641552
Si       3.02285293      14.08142446      38.88505620
Si       3.72825741      12.78271814       0.71284392
Si       0.01629008      36.03005523      35.87221908
Si      36.74155390      33.99910410      36.09882799
Si      35.32476626      35.91832519      33.11293676
Si      33.69118057      32.49023059      36.60940838
Si       1.61840611       7.65880050      32.54149920
Si      38.51265064       1.81001336      32.90262105
Si      39.81901066       3.70110570      35.93605097
Si      38.44068712       5.61392497      32.88352980
Si      38.80055535      37.92688477      35.19849668
Si      39.92717831      39.86639523      35.90459979
Si      36.66063752      37.88832019      36.17181041
Si       0.09854855      39.87317040      38.24985668
Si      38.69208548       1.75596892      35.24650356
Si      37.97130244      39.80677671      39.24916554
Si      36.53602079       1.73960042      36.18370052
Si      36.90595856      34.27013166      38.42852212
Si      38.17662475      36.07056664      39.24866078
Si      34.80965478      33.98151592      39.45285715
Si      38.26266260      35.95408254       1.59561585
Si      36.85630230      37.87199618      38.51440032
Si      36.10250597      35.87986115       2.52104778
Si      34.70789712      37.80036609      39.46498554
Si      35.03963083      33.91378629       1.79159777
Si      32.92101904      33.96452006       2.80863016
Si      36.96846930       7.51854740      29.91290237
Si      33.82035525       1.66627159      30.12457765
Si      37.28584440       3.68588518      32.19168030
Si      35.88156568       5.49643057      29.40307299
Si      35.14533842       3.57734956      33.15861518
Si      33.67857400       5.52281680      30.22444199
Si      34.11302284      37.82871479      32.47141582
Si      35.26064984      39.76588645      33.14915558
Si      31.96545135      37.77605146      33.42733183
Si      35.43882891      39.77858948      35.49337306
Si      34.01095689       1.63733246      32.46793851
Si      33.29371596      39.72037963      36.45235713
Si      31.86124307       1.59468647      33.41833292
Si      35.57234545      35.93315340      35.45099900
Si      32.22388293      34.06946545      35.67060360
Si      33.44796442      35.91513751      36.45683185
Si      30.11179366      33.85533070      36.68257319
Si      33.55627044      35.86124106      38.80396044
Si      32.17693118      37.76862343      35.76861790
Si      31.40941898      35.77718638      39.75654895
Si      30.02345339      37.61044708      36.69757474
Si      33.70328956      31.98046280      38.90483452
Si      31.51563013      31.98164407      39.76679505
Si      31.75866315      32.04749895       2.10342933
Si      30.28765758      33.84479482      39.02694192
Si      29.62170586      31.82227199       3.05819375
Si      28.15192089      33.80697134      40.00929920
Si      32.46020027       7.09094436      27.14389428
Si      32.57976233       3.56879975      29.51583479
Si      30.41344752       3.53619373      30.42840776
Si      32.71868266      39.70548449      29.43812330
Si      30.56501675      39.65490797      30.38073091
Si      30.73428354      39.65173779      32.72557510
Si      29.35420989       1.55973373      29.72128699
Si      28.59022270      39.57515433      33.68444142
Si       2.95110296       9.58754581      35.71410178
Si       1.17794555       5.63952049      38.97212327
Si       1.25218108       9.18761648      39.13333185
Si      39.22492565       1.76515130       2.24707333
Si      39.25089706       5.59209509       2.07905259
Si      37.44228091      37.83002880       5.55320083
Si      39.43359049       1.97451331       4.57952961
Si      37.33067346       1.63859293       5.57551019
Si       1.68461450       7.78627645      34.88856825
Si      38.59641146       5.58130023      35.22949916
Si      39.58643247       7.59487278      35.93282384
Si      36.45986228       5.55845089      36.21056822
Si      39.89457268       7.47717194      38.26103375
Si      37.79650029       7.37041357      39.31694960
Si      36.34267279       9.41850282      36.20337241
Si       0.00821119       3.72067572      38.27979611
Si      36.73385962       1.66952362      38.52490499
Si      37.85235118       3.61937754      39.21227163
Si      34.59986676       1.64358420      39.50903465
Si      38.01744615       3.66012928       1.55677955
Si      36.59812357       5.49628699      38.55647987
Si      35.88682782       3.57000845       2.54456028
Si      34.47312278       5.46283596      39.56032453
Si      38.16370772      39.77222932       1.59199015
Si      34.89131215      37.76368489       1.80761349
Si      36.00458617      39.70730169       2.51899031
Si      32.75485384      37.72228928       2.78515456
Si      36.20310971      39.70403433       4.86087417
Si      34.79580752       1.60818947       1.85026220
Si      34.06687239      39.65386070       5.83936701
Si      32.64289918       1.56614726       2.78979532
Si      36.31413159      35.88608643       4.86256307
Si      32.99771675      33.86513311       5.15569077
Si      34.15404111      35.81070040       5.78724155
Si      30.86595332      33.81432024       6.14519738
Si      32.94625420      37.71516709       5.12704522
Si      30.76383255      37.63233496       5.99431912
Si      37.18923631       7.50263976      32.25409756
Si      33.94906009       5.51086819      32.56002928
Si      35.04236162       7.48734186      33.21349930
Si      31.77893045       5.45867802      33.46313112
Si      35.22796879       7.45144676      35.55728986
Si      33.06264321       7.41817402      36.47301734
Si      35.31641606       3.63027269      35.50268297
Si      32.07388110       1.60566491      35.75899301
Si      33.17841307       3.55221084      36.47611005
Si      29.93456231       1.55274778      36.73005375
Si      33.37197083       3.52405864      38.81796861
Si      31.96340832       5.44972136      35.80677171
Si      31.22593249       3.47141145      39.77351413
Si      29.81167335       5.36473752      36.74956268
Si      33.49433944      39.69740306      38.79363105
Si      30.25928468      37.69549008      39.03466110
Si      31.35740586      39.63902487      39.76896968
Si      28.12968677      37.64043938      40.02878021
Si      31.53051704      39.61113157       2.11189365
Si      30.12797020       1.51608642      39.07160903
Si      29.38442338      39.54411848       3.06585083
Si      27.98498329       1.50110985       0.03679911
Si      31.61621135      35.78521263       2.09748916
Si      28.39477994      33.69779566       2.34558080
Si      29.46130807      35.67812521       3.02937914
Si      26.24168509      33.62419575       3.28783123
Si      29.63852469      35.66454430       5.37319694
Si      28.26828282      37.59473344       2.37513388
Si      27.52094564      35.61806888       6.39326188
Si      26.13991952      37.63728407       3.37234836
Si      26.52962352      33.63044363       5.62153229
Si      24.48257446      33.72119544       6.77503449
Si      32.47944822       7.40131240      29.47469572
Si      29.15257924       5.38053943      29.69654144
Si      30.34056691       7.26774313      30.44270463
Si      27.04126447       5.27882709      30.72733138
Si      30.57413409       7.35902447      32.78079803
Si      28.41471988       7.27325903      33.70776565
Si      30.66437329       3.50974699      32.76575874
Si      27.37761892       1.48185441      33.03429768
Si      28.50849408       3.43277709      33.70029697
Si      28.68870267       3.42381202      36.04423202
Si      27.26403402       5.32487249      33.06788479
Si      26.55504142       3.41091828      37.03142006
Si      28.91124201      39.56354634      36.01151290
Si      26.78395407      39.54182555      37.00750870
Si      26.89877123      39.52892141      39.35789940
Si      25.28748262       1.49406712      36.53249008
Si      24.76837889      39.89068855       0.28728737
Si      27.05303808      35.72167870      39.19937535
Si      25.41483942      35.63108016       2.38338949
Si       1.21663761       9.50994366       1.46240260
Si      39.01582920       9.48374738       2.29000990
Si      39.18736907       5.56297275       4.42911454
Si       0.34677584       7.69750011       5.35364465
Si      37.14424171       5.51393105       5.59069338
Si      39.16931602       9.60100463       4.63352506
Si      38.30208420       7.43670483       8.69489414
Si      37.04228693       9.40962825       5.61735462
Si      37.53825347       1.67016333       7.91681647
Si      38.67271975       3.56635672       8.72000091
Si      35.33731299       1.67820636       8.74347934
Si      37.43330011       5.39507698       7.91975571
Si      35.27623851       5.47623045       8.84856261
Si      36.45846488       9.13862700      38.53530146
Si      34.31782845       9.34363080      39.48646911
Si      37.93293869       7.49375072       1.66085317
Si      34.68063227       5.48134125       1.90115249
Si      35.75985390       7.46351153       2.55763442
Si      32.51751484       5.39007335       2.81470034
Si      35.98486385       7.43727034       4.89746076
Si      33.83861778       7.34155020       5.85089080
Si      32.55735843       9.19754357       2.89908756
Si      36.11173937       3.52492298       4.88320056
Si      32.85067063       1.53471215       5.12958939
Si      33.95489454       3.49191160       5.81465614
Si      30.71018452       1.50866704       6.09747398
Si      34.07968804       3.57502981       8.15934971
Si      32.73441528       5.38775371       5.15426109
Si      31.96028260       3.43119571       9.16338386
Si      30.61196794       5.34694516       6.16121072
Si      34.29773882      39.64641053       8.17853117
Si      30.64122870      37.60554604       8.34165374
Si      32.14051011      39.69261415       9.11241191
Si      30.81031180       1.51180727       8.44507514
Si      28.71076931       1.38940455       9.49478120
Si      33.28063148       7.34505897      38.81259312
Si      30.01475381       5.36616445      39.09133067
Si      31.13254283       7.32045273      39.76709818
Si      27.85022706       5.31899077       0.00640393
Si      31.38369964       7.32210027       2.10425884
Si      29.29750776       7.07635549       3.15852736
Si      31.40219591       3.44377057       2.11617085
Si      28.21005677       1.45899755       2.37601031
Si      29.27870548       3.41457010       3.12085469
Si      26.07992813       1.28530024       3.35356685
Si      29.48344368       3.40869868       5.46128219
Si      28.04636369       5.25968493       2.34762065
Si      27.32636590       3.31213796       6.38802986
Si      25.95522988       5.29456806       3.41908801
Si      29.57318376      39.57163530       5.40785669
Si      26.32685924      37.52567838       5.71316547
Si      27.44085633      39.48122747       6.39166677
Si      24.13773797      37.38079637       6.55822944
Si      27.63154561      39.44388440       8.73442299
Si      26.21166384       1.36113263       5.69907932
Si      25.56107991      39.57113833       9.84145895
Si      24.07815447       1.29960893       6.68440567
Si      24.66338575      37.55884617       9.02005598
Si      28.69504566       7.30907897      36.04222208
Si      26.56066460       7.00299996      36.98040254
Si      26.64993109       7.22053507      39.32025453
Si      26.70897190       3.36231514      39.37719970
Si      24.89140113       3.26265371       2.90485135
Si      24.84247529      39.43672364       2.59350277
Si      23.12160464      39.35239910       5.77775412
Si      37.26766198       9.41452130       7.95770848
Si      35.13738785       9.32535156       8.94906711
Si      38.72256775       7.53959005      11.00569491
Si      35.24446668       5.50061296      11.19859055
Si      36.56459331       7.31110937      11.91140135
Si      33.19363403       5.43228662      12.34572589
Si      33.24896934       9.11811901      12.02883442
Si      32.64795779       9.27642953       5.24715172
Si      30.48328398       9.17175854       6.15883988
Si      34.06179342       7.37757710       8.19032575
Si      30.75250981       5.33724724       8.50682561
Si      31.89097410       7.30927975       9.08858557
Si      28.63332947       5.19426944       9.51309091
Si      31.98087124       7.22958706      11.43593761
Si      30.62939882       9.20521537       8.50532587
Si      28.46421069       8.89310290       9.36776667
Si      32.01507293       3.57867970      11.50840806
Si      29.91751705       3.29221508      12.53103417
Si      28.82652379       5.26263872      11.85515285
Si      27.99309884       8.90282711       2.46034191
Si      25.87731600       8.93299915       3.48579560
Si      29.35143536       7.21825473       5.50394010
Si      26.06832418       5.19697478       5.76466389
Si      27.15566559       7.19943366       6.34288992
Si      23.90948242       5.14319667       6.69402669
Si      27.32313379       6.95719701       8.67539033
Si      23.87286618       9.04303587       6.71783331
Si      27.52968122       3.27244201       8.72927257
Si      24.22539077       1.32855354       9.03097401
Si      25.44795147       3.17678381       9.81774164
Si      24.62992682       7.09895226       2.70530103
Si      27.96308447      29.67649006       5.16953406
Si      27.85370294      29.30496723       8.85996438
Si      25.02191102      31.08061729       6.93033711
Si      26.27816126      31.04976878       8.91808638
Si      27.36201812      33.13168505       9.06138500
Si      33.19237214      29.95532412       9.21413375
Si      29.05968714      29.37911337      10.87737471
Si      30.16154950      31.44647769      11.07853881
Si      32.99126694      29.72822465      13.04858518
Si      29.33335852      29.72032683       7.08012187
Si      31.85210252      31.82389422       5.37156298
Si      30.44330408      31.78514093       7.25374311
Si      28.81438986      33.48116168       7.24534103
Si      31.64328364      31.72276416       9.27433986
Si      32.68888493      33.82250372       9.43025880
Si      35.79510928      28.03889099      15.03285797
Si      37.49622649      28.72135971       9.48460712
Si      35.99038490      28.29262247      11.23906108
Si      38.66448995      30.75910905       9.59100751
Si      34.42585102      30.04756085      11.21351252
Si      37.25907417      28.34273721      13.21816716
Si      35.53265634      32.10896218      11.43982745
Si      38.34683105      30.41492188      13.44102559
Si      34.63125422      30.29198159       7.38525560
Si      37.18224594      32.66683041       5.79368724
Si      35.74930402      32.34585673       7.63022745
Si      38.29559680      34.73144874       5.96033815
Si      34.17963075      34.09656676       7.63294674
Si      36.99371533      32.41283294       9.62376277
Si      35.26273271      36.17492508       7.82666494
Si      38.12167930      34.46861492       9.78714632
Si       1.16240889      28.72037235      15.38523139
Si       1.42511888      28.97759622      11.59940487
Si       3.93092354      31.37076913       9.89779907
Si      39.82457305      30.69957736      11.63513442
Si       2.66566698      28.98815504      13.59704646
Si       0.90744070      32.78157890      11.77241697
Si       3.68715903      31.08617751      13.88732021
Si       1.16297347      33.04667850       7.91985635
Si      39.55409438      34.76118604       7.94634649
Si       2.35190364      33.11241734       9.94738826
Si       0.61546877      36.85282905       8.11058369
Si       3.53833026      35.13293336      10.14196581
Si       4.95031700      31.67901546      11.99446609
Si      27.11326255      32.89572759      12.91030814
Si      26.70494350      32.74183825      16.61266492
Si      25.76496403      34.85698495       9.10753314
Si      24.30409484      34.55485001      10.92501263
Si      26.90347196      36.90464908       9.30915441
Si      25.50287034      34.60844143      12.94707289
Si      26.57038672      36.69819379      13.09702015
Si      32.74688825      29.44796109      16.84553093
Si      29.89215231      30.83204967      18.73720591
Si      32.66304535      29.25464588      20.69722001
Si      28.86681841      29.10971949      14.66919317
Si      31.40990238      31.46761883      13.07044350
Si      29.93177209      31.19536263      14.87791979
Si      32.49779606      33.54279487      13.25526233
Si      28.32972504      32.91516156      14.92212582
Si      31.22266141      31.23759033      16.84194934
Si      29.46800250      34.96504727      15.08745069
Si      32.25579525      33.33456762      17.08343733
Si      28.56468301      33.17199238      11.08137531
Si      31.13016691      35.58223068       9.43493094
Si      29.67406997      35.23797451      11.24816587
Si      32.48632217      37.46914799       9.79273241
Si      28.09867752      36.98103099      11.33266946
Si      30.90321923      35.26906672      13.25135086
Si      29.15750293      39.07300377      11.50948940
Si      31.95369640      37.35246543      13.53143528
Si      35.35813536      27.55454926      22.69385444
Si      37.06974932      28.06667793      17.00835159
Si      35.65726400      27.87598821      18.87805898
Si      38.08910990      30.17538361      17.20659479
Si      34.02990942      29.57080299      18.81124869
Si      36.85589242      27.80871770      20.89937840
Si      35.13813763      31.62290577      19.09888600
Si      37.90714334      29.90269119      21.08609812
Si      34.22459077      29.78826677      15.04911738
Si      36.76618981      32.15423838      13.43969625
Si      35.29688129      31.86978461      15.25134692
Si      37.88218926      34.21136733      13.64991891
Si      33.71628627      33.60826930      15.26331405
Si      36.54205689      31.94362432      17.24248199
Si      34.81702362      35.67410546      15.46436673
Si      37.65028805      34.00312119      17.46531034
Si      33.93786424      33.83521254      11.42131487
Si      36.52048033      36.18866441       9.81131755
Si      35.10568002      35.86050995      11.65839259
Si      37.67875546      38.22434630      10.00289617
Si      33.58450357      37.63979891      11.86397166
Si      36.31062055      35.95784305      13.67319735
Si      34.58113178      39.76700120      11.93150126
Si      37.40489494      38.02744382      13.87404817
Si      36.10842928      -0.03403086      10.15630617
Si      37.14119373       2.07815968      10.19824182
Si       0.65195784      28.15348848      23.09530385
Si       2.48787484      28.76876810      17.32671145
Si       1.07524032      28.70992105      19.20494601
Si       3.47979364      30.87559820      17.65268441
Si      39.29590160      30.24519075      19.22175433
Si       2.12862044      28.38732494      21.28141767
Si       0.43884235      32.29025050      19.40278720
Si       2.90295416      30.59970231      21.45309623
Si      39.59811535      30.47457615      15.42986368
Si       2.15150895      32.86224050      13.76521698
Si       0.69946865      32.54479978      15.58586861
Si       3.28234503      34.91121729      13.98638082
Si      39.11490436      34.27879288      15.64907229
Si       1.90846041      32.62242603      17.59955654
Si       0.19172237      36.35892290      15.83733681
Si       3.01574114      34.68667992      17.79225641
Si      39.31500301      34.50985667      11.81147962
Si       1.80745816      36.72424353      10.13308577
Si       0.39040901      36.59079479      12.00393438
Si       2.90079582      38.73521779      10.66989648
Si      38.83974898      38.35663217      12.04211463
Si       1.63576689      36.58874415      13.99728022
Si      39.90771656       0.43179888      12.32378996
Si       2.74653320      38.65219126      14.18145773
Si      39.07061023      38.62501620       8.15137545
Si       1.49671217       0.61957817      10.60074291
Si       4.50773430      34.93809540      15.99271688
Si       4.74191995      35.16935568      12.16138252
Si       5.81675875      37.24776837      12.39477953
Si      26.51702584      36.52492790      16.86786480
Si      31.24748925      31.13078327      20.63495114
Si      32.16671803      33.27058811      20.95280575
Si      28.97854130      34.48421229      22.82689492
Si      31.79069779      32.76048700      24.78650803
Si      30.66312342      35.06216037      17.10863330
Si      29.29097699      34.51173611      18.93591432
Si      31.77711822      37.11969903      17.32573924
Si      27.86559179      36.37518146      18.78717179
Si      30.40026735      34.82046273      20.98518923
Si      28.99912685      38.40897724      19.11232485
Si      31.59835703      36.83604548      21.14428056
Si      27.93793863      36.74752757      15.00868233
Si      30.39253955      39.10909770      13.50965313
Si      28.86528172      38.89014897      15.28277525
Si      31.49945009       1.17289778      13.71518275
Si      30.25026082      38.90053967      17.18293118
Si      31.25586349       0.99141660      17.56303781
Si      36.56543903      27.59322726      24.71110227
Si      37.72713324      29.62670826      24.91240110
Si      36.38378615      27.35013797      28.51624672
Si      34.87849818      31.17538619      26.74724629
Si      37.50084404      29.41126059      28.69996821
Si      33.76611110      29.28294605      22.77333465
Si      36.35204952      31.66397085      21.10994329
Si      34.86801644      31.35495518      22.90525490
Si      37.44130074      33.73927534      21.27148554
Si      33.29154651      33.09456501      23.00863965
Si      36.21490376      31.42381409      24.82975337
Si      34.37713393      35.17529552      23.12783161
Si      37.22808170      33.52366001      25.12439571
Si      33.54234226      33.34644436      19.04931056
Si      36.03883551      35.71262944      17.47060945
Si      34.61314821      35.42074420      19.31498916
Si      37.12635549      37.78415971      17.68872787
Si      33.03272301      37.15922823      19.31136977
Si      35.84456858      35.46212718      21.31539892
Si      34.13722863      39.22136828      19.53595747
Si      36.89428565      37.56236319      21.41364085
Si      33.23155624      37.40759421      15.50273810
Si      35.83313874      39.77406095      13.92057104
Si      34.33282313      39.47377378      15.70469719
Si      36.89558284       1.86389999      14.09429220
Si      32.71413041       1.17819227      15.72823251
Si      35.57083313      39.54632854      17.70156974
Si      33.75054945       3.28844328      15.76361505
Si      32.94265572       1.45108353      11.87996503
Si      34.28954695       3.36977706      12.06840939
Si      35.39182401       3.67140473      14.12373378
Si       1.94141311      28.41855434      25.04352023
Si       0.54140991      27.92711700      26.86740888
Si      38.98409914      29.68716081      26.89742669
Si      40.02093674      31.78574788      27.11172510
Si      39.15491661      29.96566975      23.07652160
Si       1.55991297      32.52821267      21.45427861
Si       0.23479130      32.03731147      23.33217457
Si       2.84033912      34.48844957      21.65933481
Si      38.66075267      33.78176682      23.27947924
Si       1.50206696      32.08859866      25.31127916
Si      39.86193399      35.77050940      23.63628776
Si       2.54005614      34.19339741      25.45668405
Si      38.89686605      34.06244913      19.45582489
Si       1.45541925      36.44485983      17.81742424
Si       0.02484268      36.11452800      19.65317562
Si      38.42283731      37.83474698      19.64875918
Si       1.16122133      36.13309587      21.71096682
Si      38.60855518      38.09507389      15.89144278
Si      39.68749745       0.17680961      16.06037593
Si      38.30908991       2.15399160      12.23770521
Si       4.04443273      34.51614130      23.67852911
Si       4.25754546      34.58066536      19.78573139
Si      30.24233736      34.52974467      24.80917065
Si      31.34068517      36.60058610      24.98861135
Si      31.10030432      36.35155272      28.81919050
Si      30.02897190      38.58384526      21.21777050
Si      28.52062098      38.23406208      22.98607859
Si      31.04197170       0.70109561      21.33887050
Si      29.70281666      38.28677436      25.01787528
Si      30.93679017       0.27196337      25.26356526
Si      35.92329006      31.14800310      28.85334983
Si      37.04230992      33.21180896      28.98125389
Si      33.86161221      34.59947938      30.81218702
Si      36.59949329      33.20144112      32.80600653
Si      33.08953276      32.91496202      26.74040842
Si      35.62585887      35.24281459      25.11741316
Si      34.18671040      34.98275878      26.95733112
Si      36.71813922      37.31247486      25.33739001
Si      32.55443860      36.67361671      27.00026605
Si      35.34066123      34.83372099      28.99988014
Si      33.69171367      38.72226409      27.18508150
Si      36.32921046      36.96676021      29.02284610
Si      32.79282856      36.91040517      23.16671532
Si      35.35903976      39.33786680      21.54084490
Si      33.91682845      38.96556224      23.35954385
Si      32.25611437       0.62942549      23.35088375
Si      35.14148925      39.05618925      25.36426261
Si      32.53260450       0.93936988      19.53666964
Si       1.31588415      31.83468932      29.07347896
Si      39.87792277      31.68314520      30.92775310
Si      38.15980982      33.28416182      31.04857999
Si      38.45351823      33.53738050      27.12976798
Si      39.61553537      35.57454343      27.28791630
Si      37.94871762      37.23166423      27.33888250
Si      38.08331326      37.29307178      23.42352131
Si      32.33957670      36.39194932      30.81720135
Si      32.10497944       0.45439020      27.29546268
Si      28.25145788      27.63913295       6.91970270
Si       2.24548953      26.04368696      12.11932959
Si      39.17434903      26.45400393      14.54163588
Si      39.74076534      24.50524478       9.29853001
Si      33.75767679      27.15227017      10.77060332
Si      36.81213050      25.14303721      11.87539771
Si      33.85339359      25.48232124      14.20509565
Si      37.01629696      26.59791470       8.59616320
Si      35.42384131      25.65813475      10.04877924
Si      34.43378861      23.75837509       9.07925155
Si      30.78330111      27.52724470      13.16105165
Si      32.46026905      26.06373179      12.40208962
Si      31.49729083      24.10576074      11.52522256
Si      32.38268529      27.76222412       8.96300905
Si      30.07063828      26.33579817       6.19756877
Si      31.42270256      25.81909044       8.05092845
Si      30.13130930      24.85696817       9.76460230
Si      32.01403994      22.25036898       6.36352505
Si      29.24109177      22.91092357       8.78970606
Si      38.66957780      26.53047518      23.13479317
Si       1.69803126      24.51434165      24.17940998
Si      38.79458089      24.87861197      26.54801786
Si       0.21550428      26.54020908      18.92326093
Si       1.67850058      26.14903284      20.72180620
Si      39.22111781      24.65354857      17.93479120
Si       3.35189814      24.68600446      19.95600844
Si       0.34741097      25.08668847      22.34225878
Si       2.39031431      22.72848875      19.07862493
Si      39.36958070      23.14505011      21.44897049
Si       3.22908344      26.35350937      16.54431746
Si       0.90331385      25.05566327      13.77772076
Si       2.25970345      24.43352054      15.59436408
Si      39.84040232      23.14878550      12.90589332
Si       3.72496773      22.72255563      14.92039167
Si       1.02874868      23.31408014      17.25469657
Si       2.90394280      20.74808863      13.94213839
Si      -0.08422681      21.44923215      16.35720894
Si       1.42244831      21.58092776      12.15383589
Si       0.37562611      19.63112169      11.36055166
Si      37.38294235      25.38912845      24.73836010
Si      36.36781562      23.45888151      23.86014703
Si      34.91843375      25.66298486      18.58867594
Si      36.30711469      25.21740650      20.43315606
Si      33.92170295      23.75119574      17.65108316
Si      37.94378549      23.71288325      19.66914930
Si      35.01442971      24.09695438      22.04637094
Si      37.01891636      21.75937631      18.74640988
Si      34.03438080      22.15309160      21.15753113
Si      37.85080926      25.41048694      16.18109331
Si      35.51666184      23.99391699      13.46580391
Si      36.90402806      23.45414216      15.28514793
Si      34.54182230      22.05571111      12.56034198
Si      38.57031073      21.98996057      14.50827745
Si      35.64868162      22.33121038      16.92462700
Si      37.56489912      20.04547123      13.65407205
Si      34.62640982      20.41260822      16.03093239
Si      38.45487677      23.66219247      11.07743796
Si      36.18262584      22.36554519       8.35095080
Si      37.52520736      21.70516364      10.16465717
Si      35.25402592      20.36808662       7.52933080
Si      38.99167942      19.99373619       9.49461308
Si      36.23662182      20.61471581      11.80071398
Si      35.29483293      18.64665027      10.92567705
Si      32.56263514      24.39820221      15.84465163
Si      31.56224901      22.47396585      14.93572853
Si      33.25035596      21.00274161      14.21869791
Si      32.31490989      19.02957740      13.34730226
Si      33.18167176      22.66415342      10.74172097
Si      30.76892615      21.26287230       8.09694147
Si      32.19799532      20.70969795       9.88062337
Si      33.91543424      19.28817298       9.13295644
Si      30.92945196      19.64517903      11.55011145
Si       4.95709915      22.38563069      25.07544795
Si       5.44738933      20.64322260      20.11314741
Si       5.58229959      19.09790053      23.57436354
Si       0.50016493      23.40768666      25.87303612
Si      39.48894629      21.52090407      24.90212098
Si       2.47123518      19.24099648      25.90342147
Si       3.32908351      22.97080025      23.48416957
Si       1.05219889      21.68409148      20.70363166
Si       2.43170694      21.03864857      22.49272454
Si       0.06413525      19.74261578      19.82403597
Si       4.15291294      19.60694526      21.77907662
Si       1.11568761      20.00500658      24.14219161
Si       3.19828282      17.65725478      20.87907141
Si       0.21788905      18.02615413      23.24841951
Si       4.14562014      21.37430820      18.29701937
Si       1.53505106      19.89852399      15.65353573
Si       2.86097859      19.54820045      17.56201053
Si       0.70240035      17.90299583      14.73335612
Si       4.63440329      18.29758136      16.65856544
Si       1.72511537      18.22838965      19.13993598
Si       3.47581573      15.79758172      15.58865561
Si       0.81867108      16.29309675      18.16377446
Si       1.26868090      16.46399955       9.70489024
Si       2.35638841      16.60344308      13.68446060
Si       1.47847426      14.52632459      13.01885611
Si      36.45388187      22.00183346      27.25703684
Si      38.04184449      20.47719030      26.43195241
Si      37.27355849      18.40871895      25.62091673
Si      38.08959995      22.05543030      23.09125248
Si      35.70605538      20.69483670      20.37934650
Si      37.14049710      20.12251528      22.15060331
Si      34.72150892      18.74863889      19.50267544
Si      38.81056613      18.61960634      21.46318764
Si      35.90415363      18.99758209      23.80206470
Si      37.80135750      16.71553644      20.52682039
Si      38.69391159      20.29202830      17.99666524
Si      36.31000675      18.94181534      15.30601000
Si      37.71062122      18.35632313      17.09931686
Si      35.35247770      16.98538198      14.42415812
Si      39.39134779      16.87556334      16.39075784
Si      36.39804360      17.29241564      18.73226922
Si      38.44380753      14.94797598      15.43799832
Si      35.45136464      15.31963307      17.87435755
Si      39.19104117      18.46982464      13.02541248
Si      36.98120382      17.21786699      10.12434841
Si      38.31345095      16.57291837      11.95062919
Si      36.01768074      15.26986853       9.22678323
Si       0.06457091      15.16805100      11.25376151
Si      37.04685316      15.55378906      13.64800746
Si      38.93175915      13.32600703      10.33088185
Si      36.10143389      13.62247085      12.69898597
Si      33.34719062      19.34863857      17.69180163
Si      34.05630771      15.95341237      16.09091032
Si      33.07068408      14.02533252      15.17490825
Si      34.01326729      17.59103849      12.58993903
Si      31.66837461      16.29521585       9.85619928
Si      33.00450177      15.66879866      11.68706342
Si      34.71960700      14.26159715      10.90801939
Si       7.22859281      17.55791920      22.90594745
Si       6.25760234      15.65954396      21.91471563
Si       0.14432897      16.35288843      26.82214144
Si       4.31037762      17.96187236      25.19233851
Si       1.88602688      16.55651300      22.48795494
Si       3.32995581      16.03626305      24.26770784
Si       0.89349651      14.62332967      21.59337221
Si       5.01148180      14.54886198      23.57036542
Si       1.97586146      14.84837026      25.77779918
Si       3.90179509      12.64288572      22.75577080
Si       0.95542484      12.86384968      25.03948204
Si       4.90301915      16.24733656      20.08493552
Si       2.50607171      14.80479863      17.48581284
Si       3.96727271      14.26115613      19.24470852
Si       1.51451553      12.91889925      16.49301358
Si       5.54402084      12.54829028      18.91732224
Si       2.62580353      13.21160208      20.86483234
Si       1.62108127      11.28079663      19.97718783
Si       2.27374670      11.16688989      11.51407276
Si       3.20843449      11.45701631      15.77071696
Si      38.94162009      16.92506192      24.88561772
Si      36.53164774      15.65652932      22.19754039
Si      37.89949381      15.01405122      23.99848176
Si      35.65088787      13.66596010      21.30862767
Si      39.60136701      13.57346593      23.25288437
Si      36.75907626      13.66668242      25.55166353
Si      39.50007369      15.25830171      19.81064868
Si      37.16011277      13.90122770      17.10514353
Si      38.54174675      13.30946812      18.91213609
Si      36.22236045      11.94070450      16.20950129
Si       0.24131064      11.86682352      18.16609235
Si      37.31962081      12.18188943      20.57389709
Si      36.28764864      10.28146030      19.65096391
Si       0.14911312      13.52109523      14.67672061
Si      37.79126901      12.14019529      12.01065869
Si      39.16791466      11.56121560      13.82653854
Si      36.80362611      10.20757624      11.10600308
Si       0.86047225      10.11426481      13.07120980
Si      37.88147468      10.45575345      15.45495536
Si       0.71055686      11.85086387       9.89606799
Si      34.23617148      14.10994932      19.48316880
Si      34.90682261      10.88079445      17.84466558
Si      33.95618604       8.95128281      16.89436161
Si      34.84947478      12.67138252      14.44655652
Si      33.87527956      10.67611603      13.67416010
Si      35.47798027       9.21025915      12.77279065
Si      29.55025547      28.58998362       3.81691563
Si      34.48017534      28.51757008       5.84983829
Si      39.54994957      28.20732701       7.89170553
Si      31.25006871      30.16152120       3.41011762
Si      33.00513245      28.96759774       2.39755685
Si      37.23493655      33.02101714       3.32541504
Si      35.51708590      31.49427003       3.82373789
Si      39.04618036      31.82770358       2.41699422
Si      36.31077367      29.91547854       5.37541593
Si      34.77326556      30.42424255       1.86615975
Si      38.07501407      28.68766925       4.42173943
Si      36.55081968      29.22057461       0.90616639
Si       2.30184329      32.75939919       5.34288632
Si       0.57370551      31.25690734       5.87769281
Si       4.09613487      31.55317646       4.41823722
Si       1.34330382      29.65138402       7.41386656
Si      39.81142946      30.19303236       3.92411507
Si       3.11441208      28.43724194       6.45564637
Si       1.59398081      28.98368497       2.98162538
Si       7.23323369      32.28518066       7.22456582
Si       5.45490816      30.93639496       7.96485033
Si       9.16170665      31.28946650       6.31996780
Si       4.86034640      29.92137638       5.92880720
Si       8.06505057      28.16714031       8.53609598
Si       6.65096516      28.70648724       5.00927531
Si       9.77603804      29.64024871       7.87890880
Si      11.65694654      28.48129243       7.07365868
Si      39.20831715      33.79459519      38.38938311
Si      37.66105082      32.08055636      38.83524621
Si       1.02200895      32.62522549      37.45573063
Si      38.40722803      30.60863182       0.51046243
Si       0.13104628      29.44319235      39.41563942
Si       0.76672706      33.33391940       1.86857713
Si       4.38060913      33.18179150       0.54933074
Si       2.42230338      31.94228046       0.94578361
Si       6.22658805      32.34503489      39.35710295
Si       3.37380638      30.43565926       2.47975932
Si       1.85217430      30.95610867      38.88883009
Si       5.16022237      29.26513023       1.49691037
Si       3.67882700      29.78833707      37.97856020
Si       5.83564053      33.04427349       3.88900065
Si       7.63787470      31.88960769       2.91526435
Si      11.19426210      32.12752215       1.54147384
Si       8.35244455      30.20827854       4.39537411
Si       6.88339487      30.78014454       0.98442691
Si      10.18689707      29.02386504       3.52413260
Si       8.64585733      29.54440538       0.03915428
Si      10.83576767      32.89984712       5.95547477
Si      13.33746318      30.06219171       6.61925434
Si      11.95493015      30.50223983       3.05987785
Si      14.99744736      28.80579009       5.52569777
Si      13.74253427      29.34555548       2.06274914
Si      16.96566503      30.34051824       4.79619148
Si      18.77424072      29.00704187       4.10334128
Si       5.38613974      31.30645501      37.42218774
Si       7.15716910      30.03565639      36.54059945
Si      10.02725951      32.53978708      37.90612446
Si      10.45191760      30.99026350      39.62261634
Si       8.84565050      31.61088067      36.09770391
Si      12.26838328      29.89053523      38.61468457
Si      15.52009057      30.79989893       1.55875732
Si      32.03340283      25.89799261       4.40750609
Si      35.10870888      26.71707298       7.22582685
Si      37.03316642      25.59813821       6.46810379
Si      32.88177938      24.40856499       6.01754728
Si      34.59037063      23.09053289       5.08281792
Si       0.43072377      26.74354313       9.50768858
Si       2.07247730      25.36659122       8.53887923
Si      37.81167523      24.03214569       8.03985602
Si      39.60149544      22.86213167       7.06203142
Si      32.31686700      27.88296233       0.42767745
Si      33.80756037      27.36116081       3.91600561
Si      37.31994912      27.63268423       2.46066394
Si      35.58632781      26.13433415       2.98845987
Si      39.11866606      26.43902710       1.52876625
Si      36.37201609      24.50726312       4.49312689
Si      34.88929892      25.07070449       1.01045066
Si      38.18055254      23.34366095       3.54285914
Si      36.68977173      23.88632557       0.06935079
Si      38.79476359      27.07507894       5.97421888
Si       2.37038848      27.36518844       4.49989410
Si       0.61037379      25.90511880       5.04551375
Si       4.15284070      26.16944831       3.54087069
Si       1.40090243      24.28955701       6.55959330
Si      39.92221092      24.84775927       3.06170520
Si       3.18625510      23.09183208       5.60819450
Si       1.68675224      23.63155865       2.09528042
Si       3.84152970      26.81841772       7.99828596
Si       7.41477150      27.09847082       6.54505438
Si       5.65427684      25.63472446       7.08062309
Si       9.21819171      25.92931446       5.59152588
Si       4.92466609      24.59196614       5.10368728
Si       6.70991587      23.38245230       4.16732119
Si      11.68552396      22.92719060       6.05854617
Si      38.50586532      25.29384706      39.56859823
Si       0.88976078      27.89879782       1.01817132
Si       4.42290764      28.19386690      39.53826455
Si       2.67072739      26.71054809       0.04620317
Si       6.21201438      26.99577452      38.59378466
Si       3.44757256      25.09818135       1.57077449
Si       5.23235258      23.88106498       0.64383046
Si       5.90328234      27.65741701       3.04277503
Si       9.43217592      27.94796194       1.57505605
Si       7.68506750      26.46017646       2.08472572
Si      11.22995981      26.74728771       0.65203053
Si       8.45125826      24.87031510       3.63760709
Si       6.96793497      25.37907427       0.12432853
Si      10.24091480      23.70367265       2.65650420
Si       8.74800583      24.19339848      39.14805810
Si      10.94676429      27.44144837       5.08798138
Si      14.46280824      27.66459480       3.54048761
Si      12.72310208      26.21047745       4.16240667
Si      16.31690542      26.51300885       2.66586100
Si      13.52290253      24.57790504       5.65327187
Si      12.03092738      25.15145462       2.18098259
Si      15.34910864      23.41632238       4.73441992
Si      13.80953873      23.94070219       1.23380558
Si       7.98329509      28.44953375      38.06705400
Si      11.25541295      28.97286021      36.70119855
Si       9.73802961      27.22075806      37.09776129
Si      13.06754214      27.61532122      36.06681635
Si      10.51652811      25.67243768      38.68677843
Si      12.20410989      24.38239343      37.67898202
Si      12.96962546      28.24175210       0.13625414
Si      14.82935318      27.11854953      39.23763010
Si      15.54597124      25.44041893       0.72056549
Si      13.97122688      25.91073855      37.41163568
Si      17.34448622      24.30658496      39.71623992
Si      15.87165900      24.90623707      36.45790110
Si      18.04898680      28.00131994       2.10521756
Si      20.38837592      25.24159743       2.40297476
Si      19.14486892      25.74212410      39.23927070
Si      37.16877184      20.27309513       5.65674274
Si       0.64906408      21.35863343       8.53544619
Si       2.26850600      20.04897939       7.44375552
Si      37.89571249      18.65122705       7.19634742
Si      39.66618195      17.44853346       6.22290261
Si      37.39681220      22.25710684       1.61062687
Si      39.18444800      21.11643423       0.59450060
Si      38.25181004      18.20984958       2.84804835
Si      38.91340220      21.75015979       5.10828550
Si       2.48141755      22.03708699       3.62904173
Si       0.71426009      20.57857836       4.15419988
Si       4.26162227      20.82803792       2.68291045
Si       1.43399025      18.86425680       5.59262354
Si      40.03784170      19.56652205       2.14296272
Si       3.31040557      17.70659739       4.77693399
Si       1.78095848      18.22356950       1.31477300
Si       4.04454216      21.56664864       7.17824832
Si       7.48939275      21.77931037       5.70036083
Si       5.75037086      20.27750955       6.19985622
Si       9.25832795      20.52967540       4.78478285
Si       5.01826643      19.22619783       4.22835100
Si       6.82076023      18.03549037       3.30062687
Si      11.84224162      17.72068407       5.37761212
Si       1.01026592      22.52484470       0.13438550
Si       4.44948955      22.81960672      38.69822262
Si       3.56569513      19.65374961       0.76870103
Si       5.36641558      18.48489989      39.80905294
Si       6.02610258      22.30256836       2.19434955
Si       9.49894522      22.60791927       0.71335378
Si       7.79931000      21.07693156       1.25615433
Si      11.32933462      21.41056381      39.85101574
Si       8.60166325      19.48137844       2.78520594
Si       7.14707367      19.93666676      39.30609389
Si      10.32141880      18.24970405       1.75895671
Si      10.97691901      21.95110331       4.04004970
Si      14.64665867      22.35681499       2.75633373
Si      12.89864278      20.85974538       3.23742783
Si      16.38722921      21.07303778       1.83398438
Si      13.52705961      19.27697304       4.85884511
Si      12.08261441      19.74800848       1.33308805
Si      15.45960037      18.36914094       3.87350319
Si      13.86052916      18.55779765       0.35760023
Si      10.56007664      20.38162749      37.88170950
Si      13.06817242      22.88240827      39.26974133
Si      16.45230691      23.13024217      37.88595781
Si      14.76478834      21.55380859      38.32912251
Si      15.64365675      20.01185282      39.87170295
Si      17.97047967      22.74546295       1.35938803
Si       0.38635929      15.72724340       7.65366703
Si       2.31862092      14.62338243       6.89369856
Si      38.86669126      16.43231143       4.25925840
Si       2.60141966      16.61436245       2.81952772
Si       0.70063147      15.31669934       3.30003815
Si       4.32110857      15.46174734       1.70507492
Si       1.51721001      13.75773587       4.85934194
Si       4.05448915      16.10634257       6.33049341
Si       7.61726325      16.44010958       4.83335036
Si       5.86054415      14.96421624       5.34897616
Si       9.39300594      15.20514088       3.91047815
Si       5.33856878      14.02064343       3.25961499
Si       6.15022237      16.89728253       1.35572237
Si       9.65983952      17.19685997      39.76370204
Si       7.93263263      15.72136123       0.37137761
Si      11.58088312      15.96487709      39.19765329
Si       8.54267787      14.13511597       1.99665767
Si      11.10021907      16.73194203       3.37719651
Si      15.48288341      38.97554863      20.26668398
Si      13.61323331      39.72309640      23.63679501
Si      20.03822696      36.98478000      19.10672944
Si      18.43822865      37.63972313      22.33022100
Si      25.02223533      34.84827608      17.55964237
Si      22.28064470      37.68377217      20.06309023
Si      26.64069277      37.42055769      20.50013317
Si      23.25797003      35.70628825      20.87745931
Si      14.22779582      38.09883045      22.05143413
Si      14.99544347      36.08309296      22.98821289
Si      18.71868530      35.92865477      20.74194886
Si      19.86548788      34.05676093      21.58984983
Si      21.63652418      33.41857514      18.51077607
Si      23.75777784      33.99241709      19.34739649
Si      16.92446403       3.53219479      29.09041900
Si      21.85940857       1.84122511      27.77580582
Si      11.79910586       0.46038858      27.15829633
Si      13.41369202       2.51479036      29.70183142
Si       9.97695183       0.85186827      30.35474298
Si      15.66661845       0.23849195      24.66017230
Si      15.15981633       1.80517474      26.33873988
Si      16.59850132      38.30930455      25.62785785
Si      17.31892831       2.32609830      27.11056172
Si      13.91461717       0.86847707      28.09950565
Si      18.22398586       0.51571193      28.30572080
Si      14.85485128      38.91033077      28.99820023
Si      20.56055018      38.22535692      23.15565598
Si      20.13843011      39.57351247      25.03473136
Si      21.51416802      36.37773953      24.25271967
Si      22.13840197       0.46902472      25.88725238
Si      18.62356902      38.86204382      26.68468499
Si      23.16999794      38.61218631      26.89335466
Si      19.73921541      37.00276942      27.58975836
Si      25.25088517      36.25635413      21.99659510
Si      24.97675067      37.91503374      23.63912463
Si      26.41731800      34.32485500      22.65674978
Si      26.96840665      38.52982374      24.72689069
Si      23.55517513      36.97168583      25.25537111
Si      28.11211447      36.62267267      25.49203253
Si      24.56383458      35.04150325      26.13822476
Si      10.36579635      39.30753117      28.62356605
Si      11.38180937      37.41578740      29.58204865
Si       7.91048519      35.89010155      30.26397977
Si      12.39852122      38.54236830      25.26720105
Si      13.21387898      36.60628025      26.32251848
Si      14.81153543      32.96483739      25.65415009
Si      15.22763458      37.35134499      27.27929888
Si      11.73556524      35.76491052      27.94567218
Si      16.26873237      35.48153703      28.25001235
Si      12.83365020      33.90444645      28.87308602
Si      17.04036749      36.70065955      23.97133744
Si      18.42885602      33.14676818      23.22228042
Si      18.08836241      34.79549875      24.86781270
Si      19.51493368      31.28053696      24.15234696
Si      20.11172820      35.43035492      25.88374111
Si      16.75903985      33.89559180      26.58624694
Si      21.14232465      33.54115096      26.82834682
Si      17.71468053      31.94242004      27.47922254
Si      21.88107881      34.79612342      22.55221758
Si      22.93649107      32.99755014      23.63837743
Si      25.08960047      33.52262490      24.42338165
Si      21.53303926      31.91119789      25.18038372
Si      13.17119646      32.28994987      27.19777154
Si      14.22361718      30.40734066      28.13400583
Si      18.08069958      30.36509861      25.77503175
Si      20.03411785       2.72865969      30.93013159
Si      23.88720031       2.68773622      28.61131955
Si      24.84001296       0.77939602      29.60026881
Si      23.02275843       1.47201126      32.91463973
Si      28.83278495       0.73147108      27.26505921
Si      29.76433119      38.78338162      28.19633408
Si      26.87382912       1.48036019      30.54904942
Si      27.90347445      39.56171479      31.43644056
Si      12.01432336       1.53128284      31.31564776
Si      13.01919061      39.63002478      32.26946831
Si      16.87785802      39.58013003      29.98940063
Si      16.34084526       1.19200752      31.61364994
Si      17.90243353      37.67628110      30.90893043
Si      18.51757728       1.65586816      32.36993938
Si      15.03571584       0.23328483      33.31800913
Si      19.59953791      39.92863216      33.54032176
Si      16.07452479      38.33872178      34.24357470
Si      20.27947195       1.03652927      29.31810363
Si      21.79219460      37.64623721      28.53313617
Si      21.39118757      39.19154269      30.25652988
Si      22.79120975      35.74044410      29.47557123
Si      23.41511152      39.87407202      31.23574487
Si      19.94715233      38.30132386      31.88162387
Si      24.45633407      37.99637756      32.19074344
Si      20.98890923      36.41643468      32.81910468
Si      25.21509870      39.22709251      27.87511451
Si      26.56800614      35.83124302      27.07727778
Si      26.22808259      37.34115463      28.84573214
Si      27.77299879      34.05993863      28.04344043
Si      28.29482628      37.90943697      29.81038307
Si      24.80270110      36.42818937      30.47559010
Si      29.39755239      36.05937279      30.75327788
Si      25.79929184      34.62199361      31.60117279
Si      29.82439342      34.40272204      29.13997515
Si       8.55171598      39.95367535      31.99776087
Si       9.98367805      36.46209239      31.21402485
Si       9.60988175      38.05725628      32.89999384
Si      11.02183395      34.59607977      32.19725765
Si      11.62392292      38.70927987      33.92344654
Si      12.62590104      36.82402813      34.90771030
Si      13.40955366      38.00476676      30.61573060
Si      14.86065523      34.54003433      29.87847487
Si      14.44070968      36.11913910      31.56702830
Si      15.89017436      32.64286959      30.80666159
Si      16.47710393      36.76994503      32.54142989
Si      13.03596551      35.23159872      33.22858592
Si      17.52746888      34.88186775      33.46301532
Si      14.07532296      33.34053588      34.15849154
Si      18.31734827      36.09343328      29.22369762
Si      19.73709544      32.61573636      28.46884809
Si      19.35093933      34.20232376      30.15783073
Si      20.76124592      30.69389892      29.35292651
Si      21.39290232      34.83440651      31.13098744
Si      17.92610331      33.28714336      31.78544678
Si      22.40325391      32.94523793      32.09355787
Si      18.98204566      31.39418858      32.69108862
Si      23.19302689      34.12857668      27.81427496
Si      24.11907284      32.15363147      28.68987524
Si      25.95287470      33.11510861      29.80324356
Si      22.75486767      31.33430946      30.42077776
Si       6.59042629      34.97574928      31.98156500
Si       7.61542278      33.09071849      32.94377676
Si       9.66116377      33.73267475      33.90916854
Si      10.72010992      31.78367023      34.68905821
Si      11.42500661      32.99684235      30.52196561
Si      12.81315461      29.47663036      29.76870281
Si      12.39720630      31.06748478      31.44888597
Si      13.72811384      27.53169937      30.72137321
Si      14.40942834      31.79412658      32.42152379
Si      11.00728022      30.09617874      33.07739076
Si      15.69040281      29.96807292      33.16099731
Si      16.26066105      31.06603727      29.10442773
Si      17.63644844      27.53945731      28.51670639
Si      17.37750535      29.25490590      30.10239320
Si      19.45850425      29.75889893      31.07190526
Si      15.80350668      28.26834149      31.54224054
Si      16.89091249      26.41625797      32.49671690
Si      25.06099222       2.02544422      33.94975022
Si      26.10247288       0.10265513      34.82250167
Si      18.18137991      38.91055329      35.11306771
Si      17.62429178       0.41659101      36.82888471
Si      19.17350896      37.05667857      36.16157985
Si      20.90849600      39.44297370      38.72860484
Si      17.41256308      37.77180211      39.48418506
Si      21.60312355       0.59641665      34.57153274
Si      23.03904577      37.02314566      33.79164347
Si      22.49058462      38.60224210      35.44202996
Si      24.04789992      35.14281307      34.77448899
Si      24.54159767      39.26881983      36.37157080
Si      21.19190716      37.69849988      37.17887100
Si      25.69820886      37.48852541      37.38490442
Si      22.24532590      35.79978287      38.07762665
Si      26.54917618      38.57600886      33.08826471
Si      27.92451571      35.24038093      32.39253573
Si      27.51209751      36.72302754      34.17017473
Si      28.82451444      33.17786600      33.07321434
Si      26.06519532      35.80713991      35.78168411
Si      27.13770520      33.97919264      36.80018147
Si      11.21507824      35.86998225      36.52787687
Si      12.27709345      33.98769956      37.45247804
Si      14.67306164      37.42456067      35.89366083
Si      16.12136577      33.98435095      35.11650050
Si      15.68169284      35.52325761      36.83621571
Si      17.15936132      32.11025518      36.08006422
Si      17.72844784      36.17312951      37.79007070
Si      14.30416135      34.57693240      38.48803576
Si      18.77019815      34.28005353      38.71411963
Si      15.40253012      32.67077477      39.31789010
Si      19.56820246      35.49854901      34.44854473
Si      21.00470467      31.99507361      33.72458533
Si      20.59887724      33.60689579      35.38481041
Si      22.06313521      30.09191258      34.60824851
Si      22.63312241      34.20260858      36.39803872
Si      19.22115260      32.68433872      37.04914341
Si      23.70091285      32.31075530      37.29406617
Si      20.23068584      30.80288435      38.03034149
Si      24.43149787      33.49453096      33.14416377
Si      25.53592797      31.61755518      34.02811077
Si      27.47150087      32.61724237      34.91275822
Si      24.09092985      30.69233164      35.63504937
Si      12.70528403      32.37023489      35.80238499
Si      14.30908699      29.25162645      34.92264587
Si      13.66483750      30.48136903      36.81929855
Si      15.37276767      27.15729688      35.99347103
Si      15.78429557      31.04806289      37.66154815
Si      16.75745560      29.21503097      38.76487184
Si      17.60822339      30.53710650      34.39373716
Si      19.09454025      27.18561555      33.60637447
Si      18.53825320      28.61965545      35.38441069
Si      20.60928774      29.28947894      36.27220580
Si      17.36541942      27.61250667      37.15546209
Si      21.71905659      27.37025806      37.05482601
Si      15.53553804      25.60280360      34.23720268
Si      19.51238450      38.42014288       0.32060163
Si      20.42997807      36.51366121       1.34663342
Si      24.32950580      36.41955586      38.97174809
Si      23.77906584      37.81534875       0.78278576
Si      25.21230324      34.49983204      40.00406064
Si      22.34547526      37.18100009       2.53580477
Si      23.31532604      35.19999188       3.35097041
Si      17.39065675      33.34873332       0.37395093
Si      18.40006750      31.45610539       1.33688050
Si      19.72558032      33.62892683       3.90203599
Si      20.81698288      34.87959387      39.70160715
Si      22.29338925      31.43729828      38.96139882
Si      21.84472196      32.99649418       0.66216739
Si      23.30451978      29.52375127      39.87901918
Si      23.85935623      33.60849553       1.70785734
Si      20.45385043      32.05950504       2.30968117
Si      25.00565730      31.75187072       2.58389857
Si      21.47135638      30.16814629       3.26676078
Si      25.71645149      32.91529634      38.34171146
Si      26.75770872      31.02106883      39.26691018
Si      28.83489024      31.56696513       0.22457233
Si      25.32823403      30.13313611       0.90930201
Si      18.83113864      29.85914384      39.66605761
Si      19.81395023      27.91634765       0.55363377
Si      21.83401597      28.66164222       1.49832440
Si      22.90429297      26.73002509       2.30503887
Si      23.68873345      27.89504485      38.22728091
Si      21.91503735      33.89631566       4.71806935
Si      23.57275192      30.74293706       4.15162186
Si      22.94603710      32.15908793       5.92118592
Si      24.60472625      28.83529693       5.06032713
Si      24.95544500      27.51578816       3.14554663
Si      36.27051098      15.77894622      26.46190069
Si      34.58340752      10.60616414      22.29908310
Si      33.86077671      12.73978076      25.36761690
Si      33.44083122      14.25639751      21.84997158
Si      33.65994951      10.57916876      24.46161222
Si      31.40385470       9.91946939      24.39250823
Si      33.19325331      15.83705523      18.27415299
Si      31.86948270       9.44779637      17.85802333
Si      33.36360172      12.08904285      20.94158952
Si      33.08442301      13.62216215      17.49172506
Si      31.11415568      11.41915272      20.80145231
Si      30.82470325      12.99165506      17.33112025
Si      32.13813408       7.87959552      21.32995207
Si      30.81482035       9.24829245      19.95021308
Si      30.52762624      14.46874088      13.82099388
Si      31.33256573       8.71049543      13.33005517
Si      31.60910877      10.84461171      14.27887491
Si      30.63091427      10.83359808      16.41735552
Si      30.35954760      12.30256862      12.92121062
Si      35.11262823      19.25277864      26.00137691
Si      34.48632039      21.42735499      28.88848866
Si      34.26885679      22.95896096      25.33894311
Si      35.33272902      15.55615946      28.60607059
Si      35.53727107      17.68109067      29.59215111
Si      33.11469477      14.85736089      28.26267583
Si      34.34453209      19.17503168      28.22234290
Si      32.07487290      18.64958537      27.90294676
Si      32.53732298      17.96328754      21.37922564
Si      34.10753160      20.76521405      24.50768992
Si      31.85652036      20.12025626      24.29541787
Si      31.54215797      21.63063059      20.95504028
Si      35.06552341      17.13920507      24.97078097
Si      32.64975706      14.27582959      24.06337251
Si      32.81851699      16.45057700      24.93910453
Si      30.39048294      13.64578932      23.90668829
Si      31.85788893      16.45656803      27.08435603
Si      31.61477783      17.90691397      23.54084343
Si      29.60054483      15.80358295      27.02231018
Si      29.33993184      17.31572829      23.50710309
Si      32.79532179      12.67000363      27.46258291
Si      30.54255358      11.99709137      27.49654211
Si      29.57897578      13.63576549      26.11295360
Si      27.49231365      11.48732507      29.54222223
Si      27.25484619      13.28647762      26.17575764
Si      31.19987026      23.09129455      17.47835584
Si      32.01499344      17.36629697      16.93144327
Si      29.78595941      16.61790379      16.90684180
Si      31.32360381      19.47285769      20.04632821
Si      31.05757342      20.90808505      16.61606208
Si      29.06461032      18.82235290      19.99943220
Si      28.78387854      20.32815700      16.46317706
Si      32.34327969      15.80625079      20.46498620
Si      29.92145070      12.97382765      19.50202308
Si      30.09059429      15.13742959      20.40612762
Si      29.18585432      15.16310312      22.57551470
Si      28.89197266      16.66506363      19.08089091
Si      26.92279930      14.52727902      22.57702490
Si      26.63416071      16.02501735      18.93832484
Si      30.30877928      11.47427034      23.00964424
Si      28.03468938      10.90007816      23.17633038
Si      26.83875598      12.44737085      21.48501646
Si      29.26317018      19.62204705       9.89133283
Si      28.51749917      21.83979333      12.92791263
Si      29.35345582      15.99234290      12.46820227
Si      29.53398082      18.14477615      13.39790182
Si      27.09855259      15.32885880      12.39507308
Si      28.62374138      18.16063891      15.56596023
Si      28.34300085      19.66353502      12.05469761
Si      26.35868803      17.53469162      15.48394443
Si      26.07916329      19.03617904      11.95304126
Si      29.59095483      14.46669116      15.97787423
Si      27.33288556      13.81920732      15.87524113
Si      26.44452735      13.85529545      18.05219547
Si      26.17232652      15.38208977      14.55594395
Si      28.01876036      20.94122990       8.39460787
Si      25.69236882      20.63299416       8.54458432
Si      25.93926318      16.86985826      11.04919485
Si      31.19911026      18.52728781      30.08150251
Si      28.97985378      17.81063828      30.38356906
Si      32.74763643      25.94690686      20.63713857
Si      30.48303637      25.32354908      20.52131659
Si      30.57478955      21.68580735      23.09768124
Si      28.32088217      21.01696393      23.05186690
Si      30.85051127      19.99889838      26.41686364
Si      28.43696077      17.34108257      25.67739062
Si      28.55812130      19.50510812      26.58866824
Si      26.18179286      16.68169478      25.59291956
Si      28.73136085      15.78997456      29.20682495
Si      26.20583525      12.97891224      28.25760867
Si      26.46690870      15.17237615      29.06412956
Si      25.57510193      15.19016467      31.24001416
Si      25.24628252      16.69341475      27.75021266
Si      23.02868458      15.91084493      27.75979844
Si      30.05427614      24.62010585      16.10704041
Si      30.20171001      26.77969520      17.02610997
Si      27.78683199      24.00203829      16.02780235
Si      30.30331033      23.14603080      19.65167117
Si      27.88152485      20.32740012      18.63442963
Si      28.04741469      22.49194231      19.53793264
Si      25.61717863      19.69921725      18.55249458
Si      26.87736520      24.02813412      18.19605479
Si      24.61759371      23.37810962      18.16478375
Si      28.15749249      18.84413160      22.16833991
Si      25.87001109      16.08082700      21.16105639
Si      25.88840822      18.23109249      22.11162362
Si      23.65139657      15.30316091      21.13298358
Si      24.99102206      18.23097184      24.28494652
Si      24.75509112      19.76744948      20.73908169
Si      22.73629523      17.57449439      24.16230829
Si      22.53323778      18.99814600      20.70754783
Si      25.90871265      14.52455766      24.69801825
Si      22.57374966      15.42631679      23.21957851
Si      27.22925334      27.03954746       8.95040864
Si      26.48656385      29.23534313      12.07675823
Si      27.35722333      23.37818288      11.58020845
Si      27.53245837      25.51902314      12.53684408
Si      25.10047148      22.74013062      11.41245029
Si      26.63220006      25.56903978      14.70850497
Si      26.42646525      27.07105765      11.15992699
Si      24.40284819      24.82209225      14.73197458
Si      24.18735447      26.38477232      10.95934062
Si      27.61749178      21.84810309      15.10016270
Si      25.14255480      19.00487068      14.10962361
Si      25.37455599      21.14449607      15.05623257
Si      24.44370397      21.23484099      17.21329372
Si      24.37349003      22.73792783      13.64769005
Si      22.19298482      20.56435328      17.09619085
Si      22.15103965      21.98463807      13.51547388
Si      25.40431565      17.54558959      17.63296513
Si      22.37314398      17.00958624      19.46305742
Si      25.97877211      28.55316824       7.65593604
Si      27.02908708      24.85878508       8.09362946
Si      24.54350529      22.07022331       7.08008796
Si      23.81732232      24.22214355      10.11430953
Si      24.75951311      20.52546852      10.70023838
Si      21.62642621      19.19419927      22.86828582
Si      23.33364201      26.17627598      13.13909742
Si      21.01735168      22.19527419      15.87610954
Si      21.40389215      20.69045456      19.52822698
Si      20.74102305      20.04058680      12.07115611
Si      18.20125245      22.06668803      17.88845937
Si      20.02531625      21.12393699      14.03217312
Si      20.28201651      19.42666110      15.63900022
Si      16.06712017      19.06674532      19.14690449
Si      19.92523527      20.47729311      17.71211484
Si      19.94913502      18.84706005      19.40675085
Si      16.00010989      20.03269918      21.28981411
Si      15.71088290      18.34954733      22.90635682
Si      19.66466114      17.89817895      22.90512512
Si      16.57407808      15.11276119      10.50321033
Si      23.01549401      19.58894877       8.25681991
Si      22.65543002      18.70065501      11.80891269
Si      22.45686191      17.78162135       9.65359247
Si      22.18339349      17.07098510      13.43675249
Si      20.44634359      16.64901167       9.20140171
Si      24.30775088      16.34718966       9.43827584
Si      20.32370438      14.96868844      10.84128778
Si      24.11138337      14.73043871      11.13439985
Si      18.30462068      18.21507090      15.25270732
Si      18.43723074      17.46983997      13.02669374
Si      18.03558450      16.60171216      16.94110276
Si      16.66368857      15.96201670      12.69409473
Si      20.19069242      15.90568745      12.99288788
Si      16.09627179      14.38996601      14.34757740
Si      19.96800606      14.21087930      14.60585870
Si      14.07830291      17.87625609      18.75161457
Si      14.21745383      16.84246558      16.64453725
Si      13.81801174      16.15352202      20.33046994
Si      16.06865181      15.40596749      16.46676613
Si      12.01635057      14.01195187      17.75193718
Si      15.83184253      13.72796839      18.09529889
Si       9.72738483      15.64439105      23.80611084
Si      11.86563712      14.90926612      19.92012307
Si       7.94031341      13.69361112      21.21934191
Si      11.62987734      13.20936230      21.52724722
Si       7.74487487      14.43263394      23.44333845
Si      24.05578296      15.65591613      13.29521083
Si      23.80895524      13.95724237      14.90206449
Si      22.18014476      18.04041019      15.57876147
Si      21.85841007      16.41548066      17.24728879
Si      21.32803344      15.65958712      21.07999266
Si      19.91176856      15.20069307      16.73688246
Si      23.68697217      14.95360055      17.02830613
Si      19.66816079      13.43168220      18.26538009
Si      23.46118899      13.24220157      18.62508774
Si      17.95117782      17.66466503      19.03596577
Si      17.54668407      16.88844078      22.75162911
Si      17.64200653      15.93952070      20.60272273
Si      17.42351520      15.10894640      24.28367861
Si      15.67280657      14.71298089      20.22352902
Si      19.44266148      14.44580892      20.37383509
Si      15.35542388      13.08026762      21.88485728
Si      19.06762966      12.98344542      22.17534317
Si      13.76768775      17.09423591      22.48481048
Si      13.43295861      16.32254055      26.25271501
Si      13.54668142      15.39482039      24.09492632
Si      11.57226408      14.19345603      23.66183080
Si      15.39400294      13.94007665      24.07281148
Si      11.48414398      12.56085952      25.35194706
Si      18.55793926      14.37912692       6.55846915
Si      18.44321282      12.76561369       8.26497772
Si      14.24879817      12.32068354      11.73445718
Si      16.61780522      11.34344039       7.84735361
Si      16.15992286       9.78015119       9.54321942
Si      10.06682507      11.79764265      15.22931249
Si      12.28953267      11.09309678      11.30595740
Si      12.15274017       9.44787933      12.98036533
Si      26.05848898      12.31182357       8.88699878
Si      22.40916597      14.33359733       7.15552446
Si      22.15019238      13.49133144      10.75230207
Si      22.22704904      12.50359149       8.62022021
Si      21.90342718      11.78722424      12.35278316
Si      20.27157516      11.29322580       8.13094864
Si      24.09999039      11.09584704       8.42362569
Si      19.99998792       9.64960110       9.79022315
Si      23.80754158       9.43445349      10.06151448
Si      18.41639539      13.65395940      10.44150758
Si      17.98955303      13.00304531      14.21775629
Si      18.05407355      12.01420282      12.08638272
Si      17.77873646      11.29050475      15.81371940
Si      16.06920765      10.83552959      11.64231196
Si      19.92081133      10.59285231      11.94217392
Si      15.87530067       9.13400747      13.25297167
Si      19.71702123       8.90639152      13.56708790
Si      14.09359959      13.24694203      13.89004067
Si      13.85117303      12.54596783      17.64224049
Si      13.93150350      11.55338106      15.51271451
Si      13.62276338      10.83481257      19.23815011
Si      11.93460871      10.37257072      15.13111581
Si      15.78768133      10.11641412      15.38682115
Si      11.67657670       8.62978385      16.68835290
Si      15.49902964       8.45547712      17.02521832
Si      10.07207971      12.74195195      17.38294168
Si       9.62161971      12.05124377      21.13683782
Si       9.72411749      11.07190382      19.00145468
Si      11.61735423       9.69413358      18.78434487
Si      11.40573701       7.87736804      20.26241032
Si      25.96172361      13.28361846      11.02587070
Si      25.68943463      12.55206685      14.76982763
Si      25.75843272      11.57760678      12.63116487
Si      25.34636059      10.87373135      16.38057260
Si      23.77984575      10.37769559      12.21491485
Si      27.57750193      10.09335940      12.49963376
Si      23.51227811       8.70244258      13.84274933
Si      21.82221429      12.77141001      14.48596627
Si      21.51476479      11.97687912      18.25168859
Si      21.56398971      11.06732913      16.08434460
Si      19.60637247       9.81479668      15.73219610
Si      23.40222855       9.60407532      16.01148069
Si      19.30580117       8.25886321      17.46794434
Si      17.65757669      12.25444978      17.95407661
Si      17.23180885      11.76836273      21.35045706
Si      17.50925172      10.43402972      19.43430526
Si      15.43952787       9.34274093      19.20167217
Si      13.47441209      11.75756339      21.39547569
Si      13.39167845      10.07869265      23.03949417
Si       9.47638744      11.56920043      24.63389300
Si      10.06916393       8.45905501      12.52366814
Si       9.90801195       6.68680710      14.06220429
Si      21.84866885       8.20469120       9.63882690
Si      21.99137869       7.22124985       7.50767375
Si      21.64585996       6.52599698      11.27274675
Si      23.52475129       4.21066366       8.94487436
Si      18.05579702       8.40254793       9.35021847
Si      17.74280622       7.71265538      13.11551419
Si      17.84727508       6.72486717      10.98452689
Si      17.48405594       5.98980001      14.69408537
Si      15.89143377       5.49422695      10.54910942
Si      19.69660973       5.27820327      10.85711652
Si      15.62422043       3.82075147      12.17947938
Si      19.49892402       3.46824252      12.34519068
Si      13.91502321       7.89576148      12.86341894
Si      13.55743033       7.22836110      16.52345025
Si      13.66223128       6.16138724      14.43082577
Si      13.25298353       5.56077674      18.15280538
Si      11.59162718       5.05837858      14.27124962
Si      15.52794351       4.73283650      14.34478420
Si      25.66302702       7.99295245       9.97866870
Si      25.12713043       7.00337252      13.65671227
Si      25.52007086       6.19259399      11.48459869
Si      23.48507131       5.06730083      11.13457164
Si      21.56188135       7.45536567      13.43103022
Si      19.05885824       4.25282289      14.51777016
Si      17.39157248       7.08394923      16.77263796
Si      21.60728163       2.91444042       8.52927030
Si      21.50387201       1.24256147      10.17965435
Si      17.45174255       2.34505646      12.06728308
Si      13.33746403       1.97586466      15.48541926
Si       2.43575425      11.16682503      39.59481397
Si       0.94633572      11.53234972       7.57850497
Si       0.41431815      11.10384905      31.27091937
Si      38.47325040      12.73676369      28.39462354
Si       0.70766323      12.66980510      36.38131171
Si      38.67978234      13.74181361      33.57368397
Si       0.97046445      13.60027002       1.71570395
Si      38.64061325      15.09667498      38.90330514
Si      38.46118623      10.98801282      29.96644649
Si      36.60022649      11.37850889      31.34956157
Si      34.46792368       9.00729674      29.29693850
Si       0.36437432       9.57922605      33.06063894
Si      38.47313994       9.96929958      34.40246930
Si      38.69565811      12.13506567      35.28962895
Si      36.50719780       9.83363413      33.11964000
Si      36.79602041      12.78784222      36.51077511
Si      34.66331653      10.28270590      34.50792662
Si       0.51997875      11.23246318      38.23248354
Si      38.72077172      11.32358912      39.74371017
Si      36.86832383      10.29648288       2.79683543
Si      38.89684386      13.50173973       0.61167760
Si      36.75841872      11.46933545      38.45670708
Si      36.96526150      13.95791463       1.87171295
Si      34.84654336      11.60962011      39.81781063
Si       0.70385862      12.04913854       3.46295958
Si      38.79326428      11.16998415       6.70533714
Si      38.95343197      12.67284241       4.90387230
Si      36.97509993      11.74410778       8.08197709
Si      39.10316481      14.78680492       5.92222572
Si      36.94933600      12.46946126       3.69129557
Si      37.21254015      15.34629570       7.20324162
Si      35.07235447      12.98257501       5.01088144
Si      34.82565913      10.12856480       1.64417779
Si      35.03570018      11.44189624       6.78678092
Si      33.20036448      11.87203973       8.19255531
Si      31.36147703      10.81707564      11.39811742
Si      36.69602203      15.10754155      30.46744457
Si      35.15515164      17.77919394      32.65106838
Si      37.24376534      17.71269118       0.78262937
Si      35.37646601      19.12767094      37.86223500
Si      35.56618512      20.37969463       3.14206522
Si      34.61953847      11.21469184      30.09318628
Si      34.97558720      12.74195614      28.34097529
Si      32.73404554      11.63922909      31.43227358
Si      32.97207736      15.32109238      30.56298872
Si      36.76074083      13.55282337      32.22889058
Si      34.78334498      12.47973334      35.33602328
Si      34.88904141      14.02698904      33.56954061
Si      32.95340747      12.96154464      36.73046372
Si      34.98595270      16.22208261      34.40491445
Si      32.89169754      13.79735332      32.35144497
Si      33.14215222      16.68974288      35.78580274
Si      31.01707291      14.32686773      33.66747856
Si      36.89393331      14.98804046      37.33320708
Si      35.00348100      13.82572613       0.58390556
Si      35.11479514      15.37503206      38.82017898
Si      33.18394249      14.27955820       2.00049607
Si      35.20153021      17.58184837      39.62505482
Si      33.14157173      15.15147592      37.56294648
Si      33.38153800      18.02057571       1.04649591
Si      31.26602792      15.62668120      38.89701814
Si      37.12642911      16.15059631       2.70352886
Si      35.26959965      15.15281331       5.89334906
Si      35.30390427      16.66730136       4.09565773
Si      33.39888365      15.59941338       7.24569840
Si      35.43521161      18.86031923       4.93192699
Si      33.33975607      16.47727663       2.81862853
Si      33.57402521      19.26324832       6.31105316
Si      31.49637704      16.93036623       4.20445830
Si      32.49692340       9.26468113      28.04023964
Si      30.52906836       9.32875488      29.32621003
Si      30.76770985      11.51888047      30.14855076
Si      28.92880268      11.90694402      31.56191001
Si      32.70339116      10.11230568      33.22006380
Si      30.77684438       9.03989395      36.34895942
Si      30.84444342      10.58683415      34.57938894
Si      28.92713602       9.47850121      37.73297723
Si      31.00391117      12.77234087      35.43085028
Si      28.87006551      10.35128272      33.32432736
Si      29.15270185      13.24740745      36.79930933
Si      26.99434692      10.83178837      34.65850904
Si      32.91022944      11.41301130      38.49865209
Si      30.97871777      10.34942672       1.59175950
Si      31.05694373      11.92697727      39.85061068
Si      29.17997273      10.85392260       3.01948851
Si      31.23713597      14.11314087       0.69453674
Si      29.11723650      11.67582449      38.54688660
Si      29.37599816      14.54190703       2.06392082
Si      27.22559337      12.27738423      39.80582542
Si      33.10265165      12.71718540       3.75486963
Si      31.23621536      11.65517463       6.91800340
Si      31.27597125      13.20638424       5.15165106
Si      29.36099431      12.16708171       8.24114969
Si      31.42384964      15.39905385       5.98623756
Si      29.31139836      13.04095315       3.87142154
Si      29.56262800      15.87250089       7.34196954
Si      27.45498979      13.48135983       5.24450180
Si      33.32239465      14.06691943       9.02724398
Si      29.53425089      14.33946372       9.12443842
Si      27.02074432       9.22963104      36.37928399
Si      26.98696927      10.87915837       1.68047329
Si      25.12777238      11.12779343       3.09834219
Si      27.22891201       9.72084683       6.14061455
Si      27.38720094      11.90779501       6.98980552
Si      29.32486641      10.90628541      10.22578029
Si      33.61212240      20.43740565      34.90792156
Si      33.67085714      21.72966796       0.08960029
Si      31.45953485      22.92103459      37.00980928
Si      31.95455449      24.38370354       2.31691607
Si      33.14907174      17.48748830      31.45930607
Si      31.21024864      16.53343156      34.45547449
Si      29.36029715      16.96668978      35.84008500
Si      31.62227610      20.45813652      33.65504931
Si      29.73617314      20.70593429      35.03732862
Si      33.38393858      18.86576007      36.64179521
Si      31.42030491      17.80337187      39.76958853
Si      31.51442994      19.33382347      37.98807282
Si      29.56672733      18.24268317       1.14613041
Si      31.66976178      21.50533862      38.87551344
Si      29.51925221      19.12322512      36.76262037
Si      29.80305730      21.98954939       0.22043626
Si      27.64551174      19.63110834      38.08887754
Si      33.58940044      20.20847052       1.88057722
Si      31.61316276      19.13136319       5.02110383
Si      31.72212246      20.65754424       3.23644590
Si      29.80678214      19.60205229       6.45024613
Si      31.88815349      22.84161968       4.09092155
Si      29.74763884      20.43245249       1.98078039
Si      30.06761208      23.26357972       5.51826751
Si      27.91195831      20.93202522       3.36147137
Si      29.05867138      14.10567692      32.38542945
Si      27.21420870      13.02015939      35.48926750
Si      27.17951273      14.56901053      33.72079516
Si      25.40532852      13.53948051      36.89768842
Si      27.40558976      16.75751194      34.55042020
Si      25.78677955      17.43831479      36.11414133
Si      29.29651211      15.44212306      37.62805389
Si      27.37217177      14.37991146       0.84649428
Si      27.47501289      15.88666263      39.04540038
Si      25.43698745      14.81408882       2.10844486
Si      27.60466488      18.08726197      39.86134000
Si      25.53993415      15.73793589      37.71891968
Si      25.74426014      18.48475841       1.24229357
Si      29.52962919      16.71916833       2.93523846
Si      27.58908547      15.67451630       6.08007073
Si      27.65109993      17.17537887       4.27201564
Si      25.73555842      16.10862632       7.45980188
Si      27.89187247      19.35901485       5.10820706
Si      25.66485296      16.96362853       3.03290122
Si      25.95652962      19.72667026       6.39124197
Si      23.79162945      17.47000227       4.36036849
Si      29.74805340      18.04794303       8.21366873
Si      25.92394629      18.30915583       8.26725936
Si      25.19165560      11.99935543      38.66048457
Si      25.53245459      13.29925928       3.90390625
Si      23.65892389      13.73308883       5.25640643
Si      23.81095220      15.91391361       6.12297851
Si      27.84510674      21.81772291      38.93002406
Si      25.96673587      22.23011611       0.28303252
Si      29.99557976      24.18824556       1.03096246
Si      28.10323578      23.10578984       4.23588652
Si      28.11162784      24.55914278       2.38791908
Si      26.26719909      23.55607042       5.63396199
Si      28.20813781      26.75000265       3.23490582
Si      26.18694708      24.44454308       1.04237334
Si      26.56122642      27.23727883       4.84102455
Si      24.35714311      24.88745992       2.45081421
Si      24.01487170      18.11644587      39.69254361
Si      25.97703992      20.67991522       2.05057206
Si      23.90546876      19.64585018       5.24445875
Si      24.16294165      21.16198784       3.46584608
Si      24.37858484      23.36941964       4.24590426
Si      18.60250980      21.68400374      36.47479201
Si      20.84828437      23.45144694       0.14929767
Si      20.12969149      21.91477559       1.77772077
Si      14.72943958      17.44535285      27.86159281
Si      14.00904187      16.14525816      29.68380187
Si      17.93448899      19.04661535      33.99616015
Si      18.27794191      17.34885382      29.62215808
Si      17.30596731      16.27696566      31.47546213
Si      20.66614235      16.50450911      33.21330938
Si      16.29166915      17.60428422      33.13000377
Si      12.00310900      15.74958453      33.02645731
Si      15.50661422      16.18978332      34.83627367
Si      23.89393736      16.62979259      34.97712958
Si      20.37558318      20.60977736      37.58495657
Si      21.30674252      19.18078417      35.96610970
Si      19.49608300      19.19152739      39.24154869
Si      19.70896644      17.80993362      34.91865156
Si      23.16008206      17.97247749      36.76266394
Si      18.86635966      16.42003122      36.61744156
Si      22.25390457      16.59689460      38.44059863
Si      16.87173112      20.30965515      35.67105316
Si      16.12947111      18.95864774      37.44697430
Si      14.52496679      17.51673982      36.51089826
Si      17.91144752      17.70865317      38.33654471
Si      13.71174558      16.11577527      38.21545372
Si      17.05781453      16.31821623       0.02956424
Si      21.91404299      20.83612005       2.86345659
Si      22.75176361      19.47354417       1.13950389
Si      21.16344735      19.07177226       4.22440239
Si      21.29145709      17.94527029       0.10919546
Si      20.50002102      16.54008288       1.82027387
Si      18.47047530      20.49132747       0.91146562
Si      17.66228884      19.11652418       2.63982807
Si      16.09407148      17.61349716       1.73896559
Si      19.36741784      17.74124337       3.49452662
Si      15.16911113      16.10925886       3.29187647
Si      18.62920734      16.29188858       5.19252670
Si      16.73597616      13.57069542      28.92262859
Si      12.56136852      14.44810271      28.94005019
Si      11.41678781      13.24893997      30.60790789
Si      15.12566656      12.18165438      27.91906442
Si      10.90456428      10.31105333      27.73605482
Si      14.21942719      10.66171976      29.73958991
Si      10.12426808      11.59858623      29.54235116
Si       9.03808894      10.39836380      31.24828631
Si      23.48753682      13.88498585      32.39850773
Si      22.68030199      10.99813965      29.96516303
Si      20.81505191      15.10953144      28.94047769
Si      19.08370574      15.00252940      32.33718207
Si      20.05467387      13.68492840      30.64955826
Si      18.23080558      13.63603504      34.04910370
Si      18.45001674      12.20552598      29.77530314
Si      21.80964391      12.44383529      31.60161780
Si      17.63010414      10.83152067      31.49767170
Si      20.99150422      11.02641839      33.28879628
Si      15.68595719      14.79759761      30.63073674
Si      13.88992037      14.71571764      33.97523359
Si      14.84707287      13.37169270      32.30058550
Si      13.05064183      13.32299177      35.67357900
Si      13.19675230      11.94628780      31.42239128
Si      16.64109613      12.13635768      33.18409388
Si      12.40631629      10.52212547      33.11778253
Si      15.78598398      10.74978408      34.87839816
Si       9.71922334      13.10288600      33.84085604
Si      11.44481134      11.83653738      34.81342444
Si      10.61092157      10.45962817      36.52687902
Si      25.23998290      12.64941674      33.36362058
Si      24.39719913      11.25106572      35.05577667
Si      22.35651190      15.10615932      34.05906987
Si      20.62157151      15.16129455      37.54539344
Si      21.56360628      13.82040966      35.86025091
Si      19.82516371      13.74950780      39.24768432
Si      19.97700082      12.34538122      34.94849259
Si      23.30502855      12.49821927      36.72295779
Si      19.18790801      10.96595228      36.67974973
Si      22.53122842      11.15960795      38.49327727
Si      17.26465140      14.92968402      35.75735721
Si      15.47621608      14.84294757      39.10748954
Si      16.45092548      13.50335442      37.43939114
Si      14.63878594      13.46770816       0.82094229
Si      14.81370395      12.05501039      36.57447801
Si      18.21895371      12.27077115      38.37728527
Si      13.99318406      10.68633068      38.30094853
Si      17.40153623      10.85205815       0.06349430
Si      12.04743817      14.78700755      37.21645652
Si      11.55610495      13.18145731      38.86389184
Si      13.06518491      11.87330150      40.10614273
Si      23.98369877      15.35648140      39.43948273
Si      22.26803558      15.28884982       2.73527423
Si      23.24184990      13.88687121       1.11815600
Si      21.46235751      13.87084108       4.42915201
Si      21.59014078      12.50487971       0.17540035
Si      20.80273201      11.07448331       1.86637594
Si      18.87115031      15.10913771       0.91112469
Si      17.03811193      14.94096420       4.11041896
Si      18.12936382      13.57940731       2.53478463
Si      16.48227746      13.50237963       5.88526996
Si      16.40994440      12.20371047       1.71148677
Si      19.85786695      12.37694329       3.58014703
Si      15.68328852      10.70464281       3.37065142
Si      18.97424518      11.03148572       5.29383512
Si      13.48912422      14.68126857       2.47468740
Si      20.62359770      15.37243195       6.03256498
Si      16.91275922       8.19397456      28.86450802
Si      12.48192398       9.03457717      28.92473911
Si      11.65678513       7.60954548      30.60347168
Si      14.54466866       5.15434560      29.75834550
Si       9.33648298       4.62497375      31.46073798
Si      24.56354129       9.84829577      30.77780675
Si      23.74289387       8.48464357      32.50873329
Si      19.39717646       9.55791904      32.38053171
Si      20.35940628       8.25421156      30.67850778
Si      18.54560272       8.19655890      34.09644489
Si      22.13822593       7.02464484      31.60201697
Si      17.86561512       5.42825471      31.49803190
Si      21.36661652       5.63868531      33.33740513
Si      15.97307083       9.39190103      30.65622838
Si      14.17591210       9.26636240      34.02247436
Si      15.16199150       7.95983107      32.33504756
Si      13.32469880       7.88045131      35.72014055
Si      13.56308458       6.49985031      31.41842313
Si      16.93911515       6.71217806      33.23607210
Si      12.79351365       5.15822657      33.18983821
Si      16.03251560       5.34516307      34.91991227
Si      10.77350860       9.11412944      32.17995528
Si       9.98895555       7.76402435      33.93809534
Si      25.18067021       8.74056000      37.75859052
Si      25.50709953       7.23722343      33.43646820
Si      24.69852795       5.83427654      35.14161313
Si      22.76624911       9.78710682      34.20488091
Si      20.93860976       9.68773215      37.58730392
Si      21.92135784       8.38767680      35.89391504
Si      20.16094453       8.29119096      39.31001751
Si      20.31147232       6.93123139      34.99317158
Si      23.71293725       7.16999293      36.80666796
Si      19.54703085       5.57408248      36.75321643
Si      22.92597221       5.74933382      38.50654519
Si      17.57208781       9.51637060      35.77959285
Si      15.74681231       9.41461643      39.21443569
Si      16.71885393       8.14831297      37.48931588
Si      14.92193794       8.00781369       0.90788807
Si      15.11194820       6.65945770      36.63769170
Si      18.50317819       6.90730197      38.38287126
Si      14.23442722       5.31845849      38.35736289
Si      17.86261695       5.64146259       0.25632920
Si      12.39012057       9.20855031      37.42060224
Si      24.29817538      10.00771760      39.53091544
Si      22.58729556       9.86995347       2.81037454
Si      23.54040031       8.49382745       1.15986221
Si      21.74055849       8.45786424       4.48893746
Si      21.94962667       7.05403984       0.20071276
Si      21.10665106       5.68438257       1.91497696
Si      19.18097256       9.62118403       0.98166493
Si      17.40830123       9.50615129       4.42759996
Si      18.36695347       8.23538012       2.69712750
Si      16.67206295       6.80480591       1.91681672
Si      20.13159326       6.98223485       3.61567171
Si      23.50013569       7.16166699       5.35694231
Si      20.76502621       9.78338733       6.16847585
Si      19.57866043       4.28471761      32.63226936
Si      19.02807145       2.79225483      34.36387516
Si      16.00971226       4.01468269      31.20236497
Si      14.49524005       3.78801022      34.05983792
Si      11.33690785       3.61425362      32.17707816
Si      23.10190922       4.34920375      34.26150341
Si      21.30984027       4.28687895      37.62535958
Si      22.26466386       2.94236591      35.94945512
Si      20.47155720       2.95009108      39.36826100
Si      23.23324396       0.28805539      38.55045360
Si      17.86803781       4.20356719      35.84355262
Si      16.48595422       4.05524114      39.19873421
Si      17.19283899       2.63834204      37.46213173
Si      15.47290548       1.32302384      36.54501907
Si      18.89300035       1.41907948      38.53597092
Si      22.85867534       4.44272855       2.87128284
Si      23.76268374       3.14067570       0.84581767
Si      22.04554030       2.96927771       4.51328823
Si      22.15352512       1.54455001       0.21935759
Si      21.38941493       0.23156988       2.01435621
Si      19.48859754       4.17699406       1.11666344
Si      21.16239250       4.26343250       6.26706849
3068
Lattice="40.0 0.0 0.0 0.0 40.0 0.0 0.0 0.0 40.0" Properties=species:S:1:pos:R:3 relative_density=0.96 cell_dim_angstroms="_JSON [40.0, 40.0, 40.0]" n_grains=16 grain_size=20.0 crystalline_fraction=1.0 grain_radius=19.536497026242902 pbc="T T T"
Si      22.78356413      36.74615817       9.10330087
Si      22.81537745      38.79768241       7.99945701
Si      20.90018375      39.22854067       6.71619387
Si      19.58229750       0.69431771      10.01053619
Si      20.89719626       1.55789505       6.34102336
Si      19.16197879       2.13579167       4.88019715
Si      19.70362840       3.09205239       9.37410360
Si      17.76953920       3.63994435       8.14868297
Si      19.79677505       5.95753364       5.91273832
Si      19.26071655       4.41651860       4.24279358
Si      18.08117348       6.05739018       7.67273852
Si      17.17250789       4.98785971       3.33650744
Si      15.92227591       6.44912434       6.75891444
Si      14.66655369       6.95342791      10.46584290
Si      16.04451699       8.79565926       6.15905350
Si      13.86365630       9.11039794       5.24619346
Si      11.63369333      10.04092030       8.91814640
Si      13.99483887      11.38098951       4.72333760
Si      12.13945754      12.32961022       3.53078519
Si      23.02442548      35.67165051       6.99260815
Si      20.96611910      35.64150696       5.88768557
Si      18.02488054      33.17558466       7.17927703
Si      18.00882330      34.48126109       2.41079376
Si      21.07412813      36.55776155      10.80856346
Si      19.19465697      39.01221120       8.31693963
Si      19.22362449      36.75752046       9.18149146
Si      17.23657732      39.69204673       7.18051662
Si      18.93298221      35.38853756       7.14813034
Si      16.90692652      35.93018733       5.89986680
Si      15.55161184      37.04062194       9.27297630
Si      21.00258977      37.79685957       4.73386492
Si      19.00747611       0.56001708       3.09246591
Si      18.82995468      38.28628579       3.77818161
Si      16.98128572       1.10519226       2.00677276
Si      18.39522861      36.76410547       1.95617355
Si      16.98218455      38.23971484       5.28886011
Si      14.97339407      38.83235281       4.15803545
Si      16.87656070       0.08101008      -0.15543877
Si      14.68634605       0.43956612      38.90306979
Si      17.82599592      40.24232065      11.54665826
Si      15.95995644       3.18236812       9.64987163
Si      15.73319820       0.86706875      10.58295844
Si      13.86474277       3.58637587       8.66764770
Si      15.45529634      39.36571638       8.69180927
Si      13.87206353       0.49560393      12.24028137
Si      13.42731652      39.87023210       7.57072230
Si      11.81243764       0.96276941      11.11111543
Si      17.38165213       1.98023487       6.42449723
Si      15.43299511       4.93902951       4.91214356
Si      15.35994633       2.57958432       5.37951033
Si      13.46038512       5.56746794       3.77183024
Si      15.11472109       1.12675013       3.49193886
Si      13.54792430       2.13879389       6.83030847
Si      13.18014408       1.86015851       2.33146587
Si      11.54688201       2.77696430       5.76899953
Si      17.39306488       3.36694970       1.64323273
Si      14.59487367       5.51323546       0.32598555
Si      14.83468326       2.41881783      37.55908585
Si      13.20775341       4.25387725       1.83090745
Si      12.82087796       3.69950644      37.45203713
Si      11.21890214       4.84503301       0.71176101
Si      11.16705413       6.75949788      35.11650043
Si      13.26310051       4.32457353      12.06305923
Si       9.98879544       7.34147872      10.32610598
Si      12.16286798       3.19778301      10.29197172
Si      10.08928646       3.74467519       9.18921793
Si       8.35798910       4.47622555      12.58730097
Si      14.04467075       5.95123750       8.29908891
Si      12.01355261       8.74475813       6.78097085
Si      12.00003020       6.44093388       7.19552671
Si      10.15838468       9.35368032       5.38431461
Si      11.68210127       5.11403024       5.24614400
Si      10.09334038       5.97136023       8.46387968
Si       9.69270012       5.73355491       4.10021168
Si       8.04979425       6.69747801       7.50942462
Si      13.65828612       7.86080765       3.16011029
Si      11.72253073      10.93204685       1.54563291
Si      11.76616831       8.49493592       1.88048513
Si       9.65024977      11.17631614       0.36194808
Si      11.68247126       7.16223741      -0.25803750
Si       9.91701588       8.01308027       3.38943228
Si       9.46674513       7.47251838      38.95360818
Si       7.83002354       8.49677137       2.35756238
Si       9.45932461       9.75366826      38.44118012
Si       7.55612914      10.41781511      37.26711754
Si       8.40586425       6.78743298      11.94020522
Si       6.10142633       6.93689633      11.36242441
Si       9.44323406       9.55544102       9.80827228
Si       7.99353343      10.74396754       8.39217759
Si       8.21363481       9.01239125       6.76480231
Si       4.93425230       8.96705643      11.20969503
Si       6.15965804       9.48374191       5.73264727
Si       4.28460644      10.13370300       9.28165479
Si      10.44788916      11.72678505       5.12147894
Si       8.32029635      12.02978167       3.86730229
Si       7.84650911      10.79013511       1.82567457
Si       6.35233875      11.78219948       5.21283741
Si       5.99909481      11.68671748       0.55920735
Si       4.43021557      12.42029597       3.99642033
Si       9.28927440      13.11630057      39.10827374
Si      18.10772207      32.04289888       5.01067761
Si      15.76428970      32.05931144       4.30705359
Si      15.18485288      35.50584716       7.45670897
Si      13.13897848      36.08739381       6.28555894
Si      12.33629608      32.25110504       4.96601194
Si      11.16370771      33.69974733       8.20535421
Si      16.29858718      34.46288449       4.00488521
Si      14.87477299      37.54506777       2.16530427
Si      14.50574103      35.24245964       2.66149527
Si      12.81576710      38.17211679       1.18495978
Si      14.16648982      34.16375908       0.44918280
Si      12.83503599      34.66711483       4.30671841
Si      11.94907252      34.58773655      39.80474107
Si      10.82043554      35.51370225       3.37704265
Si      14.27828568      39.41188736      36.80776184
Si      12.21974209       0.22942238      35.90491018
Si      12.46726405      36.85952854      39.26505210
Si      10.59703619      37.51392612      38.01584416
Si      13.71506616      36.85009348      10.66883824
Si      11.60748143      39.64833661       9.11082892
Si      11.68020509      37.36753939       9.67995997
Si       9.58894399       0.12600076       7.98135871
Si      11.26887658      35.99439456       7.78828148
Si      10.56502562      36.64820996      11.58074475
Si       9.21190926      36.56714477       6.78439199
Si       7.31429174      37.54126516      10.14374646
Si      13.17922407      38.43251086       5.67122446
Si      11.32531709       1.44085862       3.82027724
Si      11.18523886      39.13891483       4.54921113
Si       9.28310240       2.05931222       2.75860465
Si      10.92837375      37.78436499       2.61151388
Si       9.30495665      38.81832604       6.01564202
Si       8.95057669      38.43228592       1.45550347
Si       7.29733404      39.42513665       4.88269273
Si      12.85362740       0.43287121       0.45646196
Si      10.97124078       3.33488851      38.89782424
Si      10.81325736       1.04790128      39.40107289
Si       9.02498036       4.02674634      37.71688735
Si      10.45117586      39.80812963      37.41497658
Si       8.96837074       0.72017438       0.82859126
Si       8.38317587       0.42702667      36.40489234
Si       6.96129399       1.36566391      39.69287514
Si      12.50244267       2.57658974      35.32741701
Si      10.30663084       2.49383650      34.33138420
Si       8.70706678       6.60505919      33.28442299
Si       8.98409596       1.46656715      32.61197580
Si       8.54983496       2.70933116      35.84198207
Si       6.61107723       3.37352142      34.67322333
Si       9.96392154       0.94020474      12.79207195
Si       8.19875102       3.37160058      10.52712555
Si       7.95453811       1.25496829      11.45116358
Si       6.13853017       3.93841764       9.50398240
Si       7.81204578      39.78205501       9.55511736
Si       5.82315935       0.26726630       8.30579694
Si       9.75162332       2.39177818       7.27467906
Si       7.83274564       5.35416058       5.53675018
Si       7.75705811       3.03806324       6.15604596
Si       5.86313721       5.92148703       4.37240396
Si       7.43034569       1.71031862       4.20681600
Si       5.93250181       2.55479224       7.59895903
Si       5.40344644       2.27554827       3.07527898
Si       4.02624064       3.22236336       6.41573748
Si       9.36622314       4.38323908       2.15389672
Si       7.55605997       7.20235079       0.38947864
Si       7.32058804       4.93127161       1.03476444
Si       5.52829142       7.91231165      39.31610329
Si       7.06772713       3.64668657      39.05139368
Si       5.43686481       4.59626357       2.44712707
Si       5.03520099       4.24743937      37.89589103
Si       3.42045598       5.31595745       1.27758447
Si       9.34622288       6.25640553      36.93543890
Si       7.36992470       9.15627968      35.27404768
Si       7.19970078       6.97740314      36.15871386
Si       5.28762519      10.37280139      34.89529076
Si       6.81482189       5.69966375      34.26902844
Si       5.28474005       6.52677424      37.42656859
Si       5.04540776       6.30496706      32.86064299
Si       3.22058008       6.80137657      36.31879804
Si       2.59290673       8.54372481      11.41788073
Si       4.14755155       3.77491895      10.87267466
Si       2.25613300       4.44053231       9.63058686
Si       6.16337410       6.22576331       9.01753436
Si       4.30445453       9.06404660       7.17540620
Si       4.16178150       6.82760152       7.88989063
Si       2.58812353      10.04847895       5.88761574
Si       4.10111170       5.53799023       5.87124696
Si       2.31344872       6.87027552       9.43848489
Si       2.24622088       6.30418754       4.63592458
Si       0.50731274       7.38742586       7.98817937
Si       5.92219093       8.20250435       3.74618716
Si       4.13299127      11.26074405       1.92507419
Si       3.98751202       8.92566160       2.54311207
Si       3.58852153       7.62104807       0.63269808
Si       2.07366955       8.69111604       3.97436065
Si       5.54906070      10.29763633      38.64158658
Si       3.16896300      10.20994140      37.75811686
Si       0.49770888       9.41179431       6.77281857
Si       3.07789307      12.46516044       6.12511017
Si      10.28561952      34.27111464       1.45135270
Si       8.41226811      34.90168888       0.19056929
Si       9.04074457      35.91960349      34.84927609
Si       7.81261532      33.51817986      38.38244267
Si       6.28361132      34.45329492      36.79144674
Si       7.29756453      36.21753855       8.18632681
Si       7.17931998      33.89875879       8.72151932
Si       5.38315978      36.57085608       6.89784185
Si       9.19013624      35.01227035       5.00946463
Si       7.14104366      38.07389691       2.92906390
Si       7.24497707      35.79696223       3.71168122
Si       5.18282215      38.64961152       1.64576778
Si       6.88709357      34.38435892       1.89524966
Si       5.29753849      35.29391698       4.88126231
Si       4.76345103      34.98143904       0.81391705
Si       3.30878836      35.97864519       3.73625068
Si       8.72526053      37.15529102      39.46231914
Si       6.48736011       0.07977312      37.75534722
Si       6.79785457      37.73479240      38.21073013
Si       4.42299658       0.80232307      36.53515009
Si       6.94727698      36.68932183      36.00992602
Si       4.96109094      37.19172058      39.64496275
Si       4.83531090      37.14404390      34.99274746
Si       3.16315524      38.09733542      38.33693599
Si       7.65205569      38.91607694      34.72588874
Si       6.75815696       2.37582262      32.51170719
Si       6.21195540      40.14974097      33.16738557
Si       4.49140681      39.43343496      34.59011659
Si       3.88020271       0.11442493       9.66457837
Si       1.92104591       0.47978785       8.34411724
Si       3.53357314      35.79580518       8.12873064
Si       5.45009627      38.91225478       6.34252598
Si       3.64444177       1.82261212       4.58978894
Si       3.42525593      39.50096364       5.20005333
Si       1.70675332       2.62655986       3.53589013
Si       3.37576734      38.27543007       3.13727316
Si       1.46759844      38.85912336       6.54096185
Si       1.57581468      38.99156188       1.73462062
Si      39.70710858      -0.64904792       4.97835685
Si       5.08950690       1.00904690       1.08184907
Si       3.08683136       4.12678517      39.25959712
Si       3.05988800       1.81751371      -0.05872148
Si       2.61941308       0.40371143      38.08519786
Si       1.44370165       1.35731502       1.57056327
Si       4.54542894       3.08091853      35.83914957
Si       2.91265648       6.16550781      33.96009719
Si       2.59475429       3.78989948      34.39018527
Si       2.18138446       2.82889257       7.76362963
Si       0.56395709       5.80119667       6.15877896
Si       0.28549515       3.47296270       6.53211065
Si       1.63959599       4.95316442       2.79987095
Si       2.56038418      34.94861229       1.74951857
Si       0.65559179      35.79740870       0.51740734
Si       4.42643713      34.73363250      38.28276714
Si       2.87423002      36.92810253      36.25552256
Si       2.30343551      34.88133001      37.30550170
Si       1.64906570      35.25294168       5.20786631
Si      39.57276694      38.38571354       2.78583799
Si      39.80670160      34.68361109       3.83965074
Si       1.23257120      37.90412901      -0.37184174
Si      11.36018625      36.92420163      23.08896420
Si      11.69906093      38.16736408      18.57030853
Si       8.66029125      36.37560949      20.30549905
Si      13.81663964      38.15090437      12.64025096
Si      10.03880703      37.67888306      15.14278044
Si       5.90176945      34.91976958      22.19393511
Si       6.76174459      35.42629317      16.88717129
Si       8.32149913      36.59602902      12.01252005
Si      15.60501217      36.93672233      18.73160981
Si      15.68889993      34.05092562      21.33610217
Si      15.82151214      37.90116577      13.79351591
Si      17.74313213      36.78368362      17.63595333
Si      19.71998434      36.71253869      13.24832166
Si      17.13333217      35.19460259      15.96080745
Si      17.76735188      37.97572019      12.44526814
Si      17.41499389      36.43289751      10.65407597
Si       9.38175470      32.45411711      28.41345381
Si       8.87549260      29.14633265      30.83666088
Si       9.81566803      35.35206038      24.00219384
Si      11.14409569      34.53191348      25.77507442
Si       9.49768788      33.45376383      22.61563947
Si      13.49749452      34.45221643      24.59875193
Si      10.92449555      32.29097808      26.59128453
Si      13.04941895      32.33172523      23.16844440
Si      10.45940064      30.50371673      25.10533288
Si      13.34319821      36.70487955      21.91673491
Si      10.72573352      36.06878123      19.14701605
Si      12.40675399      35.12832434      20.48187427
Si      10.38384417      34.42048252      17.42125732
Si      14.53221362      34.90407800      19.49436807
Si      11.56103951      33.11246339      21.50847986
Si      14.20579566      33.24251044      17.87936427
Si      11.37793178      31.45769032      19.82058432
Si      13.77005755      37.54191571      17.33076202
Si      11.96801824      36.98366774      13.81875916
Si      13.29298536      35.99046780      15.58013883
Si      11.66573316      34.87235285      12.55651586
Si      15.38978720      35.73558763      14.51403820
Si      12.49021758      33.94929195      16.41572757
Si      15.26002785      34.12564181      12.76822126
Si      12.29933933      32.29404465      14.74275810
Si      13.55098997      34.60465946      11.22459203
Si      13.24978764      33.16694847       9.29800922
Si       5.49995965      32.82677432      30.87868510
Si       3.72784675      30.99993582      28.46648045
Si       6.00959291      30.98586860      29.47193100
Si       3.43575634      30.14276733      26.09125897
Si       8.24030538      30.37958932      28.83333188
Si       7.53195557      28.81097627      27.13464707
Si       7.11128769      33.29444403      26.74050320
Si       5.34572320      32.54344105      23.04067161
Si       6.80777587      31.85136171      24.82329049
Si       5.02803509      30.66538073      21.54562668
Si       8.81628574      31.38002954      23.61941348
Si       5.88483453      29.80894412      25.66629084
Si       8.59332046      29.73559444      21.88985657
Si       5.85422577      28.04251520      24.10165045
Si       7.92687020      34.24503438      21.07287694
Si       6.04351454      33.30194737      17.77047936
Si       7.65264556      32.56491687      19.36563451
Si       5.70662768      31.64066825      15.84540287
Si       9.73516784      32.25750337      18.26526187
Si       6.99729600      30.46005883      20.27342935
Si       9.49365897      30.57494052      16.55049943
Si       6.67702986      28.84949484      18.52312175
Si       8.89685892      35.34931363      15.76812223
Si       7.32345543      34.50128607      12.43643442
Si       8.54948513      33.48649920      14.20588156
Si       6.54060763      33.00421134      10.83508346
Si      10.61651440      32.91920836      13.21736779
Si       7.87597572      31.22249702      14.86111385
Si      10.48782588      31.19362373      11.58381475
Si       7.93567539      29.22632436      13.29316177
Si       9.29900900      33.38328077       9.56360719
Si       2.53152751      28.81550755      28.15636982
Si       2.80629709      26.13953156      25.71018219
Si       4.29734420      28.60019338      22.48118257
Si       4.22886005      26.65399155      21.07791138
Si       5.12231154      29.62820438      16.88614193
Si       4.39404428      28.06355966      15.12317612
Si       6.64277512      29.78864466      11.39738837
Si      16.29789829      31.63896168      23.93768555
Si      17.85658850      33.69987844      20.53191134
Si      17.81751718      32.30407961      18.54654302
Si      18.93130321      29.89990020      20.83013045
Si      19.19124170      34.90927255      14.82857238
Si      20.60837137      34.06917656      16.58754197
Si      18.87532086      33.27019439      13.22211869
Si      19.99546574      31.91555163      17.61944897
Si      22.94606162      32.04254171      13.74514309
Si      19.84623642      30.36941653      15.75048366
Si      22.18730018      34.61954482      11.46352517
Si      21.04735849      32.85708201      12.46202486
Si      23.60737725      31.78868023       7.40643245
Si      20.82429465      31.68164017      10.46108582
Si      11.32950199      27.88874230      27.76672631
Si      14.50695368      26.21562319      28.52559646
Si      12.63470875      30.18625815      24.21376473
Si      14.28598489      29.28588642      25.85045772
Si      12.39650677      28.60578052      22.42797967
Si      16.46655493      29.40713507      24.75522973
Si      13.33613058      27.24542343      26.68219987
Si      16.35689160      27.62150629      23.11179957
Si      12.99898679      25.79923405      24.89648930
Si      15.03269983      31.92504739      22.00038573
Si      13.51567638      31.14597150      18.80563531
Si      15.09390315      30.27078777      20.34734675
Si      13.35429940      29.48213667      17.13416215
Si      17.18923126      30.10945951      19.23480845
Si      14.55859911      28.23371042      21.43338648
Si      17.11003863      28.34099680      17.52696834
Si      14.24655731      26.62218561      19.71523876
Si      16.33365386      33.08686964      16.86998331
Si      14.42900614      32.12951136      13.71436850
Si      16.05121599      31.34813160      15.25817308
Si      14.05325490      30.66178578      11.93616764
Si      18.16773209      31.24074356      14.24876232
Si      15.46214934      29.12821014      15.99363071
Si      17.87901932      29.80251776      12.43886045
Si      15.43420704      27.72493754      13.99337550
Si      17.33861442      34.17261979      11.61814551
Si      15.61516838      33.09658784       8.15843457
Si      16.94484387      32.49973652      10.01885250
Si      18.94396777      31.77571855       8.93649347
Si      16.17467161      30.50343428      11.00488996
Si       6.96170462      26.50118619      27.71136302
Si       6.64144994      24.66991421      26.14801150
Si      10.81092346      25.69971314      28.51459978
Si      10.27389672      24.04213063      26.80571389
Si       9.65689984      28.46641143      26.09653557
Si       7.81589969      27.64908973      22.77194374
Si       9.43072195      26.81812431      24.32151416
Si       7.59579896      26.01921297      20.97889961
Si      11.51974385      26.51650631      23.23106739
Si       8.72891173      24.65957651      25.09464116
Si      11.26966166      24.81529224      21.54375408
Si       8.31005895      22.97687316      23.50542533
Si      10.73281900      29.42714617      20.89117260
Si       8.87144563      28.43763487      17.52446088
Si      10.47811796      27.81424479      19.19732129
Si       8.03944377      26.04914871      16.72427487
Si      12.62451834      27.51456587      18.21496147
Si       9.71434329      25.69653879      19.97921653
Si      11.90141252      26.04457613      16.57161358
Si       9.39553025      24.41975126      18.03961497
Si      11.67424928      30.16586591      15.62136930
Si      10.14146679      28.93134449      12.28328187
Si      11.62558657      28.42359313      13.99471557
Si      13.68380396      28.49419393      12.64359595
Si      10.00096079      27.15373072      15.73364548
Si      12.48245256      31.10796025      10.18844538
Si       5.06208594      25.93215524      24.81507142
Si       4.79169626      24.85981666      22.69883037
Si       6.83143106      23.96765998      21.90395331
Si       6.12352243      22.81503990      19.89493461
Si       5.96710412      26.73774612      19.34701690
Si       5.11445683      25.35723814      17.47762128
Si       7.02915081      27.27498143      14.30796621
Si      21.70057709      29.99133410      14.30432031
Si      21.08794264      28.10161831      12.97879470
Si      22.81167948      30.92237189       9.46878140
Si      13.71015786      23.99834870      29.23850894
Si      13.39235306      22.44998477      27.45345546
Si      15.15365291      25.59856114      24.04685694
Si      16.53812557      24.52024807      25.71884162
Si      14.79998620      23.96167005      22.35657918
Si      18.45560962      27.62581422      21.35282497
Si      16.22199766      26.24271593      18.41019188
Si      17.74771333      25.61974609      20.11593901
Si      15.75327098      24.02946609      17.43185247
Si      16.95845877      23.85647082      21.52204661
Si      16.57511394      21.84686718      20.27562862
Si      19.27629755      28.16381696      16.44946045
Si      19.26702719      27.08740810      14.33128967
Si      19.97438654      29.68212522      11.41973738
Si      12.58428618      18.70149878      26.80280298
Si      12.37912031      23.69857603      25.70533089
Si      10.46525936      22.74219551      22.53563760
Si      12.09488340      21.96039149      24.11320463
Si      10.31568850      20.91108339      21.12384130
Si      14.28680537      21.75108719      23.14404794
Si      11.32110932      20.44857977      25.81245237
Si      13.40826204      24.53633109      20.53112007
Si      13.57351375      23.28304758      18.46810703
Si       7.20561635      21.13458948      24.70336639
Si      33.47393942       6.76759342      15.47183502
Si      36.99468545       4.50851432      12.56515778
Si       2.88336939       9.32215137      15.60404076
Si      33.55541112       7.08568729      19.37945625
Si      35.93177602       8.69211430      21.51262398
Si      33.02243734       6.50902252      22.83575869
Si      35.81435553       7.25754229      15.65016915
Si      36.39419791       8.55613371      17.62263501
Si      36.86945987       5.12656256      15.89921734
Si      38.61503447       9.63481754      17.41598594
Si      35.85267659       7.34592747      19.57848503
Si      39.69612188       7.43592790      17.66239160
Si      36.97837055       5.26553570      19.68303600
Si      38.78768124       8.89664777      12.99901115
Si      38.91519119       5.88683754      12.31386561
Si      39.87466916       7.06850239      14.06248519
Si       0.09021331       3.83875438      12.41647255
Si       2.01514587       8.01612708      13.79840362
Si      39.13586297       5.90472464      15.94091891
Si       3.09231802       5.85090236      14.00246755
Si       0.36155357       3.90905513      16.21277186
Si       2.46717142       4.25258789      12.44173998
Si       3.50893144       1.61391468      11.50921521
Si      32.85914679       5.24466278      20.80670675
Si      34.01081242       3.17930216      21.04990995
Si      33.01601691       5.55341907      17.54576371
Si      33.97100490       3.40849828      17.93468724
Si      36.30559419       3.87671342      17.89750472
Si      37.29107983       1.68491822      18.24153812
Si      -0.41658693       2.59188784      14.43172381
Si       0.88842210       0.65569648      14.05053888
Si       0.22492018       3.30715221      10.13592688
Si      38.29841498      11.08851340      22.97410348
Si      38.55896437      10.91419295      27.12348174
Si       2.24186354       9.11953459      19.61865133
Si       0.64809835      10.97661701      22.54172976
Si       4.64323693      11.16155487      21.58862029
Si       2.15784836       9.30655100      23.36984412
Si       5.26722084       9.52253753      15.73394877
Si       4.82534059      11.05483873      17.53233253
Si       6.19146228       7.35406089      15.50795165
Si       4.45831960       9.82176260      19.55332831
Si       5.91531369       7.91458172      19.52054034
Si       8.34257897       8.28689971      15.51119553
Si       9.82207023       6.76478934      16.43516696
Si      35.26899585       7.32340186      23.32200218
Si      35.48804022       9.00006017      24.99175271
Si      36.62715229       5.42744220      23.46529152
Si      37.80747147       9.74041698      25.11936244
Si      34.98884116       7.78600753      26.90719924
Si      39.21699381       7.73928615      25.26211360
Si      36.42093156       5.87849689      27.13652308
Si      38.14416953       9.38980832      21.30390709
Si      39.19750617       6.05297093      19.62519953
Si      39.46791585       7.38947778      21.52657814
Si       0.31123133       3.95484323      19.87292353
Si       1.77594343       7.85680382      21.54990602
Si      38.88273348       6.18509227      23.49200405
Si       3.10180905       5.91687986      21.64612795
Si       0.27873928       4.25699034      23.73482596
Si       2.01754916       7.98423235      17.55644799
Si       2.69130431       4.47977598      15.92620453
Si       3.18731757       5.86875690      17.78662791
Si       3.98656159       2.45578879      15.85709143
Si       5.53478268       6.41272258      17.63917930
Si       2.62520381       4.56463659      19.75743246
Si       6.82335908       4.37907422      17.78556286
Si       3.89203348       2.54830857      19.80899006
Si       5.43048756       5.94381400      13.56861006
Si       5.93420265       1.28842245      12.75967796
Si       6.38845279       3.66051324      13.69622137
Si       8.94792133       3.53830228      14.66308041
Si       6.48656201       2.79905335      15.94112144
Si      11.37606557       2.12248627      14.47562582
Si       8.03365030       0.79631110      16.17277113
Si      32.41224870       5.44835519      25.13278769
Si      33.07226366       2.67011039      23.17554000
Si      33.85898054       3.59833381      25.22675773
Si      36.12878731       4.26206556      25.45517103
Si      32.92725824       2.52090489      27.17460217
Si      37.52537184       2.44022813      25.98435116
Si      34.70311381       1.00628896      28.14211740
Si      36.23505492       4.03903269      21.58009969
Si      37.27997389       0.70931793      20.44678885
Si      37.52109442       2.16728088      22.21258939
Si      39.81352054       2.79186287      21.95172187
Si      36.89299255       0.95928179      24.28971902
Si       1.05127248       0.73893035      21.98789913
Si      38.60447076      39.52460342      23.70527663
Si      39.66535433       2.53322875      18.05187591
Si       1.00663845       0.61259879      18.05735784
Si       3.33266321       1.26994247      17.83828355
Si       0.29826461      39.40386451      20.00094181
Si       4.73100892      39.35308690      17.76248582
Si       1.89802774      37.67970673      19.74011435
Si       3.15161431       1.31060714      13.87000159
Si       6.28205063      39.01780084      13.73436042
Si       8.62735795      39.38053825      14.24260007
Si       4.65932473      38.25184290      15.48582491
Si       0.79644961      11.48955334      26.46888302
Si       2.06471314       9.64162351      27.16772558
Si       4.48251643       9.93452185      23.50907078
Si       4.66876076      11.58757830      25.28706154
Si       5.79538587       7.96707773      23.52619996
Si       6.80739366      12.74467256      25.59604954
Si       4.34233075      10.30910863      27.27980879
Si       8.95855744       9.57860454      25.61968530
Si       5.71589767       8.31550132      27.38165320
Si       6.70357322      11.80021782      20.61555259
Si       8.21073376       8.66178165      19.67285623
Si       8.19369333      10.01897132      21.59746188
Si       9.33530065       6.56310493      19.86596717
Si       8.00969546       8.76804279      23.59701698
Si       9.29722135       6.80704549      23.47321824
Si      38.73858009       6.51710719      27.23726929
Si      39.07024726       7.67475448      29.33963765
Si       0.17694882       4.59461073      27.49802390
Si       1.42034945       8.52371230      29.21023852
Si       2.91804109       6.63172608      29.38705299
Si      -0.13688398       5.78921950      30.97621685
Si       1.57087823       8.18590999      25.36592842
Si       2.57627588       4.78523386      23.68119287
Si       2.96310684       6.24016918      25.50847196
Si       3.82157663       2.76726690      23.82388516
Si       5.25638269       6.85053856      25.53152566
Si       2.47915678       5.15082405      27.54483669
Si       6.61156847       4.89598874      25.58810262
Si       3.75048288       3.11744146      27.75564869
Si       5.36738695       6.65044755      21.54632947
Si       6.20444028       3.15077576      19.76205282
Si       6.52831547       4.56770336      21.67694020
Si       7.55791170       1.16344714      19.88477582
Si       8.75570827       5.26870726      21.75107795
Si       6.09685876       3.42307524      23.73500283
Si      10.25760944       3.42453425      21.86942675
Si       7.37079894       1.38269944      23.82979545
Si       9.09226626       5.12712727      17.99581163
Si      10.26603612       1.66185361      16.53715127
Si      10.73928539       3.39340843      18.19378185
Si      11.07507417      39.35251378      16.63260612
Si       9.90279532       1.97259442      19.94875850
Si      11.07230072      39.89463847      20.17744419
Si      13.44739684      -0.26588421      16.47552280
Si      36.99647195       1.50839236      28.14430795
Si      37.50733248       3.21236921      29.78443536
Si      38.32914814      39.50121586      28.36821313
Si      39.77845544       3.71188607      29.63709365
Si       0.91382556       1.55296570      29.86837582
Si      37.72416429      39.03555131      32.60505728
Si      39.78649033       3.07520985      25.73962885
Si       0.84471214      39.69108832      24.16137738
Si       1.10626778       1.12161722      26.00052386
Si       1.72483868      37.45540113      24.39359177
Si       3.39228409       1.62385542      25.89878677
Si       0.61336192       0.01720814      28.06806820
Si       4.61837567      39.54262593      25.95020816
Si       1.90829131      37.97517495      28.25982442
Si       3.35400033       1.40507455      21.88093791
Si       4.14171006      38.24678509      19.90436195
Si       4.61589163      39.39041414      21.99288954
Si       5.32930489      36.23128264      20.08566776
Si       6.94469845      -0.00865898      21.90464776
Si       4.13796191      38.04675245      24.05084521
Si       8.29725771      38.02258980      22.09875504
Si       5.70096508      36.14564478      24.25064073
Si       7.08529824      39.54673311      18.09246471
Si       7.01744046      37.01710116      18.70377588
Si      37.70805453      38.13918389      30.26695116
Si      39.14389476      36.23376059      29.85930720
Si       1.50494332      36.36413907      26.50288160
Si       5.50180329       8.11089391      31.35639067
Si       7.99456988       8.88226036      27.74452509
Si       9.19783772       6.77270419      27.83973024
Si       2.20919480       5.73366970      31.47117080
Si       3.18641325       3.55910337      31.85899947
Si       5.25192173       7.02602183      29.31443017
Si       6.04670548       3.66599020      27.55480007
Si       6.38648903       4.92389758      29.52254504
Si       7.44039281       1.74700513      27.59957764
Si       8.79101293       5.11798180      29.52107671
Si       5.44615165       4.22799969      31.62329319
Si      10.30940243       3.32120471      29.17729899
Si       8.90709213       5.70529731      25.59299832
Si       9.55318337       2.26005088      23.76704692
Si      10.36828070       3.87695058      25.27790579
Si      10.97234541       0.41192617      23.89554449
Si       9.78325975       2.41241990      27.11308288
Si      13.27002499       0.61111252      20.33512514
Si       0.54088528       0.40423982      31.86169680
Si       1.71108197      38.36656163      32.22875022
Si       3.19008056       2.08464136      29.90230912
Si       4.18294196      38.53311621      28.10153881
Si       4.55159555       0.09768780      29.95554385
Si       5.35802216      36.40486671      28.18573620
Si       6.76565570       0.99154117      29.83581198
Si       4.06574973      38.92004826      32.05834828
Si       7.93402952      38.96041599      29.76696320
Si       4.60387039      36.69921190      32.69642718
Si       6.92483848       0.17525574      25.87015774
Si       7.96828478      36.90098214      24.19479807
Si       8.35940972      38.24154989      26.11928430
Si      10.58827122      39.05476177      25.77603881
Si       7.62986252      37.09813848      28.25406586
Si      10.44913080      38.88903908      22.20814926
Si       1.37766382      37.15966437      34.34503315
Si       1.49063228      34.71408468      34.08052716
Si       1.37340253      36.86249082      30.30784961
Si       2.41519139      34.69808144      30.20321555
Si       4.80343489      34.97980596      30.07723043
Si       1.72260528      33.44299534      32.06738163
Si       5.27564618      34.89476834      26.30674193
Si       6.11989517      11.31735860      14.42409182
Si       8.64515423      10.08249094      11.95728336
Si       6.36468638      10.63679397      12.19213432
Si      10.25233008      11.74365952      12.19677682
Si       5.73233137      12.63608159      11.11812653
Si       9.60502026      13.40903109      10.63523534
Si       5.87972390      11.78126878       8.94410446
Si       5.62405686      13.17901367       7.04122065
Si      15.00985180      12.30212254       6.80720335
Si      13.40498171      14.08870624      10.36827737
Si      11.44346484      11.93006278       7.48768577
Si       9.42748435      12.64704251       8.35635734
Si      13.28936565      13.26240851       8.10896315
Si       9.08615868      14.41600772       6.79011576
Si      12.50597919      15.04290986       6.87395812
Si      16.54859993      14.93372815       7.70408385
Si      16.67661040      16.89629537       6.30495675
Si      20.39741653      17.40327007       7.03611650
Si       8.17635563      13.42376819      17.16713807
Si       9.90538029      16.27025962      19.58005853
Si       4.32190786      12.92484732      14.22746919
Si       6.53086697      15.43562662      18.48830796
Si       5.79649740      16.23432485      16.39045372
Si      11.85104346      13.99983798      14.73338684
Si      11.20441350      15.83079255      13.23355450
Si       9.48954917      15.44489662      17.40763642
Si       8.99313849      17.35613840      16.02238408
Si      12.86300305      18.23939798      15.61648020
Si       8.06737323      12.72166074      14.89908092
Si       7.48792372      14.17383237      11.33411814
Si       7.63381741      14.69270548      13.61197875
Si       6.90853813      15.93084086       9.90120550
Si       5.41555052      15.20248215      14.27259315
Si       8.98661892      16.63306651      13.77046416
Si       4.62647668      17.08962873      12.90882432
Si       8.21494356      18.49526672      12.38430220
Si       3.29454402      12.98233182      11.92260835
Si       3.21180969      14.67682505      10.04718362
Si       4.72581225      16.43055254      10.58796152
Si       4.25683489      18.20763996       9.13624689
Si      16.35843667      19.77095520      15.17651230
Si      14.71286625      16.11784175      10.38950290
Si      14.81719573      17.28514786      12.44108069
Si      14.20676325      18.04445260       9.07413601
Si      12.71103727      17.68603429      13.36406004
Si      16.44191553      18.94533814      12.93583146
Si      12.06205948      19.60322477      12.08792292
Si      15.98394720      20.78296786      11.56482384
Si      11.23880609      15.10215890      10.95575573
Si      10.52229158      16.08103136       7.54156536
Si      10.55690495      17.02962583       9.67554058
Si       8.31802221      17.80052575      10.07673315
Si      12.09084261      18.84739244       9.83281454
Si       7.47543305      19.63986543       8.68423926
Si      11.42155181      20.64354840       8.44431451
Si       7.02455972      15.03267856       7.68631385
Si      19.94474283      22.03497063      11.27846825
Si      18.25290797      18.51870883       6.83738833
Si      18.38068862      19.02614536       9.14897169
Si      17.36010239      20.08841458       5.27109673
Si      15.99237897      19.75285454       9.41117776
Si      19.72164688      21.00531392       9.16980614
Si      15.21438462      21.62750473       8.10054584
Si      18.73675713      22.73729858       7.84739313
Si      13.49088597      17.11893537       6.96003461
Si      11.44508902      19.89376812       6.18196866
Si      15.27894177      21.14700111       5.78939528
Si      23.66714082      21.55484306       8.66643696
Si      22.38376811      23.36600681       7.83247847
Si      21.78967859      19.28144307       6.14632612
Si      20.89712119      21.18693179       4.91517609
Si      18.75125522      21.96781068       5.56036073
Si      22.33670555      22.92707139       5.52863123
Si      17.70868978      23.59780648       4.21260510
Si      21.46065408      24.91960267       4.75712940
Si      11.77981799      18.78128651      21.87045173
Si       7.85541174      17.17960545      20.40389726
Si       7.14926110      19.06140653      19.06370266
Si       9.79759683      19.28518718      23.00886710
Si      14.37893190      20.91224051      18.25115128
Si      11.34203434      18.13272722      19.63577302
Si      10.67708934      19.04071181      16.08544199
Si      10.78026202      19.87083429      18.18863402
Si       9.85268862      20.98879729      14.98712305
Si       8.83988548      20.69897868      19.19487444
Si      12.31068629      21.11089777      19.50023634
Si       7.86903070      22.57443911      18.12915255
Si      11.57366762      23.83113797      17.21345078
Si       6.91307737      18.39763276      16.72931839
Si       5.94605245      19.25115844      13.03106365
Si       5.79114790      20.06062980      15.28300970
Si       5.38348905      21.29954980      11.67883080
Si       7.63902943      21.74427470      15.74782615
Si       7.30785745      23.52447560      14.17342033
Si       1.95313745      18.35697026       9.67944411
Si       3.53721225      22.87734242      12.00719494
Si       3.49003343      24.93970085      10.75199542
Si      17.76056808      21.62145520      15.67618232
Si      17.58244121      23.39072087      14.17694457
Si      14.18822176      20.18582653      16.00759989
Si      13.73835024      21.37234790      12.29741562
Si      13.71572660      22.05573019      14.59550624
Si      13.03539742      23.23016344      10.98056154
Si      11.44887145      22.80104869      15.07154930
Si      15.39736232      23.80110969      15.05194762
Si      10.74351781      24.62704133      13.65447977
Si      14.55764616      25.56257103      13.75187832
Si       9.80846990      20.29999664      12.70557992
Si       9.20388698      21.27238597       9.08136842
Si       9.18807628      22.12454457      11.27842287
Si       8.50972603      23.12788887       7.86495759
Si       7.00958251      23.11425882      11.75386541
Si      10.79537857      23.89164116      11.41379830
Si       6.84638883      24.42063475       8.95973218
Si      10.20813425      25.67128151       9.91047141
Si       5.35306541      20.36347627       9.49776901
Si      21.33023440      23.99413049      11.38758819
Si      21.44958248      24.57562989      13.65527940
Si      20.25835483      25.71635262      10.23020651
Si      19.46927366      24.78230970      14.91195888
Si      17.50335826      27.54314436      12.87845150
Si      17.61299742      22.57426267      11.91503931
Si      16.54119060      23.58182642       8.35289217
Si      16.69375316      24.34969954      10.60001152
Si      15.60422066      25.46510729       7.15663914
Si      14.54466622      25.06905910      11.40219873
Si      17.99831824      26.32392006      10.81756815
Si      13.78991967      27.23618950      10.51663769
Si      17.49387691      27.80356475       9.00259214
Si      13.03600124      22.42595445       8.72778111
Si      12.43420006      24.42157041       7.53037544
Si      10.11520327      24.83585468       7.63639399
Si      13.65144911      26.50992817       8.09445325
Si      24.06943597      24.86634879       8.46667421
Si      23.40730363      26.83435177       7.22907092
Si      21.84831674      27.45823649      10.71429183
Si      21.54521560      28.95703976       8.88889125
Si      20.30437065      24.50634786       8.14505587
Si      19.11678881      25.49126514       4.16456340
Si      19.82638849      26.09769412       6.44876487
Si      17.54766130      26.79074526       6.89587716
Si      21.36154296      27.93649787       6.70896165
Si      17.34949267      28.87461397       5.86629732
Si      20.82033828      29.74384005       5.20647460
Si      23.44246878      26.29037986       4.91357030
Si       5.38382491      24.48716758      15.05631865
Si       4.96670335      26.25788097      13.47325663
Si      12.38028950      26.16911813      14.29581724
Si       8.64088000      25.51698567      14.45756994
Si       7.93483768      26.26667232      10.02891128
Si       5.80681573      25.77117028      11.10684933
Si       5.69688188      28.56228876       9.48352055
Si      15.43914898      28.95474325       9.42519627
Si      14.62592140      30.87316472       8.13635501
Si      11.34830018      27.67870190      10.46230370
Si      11.38336858      29.38993180       8.84015069
Si       8.44087384      31.31334659      10.48627253
Si      19.22655353      29.39223663       9.16616282
Si      18.93750416      30.44416286       6.59025804
Si      20.95970128       4.72584370      30.10774225
Si      26.35808081       2.98052242      28.37898298
Si      23.31687546       4.75079198      29.90349665
Si      24.07031028       5.42317216      27.73346827
Si      26.96097677       1.16060987      26.92740595
Si      27.46802588       1.90815544      24.71386929
Si      24.63817627       9.17200702      28.31321993
Si      24.17111598      12.70269934      28.81940776
Si      27.59486646       6.88735355      28.90269531
Si      30.23472832       7.58770258      27.22218597
Si      26.42019775       5.23682004      27.66914275
Si      27.00268558       9.17641251      28.54468325
Si      27.23750401       5.65408217      25.50543603
Si      27.81357241       9.38010459      26.35980281
Si      30.78236757       3.88593706      26.13900985
Si      29.80799150       2.25495007      24.63812414
Si      29.54365286       5.84008553      25.69549640
Si      30.76622716       2.78162146      22.57207209
Si      30.53695042       6.22680565      23.55031655
Si      30.19957794       9.91385741      26.26098974
Si      14.86124299       4.66480484      27.82816574
Si      14.40994861       8.55642955      27.79044244
Si      20.15235744       6.80439519      29.20782489
Si      17.81059382       6.49546656      29.33500702
Si      21.07206269       7.30022982      27.07031626
Si      17.19295081       4.96050680      27.68085986
Si      18.07953648       5.32225924      25.49546974
Si      17.77843823       9.10315234      26.51036012
Si      23.58997073       3.67379517      26.17532202
Si      21.24257051       3.41417818      25.99632463
Si      24.34203197       3.77954311      23.93411751
Si      20.01590352       2.08068927      24.42112225
Si      20.41584101       5.57482250      25.58648321
Si      21.30050246       1.99159105      22.41127203
Si      21.10412439       5.96680062      23.30991448
Si      27.05313728       0.32264653      23.02445045
Si      24.81355082      -0.15056053      22.29770902
Si      28.14246155       0.88642929      21.01333687
Si      23.68650033       1.99481961      22.47190605
Si      24.56154787      39.06939870      19.83845289
Si      24.63469312       2.74269281      20.36965922
Si      26.98195861      39.32713624      19.62987622
Si      27.74279604      39.64428298      17.27321493
Si      18.45913242      12.73818751      26.97695219
Si      17.07405109      16.85367923      27.69274056
Si      23.78160746      11.07349061      27.22918515
Si      21.45251341      11.08165752      27.52638115
Si      24.50296849      11.18957018      25.03667957
Si      20.19587372       9.36288009      26.36038536
Si      20.73106397      13.21284152      26.60754791
Si      20.94653514       9.78244930      24.09567813
Si      21.58324814      13.66182414      24.33507135
Si      23.42423158       7.54585531      27.06497134
Si      26.62187861       7.84835534      24.94741720
Si      24.23459979       7.69875100      24.82378694
Si      27.57205073       8.36244125      22.85486489
Si      23.49990169       5.95138143      23.35255137
Si      23.32986526       9.62190955      23.83130716
Si      24.33671976       6.54731458      21.20072046
Si      24.15476645      10.13471439      21.69421558
Si      26.66819580       3.98927732      23.98066020
Si      29.87373107       4.76762857      21.75033226
Si      27.53512556       4.59682453      21.86941754
Si      30.81811373       5.15548951      19.56108220
Si      27.04318544       2.88905912      20.34033118
Si      26.70540244       6.72307220      21.28853923
Si      27.90370351       3.55170142      18.21210217
Si      27.49495750       7.35320653      19.16537993
Si      30.28406460       3.50501501      17.78416093
Si      31.22457182       4.30642832      15.66990753
Si      23.82974672      13.37343110      24.85660498
Si      26.82444085      11.20414611      25.25445350
Si      26.50251428       9.84578390      21.35553178
Si      27.15553605      12.06990699      19.36487741
Si      29.96500061       8.41495517      22.92025191
Si      29.83075417       7.32768220      19.11866020
Si      30.53546608       8.25872094      17.06768693
Si      11.32509064       6.86298417      26.93478020
Si      15.51276876       2.87041523      24.24042195
Si      11.89818631       4.58754909      23.33455301
Si      18.17709133      -0.40851678      20.21565755
Si      14.80230305       1.36979352      22.41131306
Si      15.24612924       2.31583629      20.12534397
Si      21.55245637      37.45808025      18.43037027
Si      18.35134985      39.17049080      17.73606168
Si      14.02974015      10.79635383      26.80623197
Si      15.03285395      11.46976734      24.80191975
Si      11.21940494       8.90291758      25.83488078
Si      12.80194751       8.36070048      24.06775276
Si      13.66512667       6.45856091      26.94098565
Si      16.93834009       7.36961059      24.92060489
Si      14.50110116       6.81495826      24.78436507
Si      17.74503274       7.86454193      22.71539381
Si      14.26855793       4.85992648      23.41914854
Si      14.99047987       5.99578009      21.44978726
Si      17.89132536       3.31551406      24.19657212
Si      20.62255042       4.15581509      21.78422609
Si      18.30318455       3.79751634      21.89710024
Si      21.45146693       4.69584199      19.64651726
Si      17.60664066       2.02924166      20.38322206
Si      17.31467232       5.91177863      21.49244127
Si      18.25919874       2.85239462      18.22718563
Si      18.16877366       6.19130022      19.34974994
Si      20.76133486       0.04330624      21.05891393
Si      23.92795943       1.11116009      18.82081587
Si      21.54144855       0.92914427      18.89552464
Si      24.94115598       1.50703032      16.70394833
Si      20.70895328      39.34104055      17.38387789
Si      20.69279713       3.04647337      18.12076289
Si      21.89126335      39.50053198      15.34932238
Si      21.81235274       3.40468818      15.97689661
Si      23.85793275      37.15976826      18.33783728
Si      24.50452007      37.34808411      16.05110506
Si      23.42993253      35.94900220      14.39002064
Si      24.27309527      39.68777515      15.32601180
Si      25.05903131       0.54952124      13.19016586
Si      17.21480706      14.75071666      26.70612651
Si      17.30841640      11.20014802      25.52494776
Si      20.68949339      11.88818705      22.91618242
Si      18.40818151      11.20706973      23.40399118
Si      21.38378870      11.12640247      20.69192973
Si      15.74349080       8.85723746      21.68972093
Si      20.15280696       8.09943466      22.62957995
Si      23.29688913       8.48019319      20.32754380
Si      20.96365579       8.71524547      20.48166188
Si      24.40221105       9.00907923      18.33433825
Si      20.41127816       6.79424389      19.13622205
Si      21.13839380       7.27079538      16.94748889
Si      23.81716201       4.84533791      19.64944034
Si      27.00338859       5.66733286      17.58580707
Si      24.64555976       5.37127397      17.46571659
Si      28.14351398       6.02392535      15.53453537
Si      24.16589729       3.62768214      15.95767635
Si      23.51899711       7.39382609      16.87623597
Si      25.03879444       4.55808515      13.90160157
Si      27.29176131       1.86833652      16.72097656
Si      28.11880817       2.27863436      14.53607333
Si      27.38067827       0.34477908      13.44000613
Si      27.38724468       4.42809970      13.94586010
Si      23.62245795      12.40134245      21.21299060
Si      26.68658404       9.58989944      18.71114614
Si      27.34444918       9.76230956      16.34380614
Si      27.39380041       8.04967512      14.63699609
Si      30.50756770       6.53913130      15.32758096
Si      30.14848593       6.94884126      12.96957656
Si      14.64814291       0.66341203      18.42730294
Si      15.35313195       2.24315302      15.98799101
Si      11.54875301       6.85589909      22.69395911
Si      14.80238103       4.58884714      19.53323303
Si      16.78624285       4.73335517      18.09150370
Si      17.40481209       1.21381575      16.72833554
Si      21.08910722       1.57480498      14.58395106
Si      18.73681037       2.04297796      14.96364866
Si      21.81416495       2.21692773      12.43799581
Si      21.75678348      37.63140678      13.88225374
Si      24.86664964      38.68339597      11.75748202
Si      22.47011041      38.33836832      11.75417500
Si      21.08071676       5.57750171      15.33395450
Si      24.20253017       2.92435032      12.21807878
Si      35.53581654      25.43359341      28.49281256
Si      33.07600695      26.26854382      24.79862854
Si      33.94405200      23.58006650      27.61005219
Si      31.85411831      23.01544359      28.64515682
Si      33.73033394      20.10507203      32.00437325
Si      30.49006359      18.41895746      32.40808270
Si      31.49272295      27.19580083      21.85191521
Si      32.12949566      24.03866869      24.32148795
Si      30.04674432      24.32782213      25.63423618
Si      28.13181090      25.76710969      22.45910057
Si      30.91091839      20.79025985      28.39015393
Si      28.88928328      22.27652277      25.36363109
Si      28.82881773      20.80971906      29.55043801
Si      26.77416366      22.16883081      26.31609941
Si      27.96624087      18.70104940      29.07234897
Si      25.66891283      18.18692192      29.27631313
Si      28.14903897      27.94270338      15.56280443
Si      24.43579697      25.52808336      16.86842999
Si      28.94198878      28.42894805      19.11710331
Si      26.40464696      29.71335916      15.24848252
Si      26.58400335      28.00350723      19.55613354
Si      24.38194943      29.37796111      16.50861359
Si      27.41482324      23.46784111      22.05639656
Si      25.68192253      25.95202805      18.82109824
Si      25.27871498      23.56592620      23.07667534
Si      23.64033639      25.35275474      20.04148099
Si      26.08385763      19.92476484      25.82573480
Si      24.76193342      21.30985328      22.85871788
Si      23.99277510      19.85932796      26.95694275
Si      22.64179204      21.37258078      23.85218546
Si      22.99999098      17.71945503      26.71162843
Si      23.24413885      15.96080064      30.68971266
Si      20.99113539      17.27418863      27.98222232
Si      25.17909576      31.43391944      11.65327653
Si      23.12057622      27.35193480      16.06244196
Si      21.17676238      26.83822205      17.28843831
Si      22.69503778      23.41529471      19.00259526
Si      20.64904209      24.44770825      17.18500170
Si      20.24689429      22.47618742      20.90391957
Si      18.40208068      21.01052470      21.42911133
Si      19.69044124      19.13959287      24.28040961
Si      33.32364081      26.32970748      27.21813759
Si      34.00668245      28.55322944      27.74437762
Si      31.27333738      26.65060863      28.39694275
Si      34.58913444      29.46677244      29.86703926
Si      32.70334519      29.95929630      26.37708640
Si      32.70515761      29.14832032      31.25479531
Si      31.01756815      30.50115943      28.08712137
Si      32.42214986      23.37168653      30.91259339
Si      33.10770424      25.57093954      31.51521462
Si      30.61687669      22.71303793      32.45506395
Si      33.25240120      25.23726838      33.86671845
Si      31.56776634      27.11688859      30.70843789
Si      31.27294108      24.99499492      35.09630176
Si      29.62914241      26.52595223      31.90105636
Si      30.34687694      22.91248608      35.70125274
Si      28.07028272      22.61915263      36.24840770
Si      29.67329901      29.02058260      21.33301045
Si      27.73098650      29.79960653      22.50492103
Si      29.26843470      32.17253208      25.30800098
Si      31.78121095      28.15675760      24.13528714
Si      28.58596635      26.09908439      24.83257039
Si      29.63373689      28.22953996      25.29798942
Si      26.47205425      25.97981021      26.04714503
Si      29.87300618      28.42273979      27.66801899
Si      28.19045475      30.05263206      24.79917500
Si      27.78456511      28.17338153      28.83461057
Si      26.09552732      29.79763405      25.99816389
Si      30.20608712      24.58736949      28.00296620
Si      27.22648054      22.33150134      28.67277831
Si      28.20528889      24.38605723      29.24228254
Si      25.19810653      22.12040552      29.85980444
Si      28.82113992      24.33653881      31.58034403
Si      26.75613162      26.09909844      28.43395821
Si      26.71027898      24.19488323      32.73699108
Si      24.69837633      25.98384518      29.67707747
Si      29.35361395      20.72388638      31.86329464
Si      27.02913753      17.95648003      32.59949886
Si      27.17727907      20.39119961      32.84587270
Si      24.68110854      18.32721205      33.08058776
Si      27.52274744      20.58047188      35.15049574
Si      25.63054612      22.15307891      32.20200289
Si      25.85256109      19.46675986      36.56030174
Si      23.58455338      22.13693439      33.42334039
Si      22.82968357      33.76878862      15.56154412
Si      27.72241620      32.32945298      18.44343386
Si      24.91117446      29.64787283      18.88866409
Si      25.69469509      31.85180731      19.68122476
Si      22.80522983      29.15019333      19.98567907
Si      26.31387386      31.72224206      21.95619730
Si      24.26681170      31.15627336      22.99518229
Si      26.69402507      27.71073622      21.93345971
Si      23.83218419      25.37285592      22.43783665
Si      24.62671529      27.51975289      23.08013792
Si      21.80686564      25.20109588      23.65144225
Si      24.96150431      27.76527062      25.45786663
Si      23.10855449      29.21255743      22.34573834
Si      22.84613340      27.68370147      26.67037037
Si      21.10205399      29.09251847      23.63442201
Si      25.45672199      23.91485794      25.48000184
Si      22.64491721      21.62304093      26.20148161
Si      23.45643728      23.77676431      26.75878534
Si      20.63544871      21.11370673      27.34641349
Si      23.73726826      23.87474337      29.14783176
Si      21.98342319      25.50943446      26.05282240
Si      21.65028515      23.64093340      30.29374975
Si      19.95916159      25.09359142      27.27365614
Si      24.24156481      20.05315444      29.24786570
Si      21.38500979      17.52644665      30.45921812
Si      22.26301842      19.74683456      30.46770994
Si      23.06431865      20.03228035      32.60070138
Si      20.76584774      21.45427711      29.70228126
Si      20.96546106      19.77225603      33.44090319
Si      18.52227575      21.33688693      30.50977930
Si      22.75666974      31.07610310      16.10776889
Si      20.90441062      30.49843094      19.57173790
Si      21.99755139      27.00834111      19.48959930
Si      19.32251111      23.93402406      19.17329178
Si      20.21346036      26.06149303      20.73488730
Si      20.26623818      26.93142273      23.02478442
Si      18.28171694      26.53912957      24.16759579
Si      21.09744124      23.01051855      23.10966566
Si      18.03931650      20.76786398      23.75801426
Si      19.22732327      22.65158958      24.47348413
Si      15.75751392      20.41921668      24.57623883
Si      19.18477037      22.85318788      26.78512583
Si      17.77105679      24.29012822      23.70051644
Si      16.85066472      22.74463578      27.42090009
Si      19.75566072      18.96848677      26.68468918
Si      17.48729727      19.14058032      27.23319588
Si      17.30945001      19.54030978      29.54553291
Si      15.28693068      20.92360555      26.98528305
Si      31.87269626      31.01704410      37.51535948
Si      31.30834307      30.85529837      30.43308047
Si      31.77857933      33.18165677      30.88057903
Si      29.24002800      30.26774559      31.56569099
Si      32.64993873      33.01462743      33.22381345
Si      30.50981919      32.45209003      34.16433766
Si      33.27772864      29.15770266      33.55417606
Si      29.98623315      26.71092196      34.21083275
Si      31.28428974      28.64487037      34.72381110
Si      28.05835280      26.35304831      35.57627307
Si      31.63364217      28.66006674      37.08000901
Si      29.84921497      30.21971950      33.89042594
Si      28.62553336      29.10737350      37.89189926
Si      28.22959779      29.91821758      35.53248400
Si      31.65864149      26.20030565      37.18420123
Si      30.10605733      25.32588120      38.86040335
Si      28.20542409      26.72129990      37.92604548
Si      26.04455730      26.45315235      38.96689499
Si      28.15937669      34.30000158      24.86051480
Si      29.61770519      32.38820479      27.62816391
Si      26.33062462      30.00314199      28.35256989
Si      27.92064535      31.58912921      29.11523250
Si      24.41234834      29.72099152      29.82054972
Si      27.31082057      31.64566299      31.57335065
Si      28.19896384      28.19822654      31.15140337
Si      25.17370284      25.96213502      32.05615241
Si      26.27979935      28.01184586      32.52449272
Si      23.01236103      25.90324151      33.19919752
Si      26.84506185      28.17529581      34.80711292
Si      24.76609826      29.72738221      32.12666255
Si      24.77828157      28.32341670      35.84997109
Si      26.87940334      24.36312760      35.14776924
Si      23.85086223      22.09701303      35.81553535
Si      24.78339355      24.28367561      36.25826621
Si      21.72926152      22.35246606      36.92659608
Si      25.15044660      24.26165769      38.62943771
Si      23.58435901      26.24903267      35.47462492
Si      23.22656619      24.20038947      39.95754057
Si      22.05201978      22.25244719      39.25526764
Si      24.49906243      31.41527451      25.36371106
Si      21.16806229      29.48440046      26.08243173
Si      23.21286754      27.79757058      29.06547539
Si      20.23517726      25.49233749      29.62990814
Si      21.14171434      27.65647562      30.34090774
Si      17.90210736      25.41146782      30.15536987
Si      21.62111077      27.76023575      32.67645705
Si      21.98797258      23.78011825      32.67627516
Si      19.04454020      21.04950687      32.80411820
Si      19.86411461      23.19193095      33.66187807
Si      19.80239914      23.58447517      36.02598949
Si      18.61737588      25.13890005      33.61975126
Si      18.48470353      25.41169872      37.02116407
Si      17.99762040      26.22214242      26.51163811
Si      17.10505089      23.17377188      29.82903494
Si      30.16342827      29.13767811      -0.14126136
Si      26.37622118      27.17160679       1.29902481
Si      28.41818796      28.93296775       1.61866237
Si      21.87400314      26.09373405      39.27749325
Si       6.52113532      29.33476496      31.15540520
Si       5.21899628      26.04489523      29.25065824
Si       4.37889554      22.47525102      27.33788714
Si       8.58787817      25.20564368      28.77208786
Si       9.75366012      26.92882994      31.61099106
Si       8.73220913      23.72300435      30.55638492
Si      11.90985063      25.79548384      31.32627735
Si      12.69171625      24.70100327      33.34141582
Si       9.05897454      19.53075945      25.52959881
Si       6.68580845      22.17531377      26.94873025
Si       7.26440693      20.63813277      28.65965945
Si       5.90986876      17.25340545      26.74951188
Si      10.98171443      21.95124701      27.77304246
Si      14.88227524      19.58506344      29.02345625
Si      11.33579300      23.74991858      30.09219145
Si       9.46125122      20.09356981      27.98346679
Si      11.65142682      21.75043146      31.55692410
Si      10.25001665      18.62174504      29.66956187
Si      15.03026782      22.98286364      30.98285061
Si      14.87327959      23.77900449      33.26749184
Si      13.90931780      20.87755859      30.93601436
Si      15.16856125      22.42913893      35.44370008
Si      14.41009357      19.43789711      32.75855603
Si       8.28452269      17.19012249      26.03966648
Si       8.99253813      15.68959402      27.78106143
Si      12.60261284      18.34192332      29.13303139
Si      11.16271704      14.83622995      27.10763717
Si      38.74187303      31.34658773      33.22621286
Si       2.63993598      33.27921938      35.59568897
Si      39.82401031      26.71555718      28.06204370
Si      36.50035390      28.48103174      30.90496520
Si       2.55049065      29.95564482      30.38476480
Si       0.27721399      30.52597000      29.89825436
Si       3.16586706      28.05942570      31.74782437
Si      38.95129430      28.21897217      30.05116660
Si       0.66070229      30.02480484      34.21702273
Si      39.64442047      26.83457755      32.07854469
Si       3.48387916      31.85643998      31.76107004
Si       6.67738366      30.46822220      33.17101583
Si       4.46939470      30.99262555      33.69016166
Si       7.65253150      28.76748488      34.51465751
Si       5.05377042      32.72860867      35.33379448
Si       2.91365277      29.25411719      33.78254061
Si       3.78723277      27.91065602      35.51752115
Si       0.82963319      21.61386348      28.05504770
Si      37.43609713      23.94306064      28.22462300
Si      38.47232851      23.44801148      30.33734659
Si      37.25246051      20.18208351      29.50470083
Si       2.19634528      26.39070674      28.07809574
Si       4.32539948      23.90104879      29.28892537
Si       2.19086435      24.74787690      29.81644577
Si       4.97522413      22.59589556      31.15081318
Si       1.88536229      26.07892113      31.78057716
Si       0.73479847      22.84221846      30.02609020
Si       2.59546335      24.64361615      33.58603431
Si       1.34990149      21.30377544      31.77542758
Si       5.34045425      27.26438837      31.23537504
Si       8.40100011      25.12674331      32.46193232
Si       6.15546919      25.80789632      32.92787905
Si       9.22460854      23.84101166      34.36731009
Si       6.00238390      27.07550125      34.92223162
Si       4.81549551      23.87866830      33.14435837
Si       6.47934269      25.61238760      36.74622315
Si       5.52682054      22.51199888      34.94837292
Si       9.91843438      28.37719201      33.53144207
Si      11.97287461      25.70013743      35.28566289
Si       8.72566026      24.88011325      36.59049130
Si       2.22932829      17.04356246      27.29486179
Si      39.36445514      19.77091820      28.55016152
Si      40.03182988      18.03511216      30.05470508
Si      39.22443134      14.57362389      28.04140420
Si       2.94315356      20.65762967      27.65785430
Si       5.91511884      18.63154439      28.78174731
Si       3.72386601      19.33962954      29.43343795
Si       6.78812182      17.25145240      30.57560692
Si       3.61519118      20.64696454      31.38212352
Si       2.29478757      17.48333955      29.62743836
Si       4.34188076      19.21952275      33.11960700
Si       3.24755853      15.99043031      31.28316762
Si       7.19252728      21.89156442      30.67504688
Si      10.00657086      20.01169159      31.54816338
Si       7.88407714      20.55573475      32.48100688
Si      10.69172004      18.34552377      33.01683580
Si       7.82782712      21.89453229      34.52955388
Si       6.59462904      18.52338426      32.62513034
Si       8.83010452      20.34715604      36.07554924
Si       7.40191370      17.10398284      34.37099535
Si      11.32344240      22.84363734      33.71284577
Si      14.07019078      20.21292383      34.97774211
Si      12.05845484      21.39035633      35.45377508
Si      10.73430034      19.50650775      34.94447450
Si      11.62807383      18.44076529      36.81621196
Si       1.24511401      13.37604149      27.77004629
Si       2.14191758      12.44426200      29.72155452
Si       4.17240327      15.56346660      27.26069399
Si       7.27688564      13.93272490      27.63472011
Si       5.22705039      14.05078677      28.83088400
Si       8.26379651      12.42428489      29.07090871
Si       5.48999983      15.23780181      30.89466859
Si       4.35564941      11.78804457      29.18971109
Si       6.30895582      13.75146769      32.70625983
Si       5.37849408      10.44913970      30.94369134
Si       9.03671470      16.57132435      30.00751315
Si       9.96798119      15.00763358      31.69291883
Si       9.57700938      16.38437227      33.67014909
Si       8.64499264      13.04932152      32.51155309
Si      10.21886152      15.13444873      35.58730459
Si      12.87321520      17.73282884      33.09935285
Si       7.51586418      10.35961477      29.81546881
Si      38.02011746      33.41612644      34.63782366
Si      38.76053271      31.75009012      36.31675791
Si      34.46491569      31.23991137      33.58181369
Si      34.97796686      30.55510341      37.35320185
Si      35.31440952      26.25804169      30.80449486
Si      36.31096012      25.19764275      32.65246467
Si      34.08042984      27.29303434      34.84431101
Si      36.66825485      30.07179246      32.83309156
Si      39.49181558      27.97960177      34.21134401
Si      37.28528201      28.64627650      34.63443895
Si       0.21226920      26.51413104      35.90906530
Si      37.26836426      29.90858194      36.67068839
Si      36.23623214      26.55853286      34.57100425
Si      38.03373641      28.46254987      38.35989704
Si      36.72561768      25.08982873      36.36080420
Si       1.12970843      31.40121390      36.16724734
Si      -0.06551544      27.00070133      38.23256798
Si      37.02475506      21.78779049      31.17412742
Si      34.52643395      22.17974135      31.16706239
Si      37.75588614      20.28082831      32.77905110
Si      34.81400936      23.50064740      33.23813815
Si      35.35728332      22.03189576      34.97391461
Si      38.53703109      24.72747013      32.30731501
Si       1.30049598      22.62884024      33.73764274
Si      39.07771700      23.23702337      34.16812208
Si       1.99934414      21.31379817      35.55595217
Si      38.96845632      24.50725965      36.11009552
Si      37.68713139      21.36386941      34.83957075
Si      39.36342004      23.33257510      38.17469451
Si      38.50264268      19.80338074      36.51001744
Si       2.46381789      25.94283831      35.62704490
Si       5.02743601      23.76146254      36.94044517
Si       2.92993252      24.71784985      37.56631565
Si       1.61017059      22.76218929      37.47048254
Si       2.62833800      21.67084518      39.27480263
Si      38.94254951      15.86217300      30.08050840
Si      39.88613207      14.78707695      31.99448789
Si      36.71759739      17.30651046      34.14789931
Si      39.89228820      19.34644659      32.07759545
Si       2.97211258      17.26078371      33.28569821
Si       0.68509167      17.89450873      33.78883036
Si       3.88436828      15.90291067      35.00182735
Si       0.69299052      19.32726307      35.71458882
Si      39.06961223      16.01045495      34.08978666
Si       1.69268108      18.13574485      37.45199915
Si       0.40440346      14.90943211      35.90429396
Si       4.23438492      20.55699900      35.09122409
Si       7.40954650      18.46875786      36.35020239
Si       5.17755943      19.17069817      36.75945091
Si       8.13891986      17.41021541      38.41153091
Si       5.43387507      20.21982645      38.86955751
Si       3.83603376      17.26023641      36.94508261
Si       4.51013402      16.23771145      38.94724458
Si       2.03581000      13.98416097      31.53352750
Si       4.98487703      11.73592422      32.93107142
Si       2.68150537      12.47597619      33.23722101
Si       2.50784505      13.95768643      35.16990005
Si       2.87556675      12.58489705      37.12153223
Si       6.09719029      15.12925467      34.66774467
Si       8.34577946      12.61177804      36.92748303
Si       6.49990004      14.01110816      36.74852100
Si       6.70855475      15.47292738      38.63885043
Si       5.19811359      11.99536074      36.70385534
Si      10.18231486      16.66426259      37.39636092
Si      33.29091296      24.60351006      37.77522344
Si      34.01947831      28.41455040      37.03781817
Si      37.01376324      26.32538329      38.29882747
Si      35.09533323      27.48640158      38.98793443
Si      33.45271002      25.99019889      39.72521615
Si      35.22762132      23.33163623      36.96806840
Si      38.25272864      21.21456780      38.47587232
Si      35.83914159      21.70997593      38.62731969
Si      36.95213358      17.90916865      36.43234077
Si      40.68167813      16.08760928      37.97625360
Si       1.96634930      15.87705011      39.93255502
Si       1.70040912      19.50217040      39.32682149
Si       3.29839221      14.16689138      38.84369089
Si       3.07411444      13.51908698       1.05774305
Si      -0.59732074      35.26942589      35.18685379
Si      36.22063130      33.84236780      36.12353692
Si      35.02931672      35.45327161      32.90813290
Si      34.53705887      32.18677314      35.74808529
Si       1.26061737       8.04439643      31.74826783
Si      38.67667901       1.22613542      32.95591779
Si      40.29328306       3.59545461      35.60001782
Si      38.25920468       5.49637703      32.73966207
Si      38.63252949      37.63939689      34.68791021
Si      39.91519485      39.34769284      35.83332462
Si      36.63952069      37.67407982      36.07700752
Si       0.24757880      39.53669135      38.17378432
Si      39.02360484       1.50051074      35.25465268
Si      38.08949729      39.80594323      39.21884872
Si      36.76458379       1.52847756      36.16581446
Si      36.85865464      33.99728943      38.50442025
Si      38.05315613      35.90922045      39.27920890
Si      34.88708693      33.76699381      39.81493743
Si      38.86803613      36.15544349       2.16881206
Si      36.93828695      37.82877668      38.46758096
Si      36.48596854      36.15955033       2.76412823
Si      34.77834688      37.73635740      39.48167414
Si      35.34785145      34.13563742       2.20390422
Si      33.02241516      33.96908259       3.13380343
Si      36.75975066       7.31770680      30.03734145
Si      33.54575971       1.20104827      30.16716839
Si      37.50160650       3.22420290      32.17114705
Si      36.19595621       5.11654422      29.33481174
Si      35.34023677       3.29872177      33.10105658
Si      33.98078500       4.98524982      30.07866012
Si      34.31120772      37.61558136      32.33489838
Si      35.41855911      39.48794782      33.13777881
Si      32.16363740      37.69633841      33.22042250
Si      35.44430992      39.62193413      35.49437363
Si      34.17001515       1.38613477      32.43721883
Si      33.19188453      39.55242091      36.37097798
Si      31.94127327       1.65750127      33.34412499
Si      35.25872186      35.85019437      35.32547777
Si      32.63432935      33.66470056      35.68776777
Si      33.20602409      35.78524332      36.46440345
Si      30.59784554      32.81987599      36.64458374
Si      33.65068293      35.71105366      38.84903843
Si      31.90434201      37.61917259      35.61031732
Si      31.47774613      35.81767687      39.75303783
Si      29.58470043      37.59775018      36.35709753
Si      34.02840877      31.50066527      39.38912394
Si      31.50560956      31.64369675      39.80952464
Si      31.80733463      32.10919331       2.17164983
Si      30.65514625      33.73825372      38.95949621
Si      29.45040685      32.07393777       2.38538073
Si      28.57280329      33.94706035      40.02252383
Si      32.71680399       6.97442504      26.97269083
Si      32.60634799       3.19150978      29.43352199
Si      30.38968111       3.56983072      30.23359287
Si      32.32544674      39.48910430      28.98121450
Si      30.40205157      39.72141867      30.42326785
Si      30.99809261      39.63824985      32.68198929
Si      29.11321559       1.63280012      29.86195950
Si      28.89836057      40.14425563      33.56310406
Si       3.34132362       9.08950629      35.69077881
Si       1.52667477       5.80738518      37.81593334
Si       1.93241749       8.89163478      39.29799529
Si      39.20267474       1.89716429       2.19334182
Si      39.33868511       5.74513047       2.36299068
Si      37.67643378      38.50255136       5.88282350
Si      39.58045202       1.79003827       4.64653950
Si      37.30780890       1.97841709       5.47863037
Si       1.61320846       8.56479277      34.11100841
Si      38.87049987       5.61314769      35.03519302
Si      39.78960614       7.88622297      35.53091623
Si      36.59462807       5.43777571      36.03093217
Si      40.16916004       7.76146995      37.98212118
Si      37.90591171       7.60665758      38.97654103
Si      36.07076817       9.16020310      35.95348409
Si       0.46505115       3.72619210      38.00907020
Si      36.90487283       1.73689190      38.52091542
Si      38.14551259       3.75457405      39.07991271
Si      34.67139885       1.62000097      39.43672228
Si      38.15523981       3.85854426       1.48824646
Si      36.77297921       5.58008665      38.38903880
Si      35.94364090       3.74327981       2.43817635
Si      34.55075930       5.52030693      39.40721427
Si      38.14666036      39.87451187       1.61209324
Si      35.02527884      37.84678867       1.87715441
Si      36.00019630      39.87367606       2.54535012
Si      32.83326746      37.82794867       2.83171929
Si      36.18155747      40.01164547       4.90003682
Si      34.80011983       1.75065836       1.80197275
Si      34.06058891      39.83072190       5.93139765
Si      32.64132481       1.67186168       2.79833723
Si      36.80190407      36.33510957       5.18292583
Si      32.46025581      33.58804280       5.57084312
Si      34.56834842      36.20189757       5.94817180
Si      30.56615827      34.48885171       6.86653737
Si      33.00861018      37.85503633       5.20848536
Si      30.89449380      38.05466353       6.28442062
Si      36.79835913       7.47320864      32.35123343
Si      34.03846615       5.14314867      32.43178026
Si      34.60830228       7.31265770      33.11321291
Si      31.90395126       5.30930782      33.40741471
Si      35.01269740       7.16307586      35.41157185
Si      32.81828277       7.33360527      36.46219817
Si      35.50191016       3.39851063      35.46128730
Si      32.03021364       1.52795751      35.71895188
Si      33.29754371       3.40149747      36.42742258
Si      29.81832045       1.57398414      36.67698721
Si      33.41931385       3.51349986      38.78280270
Si      31.99519926       5.25995896      35.76405356
Si      31.23369610       3.46821097      39.75402045
Si      29.80751486       5.33001585      36.68663387
Si      33.49258644      39.62725589      38.74832043
Si      30.11407956      37.62544744      38.87910601
Si      31.28206156      39.59697776      39.65864582
Si      28.13704952      37.67035631      40.20515692
Si      31.56389344      39.70072605       2.04225041
Si      30.03528723       1.54141982      39.04331242
Si      29.43522477      39.80071176       3.07687966
Si      27.83833179       1.57367586       0.01952910
Si      31.75113390      35.82628878       2.18461179
Si      28.48760369      34.17204702       2.39755880
Si      29.66250658      35.96966611       3.26674523
Si      26.47249094      33.73021026       3.48597398
Si      29.67085422      36.21612717       5.60217228
Si      28.40802353      37.79514472       2.50460075
Si      27.56811492      36.11015587       6.59645519
Si      26.20853410      37.78890663       3.37060782
Si      26.71619035      33.95792679       5.92216880
Si      24.63072789      33.91053926       7.22324828
Si      33.13212833       7.01844478      29.33045278
Si      29.67692292       5.70426715      29.47847358
Si      31.15433849       7.19789426      30.56679447
Si      27.52113598       5.32666133      30.58728183
Si      31.34740773       7.53533188      32.82368825
Si      29.09310207       7.79253162      33.39802658
Si      30.55118661       3.53527203      32.61825056
Si      26.81434028       2.32441531      32.95122461
Si      28.38570749       3.94139677      33.62133031
Si      28.59405457       3.46398328      35.93748618
Si      27.54544564       6.13646160      32.78797006
Si      26.44114917       3.54305831      36.88138013
Si      28.48939951      39.72433812      35.98039460
Si      26.45435132      39.05256991      37.33541725
Si      26.76470392      39.49543961      39.62499496
Si      24.71085403       2.16062246      35.87685499
Si      24.58410266      39.25301421       0.59658112
Si      27.10628023      35.66381988      39.46337018
Si      25.30032705      35.69646003       2.73703471
Si       0.78894095      10.05422580       2.34145095
Si      38.59572889       9.96841557       1.51222384
Si      38.92568544       6.36177083       4.60989306
Si      -0.35096665       8.58321940       4.67918077
Si      36.92202815       5.80965434       5.70206071
Si      37.88940414      10.20072301       4.57717366
Si      38.28755522       7.55160359       8.73928966
Si      36.27975270       9.51959934       6.11222773
Si      37.44995747       1.66395446       7.78720973
Si      38.71369908       3.58226321       8.30197677
Si      35.31769925       1.97313078       8.65833520
Si      37.26509475       5.55190836       8.04537491
Si      35.07651427       5.60829879       8.97833877
Si      36.33207955       9.35305426      38.25683552
Si      34.21986283       9.29345872      39.30726426
Si      38.06704597       7.63442420       1.36108494
Si      34.67589842       5.61193502       1.78463299
Si      35.87512385       7.55757113       2.45295167
Si      32.47969586       5.53060247       2.74691273
Si      35.67280824       7.60787378       4.89876106
Si      33.59499753       7.45906000       5.97076610
Si      32.64858543       9.21056570       2.80460046
Si      36.03083826       3.82458339       4.81070538
Si      32.74859064       1.68446721       5.18647766
Si      33.85551651       3.67594475       5.79054004
Si      30.58984829       1.74849411       6.20850201
Si      33.91435278       3.76293128       8.15093353
Si      32.53835854       5.51769639       5.14626806
Si      31.88560405       3.52349471       9.36693759
Si      30.43524118       5.42570540       6.26060669
Si      34.20548171      39.93954726       8.32928908
Si      30.72873315      38.04985574       8.67857169
Si      32.11077990      39.91295747       9.46658935
Si      30.75694183       1.60813607       8.58726072
Si      28.70943826       1.09245237       9.67653559
Si      33.09214484       7.30783490      38.78486230
Si      29.97284791       5.34163947      39.06517326
Si      30.89812290       7.42770670      39.65310563
Si      27.79805238       5.31322392       0.01175094
Si      31.29373834       7.44247436       2.00573408
Si      29.24124226       7.28294005       3.17956404
Si      31.36756532       3.54235735       2.12502668
Si      28.10307839       1.63251359       2.36148179
Si      29.20054816       3.56140253       3.11998768
Si      25.90048379       1.75137395       3.21251252
Si      29.24049006       3.55350844       5.51606394
Si      27.98454473       5.44969726       2.39542744
Si      27.10945192       3.52085525       6.68432270
Si      25.87267621       5.56817210       3.45106684
Si      29.56799102      39.80901989       5.42571307
Si      26.31240987      37.81604291       5.67235999
Si      27.31640857      39.85551068       6.20347304
Si      24.09663425      37.69121739       6.38767872
Si      27.39242207      39.55568088       8.50641049
Si      26.03707969       1.73110189       5.57649069
Si      25.24771617      39.34935217       9.48847081
Si      23.79502801       1.16354816       6.17315916
Si      25.14473578      36.95496017       8.91839268
Si      28.83780629       7.32152742      35.70346136
Si      26.70024843       5.88746104      36.59830761
Si      27.26283008       7.13665742      38.61230778
Si      26.53762711       3.42343877      39.22790405
Si      24.76240997       3.75500767       2.38966773
Si      24.78681468      39.65776981       2.89267545
Si      23.23287518      39.18817334       4.73205647
Si      36.82366659       9.42230738       8.41566342
Si      34.57279333       9.45920171       9.49493543
Si      38.03465794       7.74972541      11.03174851
Si      35.09536381       5.36044038      11.33713233
Si      36.41921792       6.93238995      12.54194955
Si      33.21310964       5.55047622      12.80275772
Si      33.15644288       9.43146638      11.66221900
Si      32.61741635       9.40127611       5.15558168
Si      30.42956688       9.52171624       5.99208122
Si      33.73620816       7.48032252       8.38272886
Si      30.49490539       5.27714461       8.66331698
Si      31.56789784       7.24919273       9.35406049
Si      28.47486794       4.96626089       9.94756816
Si      32.06906385       7.30646892      11.68173701
Si      30.31984817       9.04099611       8.39097068
Si      27.90814589       9.03956087       8.91007012
Si      32.31248371       3.45053041      11.74356477
Si      30.24908459       3.10286805      13.66202833
Si      29.11637693       4.86729761      12.31294201
Si      28.02359415       9.20488979       3.11280114
Si      26.10582646       9.41861256       4.48016678
Si      29.32254744       7.38983888       5.56768072
Si      25.91568641       5.48544868       5.86942463
Si      27.19052787       7.34601173       6.60693890
Si      23.71789195       5.93317218       6.81960383
Si      27.23169959       6.71653638       8.92070807
Si      24.08259857       9.58254794       7.10583169
Si      27.31640171       3.02300881       9.13870561
Si      23.42838670       0.96718405       8.85836873
Si      25.00024790       2.68369388       9.83140256
Si      24.99795306       7.71409387       3.07665218
Si      27.36322236      30.01871305       5.45599773
Si      27.87505417      29.22503814       9.48003383
Si      25.53733969      30.46335816       7.37921413
Si      26.39552927      31.06268106       9.49491027
Si      27.47204683      33.11764002       9.10563969
Si      33.13554513      29.97764454       9.09747128
Si      28.79739285      29.59344128      11.64926859
Si      29.98326780      31.60769669      11.20632684
Si      32.77126656      29.82450155      12.83822807
Si      28.74972201      29.27979894       7.29308945
Si      32.08356686      31.23462958       5.68701086
Si      30.21398603      31.12272691       7.16898834
Si      28.70175632      33.01201221       7.09227975
Si      31.35181526      31.54810991       9.23209831
Si      32.68655325      33.60106623       9.26505130
Si      35.31278779      27.68153939      14.87519364
Si      37.04682935      28.97025260       9.07280811
Si      35.97400512      28.40368288      11.22846205
Si      38.82998300      30.59052384       9.41834471
Si      34.37657955      30.13863474      11.10270311
Si      37.19822139      27.67637754      13.26422436
Si      35.59661571      32.11818559      11.21289610
Si      38.22686328      30.06520390      13.23479847
Si      34.00740980      30.51939858       6.93804692
Si      37.45515467      32.36885664       5.45613883
Si      35.76408324      32.20496762       7.21937387
Si      38.36981432      34.56156229       5.75119910
Si      34.09008962      33.96037792       7.30584916
Si      37.05400268      32.26860143       9.29320309
Si      34.66955700      36.19815955       8.24107032
Si      38.19092332      34.35359928       9.56407977
Si       0.84246393      28.59809948      15.24461510
Si       2.00689043      28.86363309      11.38235931
Si       3.55772597      30.75165492      10.05223929
Si      39.94705537      30.37419166      11.56041107
Si       2.74981819      29.23898144      13.81284270
Si       0.93864997      32.57756486      11.80184339
Si       4.00819014      31.38546500      13.98647414
Si       1.21738463      32.70019375       7.87011964
Si      39.72242803      34.62749278       7.74887578
Si       2.38763716      32.80054303       9.93099544
Si       1.40908312      36.43761930       7.34579771
Si       3.68195565      34.79752062      10.23950363
Si       5.01425475      31.40986340      11.78873885
Si      26.71102947      33.06132415      12.76094543
Si      26.62660199      32.11192585      16.31129102
Si      25.62057365      34.58443611       9.23311285
Si      24.28777864      33.79532272      11.00690039
Si      27.58991568      37.21931586       8.75375863
Si      25.12996998      34.94939663      12.90803099
Si      26.36050441      36.92285798      12.60342777
Si      32.21068459      29.11969605      16.78615635
Si      29.46859205      30.74093697      18.61247335
Si      32.48298465      29.12218792      20.72037539
Si      29.48628001      28.97710171      13.95569215
Si      31.41748437      31.70902571      13.03387299
Si      29.86185914      31.20701851      14.69381569
Si      32.56218790      33.70407477      13.14023155
Si      28.12907913      32.85877932      14.64368029
Si      30.95731883      31.14925367      16.80143196
Si      29.27011374      34.96191292      14.85214512
Si      32.13013166      33.24697015      16.95453168
Si      28.46263624      33.42002084      11.16996868
Si      31.10129792      35.37958512       9.14543154
Si      29.69937317      35.40726204      11.11779261
Si      32.78401609      37.07880149       9.39617560
Si      28.14640595      37.20881871      11.05153015
Si      30.87104119      35.33354539      13.15378655
Si      28.75922315      39.52940079      11.63543787
Si      31.95574979      37.37577462      13.38018383
Si      34.94261489      27.41759782      23.07432720
Si      36.59329224      27.65429530      16.92328280
Si      35.36114781      27.62563127      18.98846608
Si      37.82601619      29.80896723      17.08518562
Si      33.70422231      29.30891804      18.72416475
Si      36.59049814      27.42790769      21.19290627
Si      34.86154288      31.43096803      18.98517877
Si      37.71453610      29.70602996      21.12235317
Si      33.82684038      29.53861520      14.94616000
Si      36.70327152      31.92314704      13.29012925
Si      35.11046616      31.61127583      15.08898540
Si      37.85238585      34.00903438      13.56711619
Si      33.70234046      33.54161245      15.18211293
Si      36.33112354      31.66679935      17.11504957
Si      34.80234419      35.64236695      15.40269436
Si      37.46577911      33.78249935      17.26851492
Si      33.98330702      33.82820011      11.25674496
Si      36.54762484      36.07978782       9.64538962
Si      35.16513179      35.82348237      11.57007245
Si      37.64042888      38.16309257       9.87001348
Si      33.51768105      37.51051082      11.62073856
Si      36.32995908      35.81963736      13.60654010
Si      34.56879329      39.58797711      12.04383942
Si      37.47941713      37.89650727      13.76386712
Si      35.75830116      -0.51878965      10.04662317
Si      36.14594761       1.70744143      10.82078808
Si       0.59071479      28.22081885      23.02317027
Si       1.89170831      28.31328731      17.35090062
Si       0.60033217      28.25503671      19.29104929
Si       3.08208196      30.29817436      17.97225664
Si      39.02647880      29.98623074      19.14779406
Si       2.08131063      28.36398558      21.18251053
Si       0.26386362      32.05708020      19.22117716
Si       3.00937782      30.43943824      20.38379577
Si      39.33648172      30.36556221      15.30467370
Si       2.23478191      32.93320619      13.82406834
Si       0.62406268      32.38524060      15.50201136
Si       3.43682237      35.03863923      13.94645861
Si      39.09622865      34.17314134      15.57140621
Si       1.90417968      32.35934688      17.45913260
Si       0.25017908      36.30267663      15.74324763
Si       3.00358357      34.64681741      17.40907053
Si      39.29925994      34.30938070      11.69462043
Si       2.20142335      36.68034440      10.30295819
Si       0.46957778      36.36422699      11.88960854
Si       3.47761485      38.43559308      11.29312305
Si      38.89818527      38.11680128      11.86358132
Si       1.70300223      36.67359176      13.88220575
Si      39.76216900       0.27112662      12.02941163
Si       3.01408174      38.77711068      13.72373889
Si      38.33103398      39.43463249       7.99170976
Si       1.20977390       1.18035921      10.46151469
Si       4.57749060      35.83080306      15.89703079
Si       5.04677651      35.32157573      12.23155118
Si       5.60952584      37.60152641      11.86420076
Si      26.20217385      35.83364720      16.61960784
Si      30.89778152      30.85729697      20.48951350
Si      31.93267575      32.92910904      20.85555872
Si      29.11084670      34.98522522      22.51417238
Si      31.55786110      32.81053257      24.77019221
Si      30.48382701      34.99436490      16.92213581
Si      29.00054310      34.39705656      18.68878467
Si      31.62675508      37.17555271      17.13270607
Si      27.62603003      36.26263937      18.51585877
Si      30.40751022      34.67248864      20.58307695
Si      29.05521671      38.15788707      18.73013685
Si      31.64459566      36.74962022      20.87936682
Si      27.52666251      36.63719766      14.77306887
Si      30.26509853      39.03394052      13.42378467
Si      28.45192418      38.83378251      15.05741106
Si      31.47071064       0.99841560      13.66866426
Si      30.22267233      39.22184170      16.97867830
Si      31.40141931       1.31456138      17.56215470
Si      36.53789791      27.61700107      25.00575657
Si      37.65987245      29.76637287      24.90711637
Si      36.10678282      27.64498582      27.33168507
Si      34.55294695      31.40752904      26.74000349
Si      37.36613779      29.38977783      28.44075245
Si      33.51986417      29.30005548      22.84576975
Si      36.10359585      31.46631605      21.07561989
Si      34.68269383      31.33203375      22.98668076
Si      37.36806539      33.50683668      21.29733109
Si      33.04955057      33.00935168      22.91916909
Si      36.05309329      31.50987710      24.89559119
Si      34.32204721      35.02330255      23.04859257
Si      37.26946199      33.55076360      25.02120670
Si      33.36492002      33.28572821      18.99412342
Si      36.07109068      35.70837437      17.38094088
Si      34.53660090      35.37691390      19.15389935
Si      37.23566614      37.82327497      17.60294175
Si      33.04217847      37.25523345      19.06233448
Si      35.77316640      35.26536508      21.18481623
Si      34.19317061      39.38478261      19.28079164
Si      36.92506101      37.32141705      21.22314320
Si      33.23547618      37.44961103      15.38859689
Si      36.01475852      39.75191162      13.89721051
Si      34.45977521      39.52302116      15.65276700
Si      37.29680462       1.79940676      14.16753166
Si      32.80728885       1.24046454      15.61420269
Si      35.81515464      39.73031327      17.58221075
Si      33.55241337       3.48621913      15.60857429
Si      32.69065250       0.96107479      11.64916844
Si      34.68591176       3.02034386      12.14285513
Si      35.72348984       3.55303743      14.36215604
Si       1.98034601      28.26957580      25.00071896
Si       0.55652454      28.55025415      26.84015035
Si      38.95742549      30.22226606      26.86398357
Si      40.19232529      32.24139793      27.07798698
Si      39.11166950      30.05629801      23.05201017
Si       1.51903813      32.13736106      21.19827240
Si       0.47118263      32.01481214      23.31113384
Si       2.79689100      34.08925591      21.17963476
Si      38.87155019      33.81383286      23.24441657
Si       1.90287202      32.16787526      25.39384941
Si      40.09825946      35.99601649      23.22903574
Si       2.94783897      34.37740477      25.66701178
Si      38.59424788      33.69609183      19.30524577
Si       1.35128724      36.25052026      17.83673801
Si      -0.29006457      35.71494189      19.39926093
Si      38.53802112      37.75373278      19.56654689
Si       1.21530314      35.88404595      21.16051898
Si      38.69621802      38.03753636      15.78104830
Si      40.12314385      -0.17687313      16.05968797
Si      38.15784229       2.06508703      11.95242228
Si       3.72577606      34.18006718      23.37356444
Si       4.32438523      34.30274370      19.27051327
Si      30.45707920      34.83611827      24.45702388
Si      31.59649909      36.82126721      24.85799145
Si      31.30562125      36.62526492      28.72217442
Si      30.13797130      38.54855870      20.81152729
Si      28.66574920      37.28468913      22.17561096
Si      31.00657086       0.78588001      21.17412990
Si      29.72945573      38.19899345      24.83324339
Si      30.93343127       0.20296941      24.93510510
Si      35.81569925      31.22976645      28.76407331
Si      36.82553536      33.44858660      29.02280781
Si      33.57104277      34.79858220      30.95871583
Si      37.30140284      34.83656750      32.80753161
Si      32.72599698      32.92845931      26.82185331
Si      35.57214761      35.19627886      25.07264363
Si      34.05837886      34.89339384      26.91833434
Si      36.69206611      37.30827075      25.03609444
Si      32.79428031      36.86912294      26.90314583
Si      35.10113221      35.09155020      29.02991330
Si      34.34521390      38.66872154      27.52785372
Si      35.96878567      37.30941517      28.84483451
Si      32.90474035      36.88540107      22.90620512
Si      35.55825150      39.22320818      21.16694069
Si      34.17091184      38.88462317      23.07607458
Si      32.42197978       0.42130132      23.11240273
Si      35.30846209      39.21304261      25.11824693
Si      32.83341930       1.38334800      19.52920127
Si       1.72395374      32.44717790      28.92422691
Si      39.74705040      32.37349621      31.34927623
Si      38.28093930      34.15577355      30.77465420
Si      38.35148472      33.76403366      27.12989638
Si      39.32323839      35.89704060      27.48073143
Si      37.65986979      37.53813417      27.15334089
Si      38.16100915      37.34260005      23.18632803
Si      31.81724512      36.45530641      31.15153342
Si      31.43866261       0.71926793      27.15055421
Si      28.33763462      26.94009130       6.91816776
Si       2.64947159      26.46893318      12.41226941
Si      39.25076517      26.81284817      14.59635273
Si      38.95772930      25.42514199       9.62743325
Si      33.97397023      27.09137369      10.95328889
Si      36.87012748      25.24275943      12.24904218
Si      33.81676746      25.82756597      14.29459886
Si      37.01328247      26.64593112       8.94910511
Si      35.54821580      25.51672674      10.35540231
Si      34.38565293      24.01205228       9.02557435
Si      31.10399307      28.19467419      12.51030374
Si      32.36811460      26.18132774      12.43026851
Si      31.26379020      24.19717406      11.58186423
Si      33.15059735      27.62341233       8.83052952
Si      30.40115419      26.12280254       6.06486778
Si      31.49148390      26.11478514       8.15412823
Si      30.11987429      25.15177660       9.76447900
Si      31.70589401      22.97758289       6.45760801
Si      28.52925662      23.91997714       8.50546884
Si      39.12159987      26.39356826      22.41589150
Si       1.84189115      24.18909478      24.66922743
Si      38.87119076      24.94346479      26.66213320
Si      -0.03383320      26.15725856      19.98130671
Si       2.21348662      25.41622337      20.65475282
Si      39.17125619      24.80965943      18.21219606
Si       4.14469689      24.05721573      19.26421432
Si       0.80469766      24.72917021      22.55213628
Si       2.37081824      22.56684087      18.86819905
Si      39.41616782      23.02858172      21.58150970
Si       3.27834101      26.51916427      16.56479869
Si       0.83513629      25.32334836      13.66242187
Si       2.06356921      24.68626249      15.56024093
Si      40.01860212      23.16257846      12.98832771
Si       3.54852685      23.19112332      14.43278198
Si       0.87321933      23.44787637      17.25270314
Si       3.10443584      20.88284989      14.30935367
Si      -0.18130439      21.49850632      16.38562169
Si       1.68469617      21.48725868      12.39934249
Si       0.64907695      19.67418400      11.22734856
Si      37.79480977      25.66723168      24.55175799
Si      36.33381809      23.76697045      24.09698015
Si      34.29306830      25.58086598      19.38564898
Si      36.25072074      25.01644117      20.57395416
Si      33.58777183      23.95695372      17.70197009
Si      37.92378371      23.59256351      19.77963595
Si      34.92971716      23.99133795      22.23111017
Si      36.76773374      21.72170608      18.88733812
Si      34.03764261      21.82088464      21.95634522
Si      37.94547939      25.72828116      16.37282899
Si      35.37412608      24.12840610      13.66287042
Si      36.79089846      23.66355380      15.50737755
Si      34.43430646      22.19791427      12.54191781
Si      38.47909228      22.19571147      14.58383723
Si      35.38274836      22.42724451      17.07073105
Si      37.53562320      20.17429613      13.64743194
Si      34.43082915      20.42687158      16.08115907
Si      38.49834448      23.80330451      11.31195434
Si      36.30939883      22.79895736       8.54654501
Si      37.48780601      21.86932722      10.32886807
Si      35.50866379      21.25770738       6.99525187
Si      39.13936440      20.34809048       9.54571740
Si      36.12110327      20.68115860      11.79565365
Si      35.26070304      18.80273173      10.54387376
Si      32.39464733      24.57851905      15.69940170
Si      31.44248709      22.48922811      14.86006018
Si      33.12577977      21.02956886      14.16686572
Si      32.07633543      19.20711488      13.03347918
Si      33.08825662      22.92169116      10.66788557
Si      30.65334092      21.41133171       7.88706842
Si      32.37614334      21.00800662       9.46513191
Si      34.21186850      19.80637258       8.54599569
Si      31.07505245      20.45706179      11.33221597
Si       5.15338038      22.78934244      25.13388114
Si       5.37350359      20.52722871      19.78562246
Si       6.05409135      19.23022817      23.41076881
Si       0.32486023      23.08821715      26.16310686
Si      39.43485096      21.30053933      24.90874488
Si       2.68099745      19.06307739      25.92742005
Si       3.49851899      23.01960293      23.47989878
Si       1.11386594      21.58800282      20.70636475
Si       2.59711015      21.01612542      22.50087871
Si      -0.02181793      19.71398663      19.79126576
Si       4.34474387      19.60030895      21.69851977
Si       1.23337296      19.88976807      24.16097801
Si       3.18822992      17.66543777      20.81642872
Si       0.19798446      17.98047811      23.18222610
Si       4.00569313      21.11112471      17.93614030
Si       1.45249788      19.94545106      15.68019031
Si       2.80458431      19.23292726      17.45256315
Si       0.64373781      17.99444062      14.64631975
Si       4.35961193      18.18671856      16.10398566
Si       1.61571574      18.16039840      19.13498660
Si       3.43838092      15.96451939      15.86961125
Si       0.58926661      16.26443913      18.19068326
Si       1.24083290      15.99782762       9.71031887
Si       2.41752143      16.55613612      13.84136230
Si       1.43397366      14.51333252      12.95371260
Si      36.85943793      21.67522933      27.64427113
Si      38.22374526      20.07002741      26.50901695
Si      37.13460459      18.13404421      25.74639364
Si      37.94381451      22.06171591      23.22890626
Si      35.50035881      20.59494765      20.57302090
Si      37.03597439      20.07380062      22.27967994
Si      34.40557101      18.72864006      19.59600559
Si      38.71110288      18.63853656      21.46530778
Si      35.72066559      19.12003684      24.06348243
Si      37.54003738      16.76458928      20.62628564
Si      38.51749037      20.34910426      18.01627230
Si      36.19073006      19.02451509      15.24333195
Si      37.56142478      18.38509764      17.08087118
Si      35.18385842      17.19047533      14.06912295
Si      39.28714013      16.93417269      16.30998300
Si      36.18281579      17.35903325      18.74105216
Si      38.24292105      15.01519978      15.38829283
Si      35.19305707      15.50569025      17.63285056
Si      39.24874297      18.65280371      12.86997300
Si      37.06489122      17.32802789       9.92211282
Si      38.24281689      16.71088188      11.91984752
Si      36.59738560      15.01298977       9.61313238
Si      -0.21324403      15.03184140      11.27810329
Si      36.82688545      15.55137282      13.49239011
Si      38.36994477      13.23695216      10.13799380
Si      35.78165528      13.49690263      12.61506584
Si      32.81402451      19.41858288      17.75870329
Si      33.88294958      16.11063554      15.67662952
Si      32.89360597      14.00656562      15.09792181
Si      33.81494923      17.81091206      12.20465467
Si      31.81248005      16.28119764       9.22783890
Si      32.68180820      15.93098554      11.37341108
Si      34.56038477      14.41459545      10.78145657
Si       7.96375890      17.84099646      22.65680676
Si       6.40649697      15.41992669      21.05853436
Si       0.36760670      15.86710047      26.40424720
Si       4.63048550      18.11178540      24.96905720
Si       1.89312511      16.50956341      22.42264638
Si       3.49271998      16.15201415      24.16119163
Si       0.80590614      14.57243927      21.48796890
Si       5.03763772      14.81727203      23.01141575
Si       2.40405704      14.62128964      25.80673780
Si       3.57807684      12.90935693      22.78718770
Si       1.62629913      12.62197972      24.33844711
Si       4.55639066      16.04643562      19.80874315
Si       2.25020198      14.73221836      17.47667126
Si       3.86033435      13.97340174      19.02490408
Si       1.15519438      12.82822231      16.64687355
Si       6.11524966      12.88918364      18.47073857
Si       2.45602739      13.04277284      20.68176632
Si       1.13643935      11.13967874      20.16939065
Si       2.16498025      10.98386898      10.99238083
Si       3.06532925      11.68225948      15.97553773
Si      38.90525878      16.76922070      24.77292529
Si      36.22974696      15.68975263      22.30446300
Si      37.84579282      14.83123585      23.83754575
Si      35.37208514      13.98947836      20.84793352
Si      39.62927676      13.36055308      23.16973137
Si      36.37132729      13.94944242      25.46934427
Si      39.24325946      15.27719204      19.85395726
Si      36.92858001      13.92945515      17.09561317
Si      38.22472476      13.29764972      19.03952436
Si      36.08144591      12.00046320      16.03104658
Si      -0.21810486      11.66842609      18.27957545
Si      37.10363930      12.36495844      21.00063561
Si      37.25903722      10.58707268      19.32889960
Si       0.04791139      13.60903042      14.70989465
Si      37.51233513      12.00788484      11.96688290
Si      39.06036667      11.71726702      13.76344012
Si      36.61119844       9.72251886      11.65053726
Si       0.74778482      10.30359924      12.91157868
Si      37.76806785      10.49649178      15.32714602
Si       0.65907587      12.31522258       9.75786752
Si      34.04418182      12.39008728      18.81517672
Si      35.21708360      10.64268997      17.75524070
Si      33.93475532       9.14782858      16.10872572
Si      34.46430978      12.41629396      14.30907147
Si      33.50117904      10.18625408      13.96549299
Si      36.34361009       9.00528255      13.98358584
Si      29.04323533      30.12373582       3.62676214
Si      34.81862258      28.59373783       5.86372472
Si      39.31113580      28.24138924       8.05204727
Si      31.52086135      30.20667388       3.54964449
Si      32.79114612      28.60894128       2.23777158
Si      36.96655476      32.57035431       3.09115302
Si      35.15789889      31.11665288       3.17362112
Si      39.05446421      31.82989217       2.11935496
Si      36.36948715      29.95715534       4.77363040
Si      34.53507614      30.01167002       1.21979828
Si      38.08187979      28.55382197       4.11155092
Si      36.57438740      28.93563002       0.46422873
Si       1.75165148      32.83320177       5.45501734
Si      -0.24637946      31.40773045       5.48867146
Si       3.67928150      31.59607649       4.56610786
Si       0.49364291      30.35495578       7.50982420
Si      39.77539586      30.05923007       3.55041302
Si       2.73864633      28.54432059       6.68759455
Si       1.66524415      28.82274699       2.84217079
Si       6.51697027      32.29627450       7.12434409
Si       5.17907549      30.57549795       8.22461980
Si       8.64826866      31.33472668       6.58440365
Si       4.50220993      29.91447182       6.04868336
Si       7.78197027      28.14606368       8.56280037
Si       6.46163058      28.83543964       5.00237295
Si       9.13725513      30.07943075       8.55415999
Si      12.46092714      28.39972019       6.96839106
Si      40.15093252      35.23095896      38.18633438
Si      38.58090423      32.39861222      38.57924287
Si       0.91138612      32.90784141      38.48799713
Si      38.46690867      30.63905693       0.15891503
Si       0.24708528      29.21484459      39.34746249
Si       1.19558849      32.99325664       2.25966320
Si       4.28362532      32.92968486      -0.25514200
Si       2.37699908      31.73799144       0.43922515
Si       6.25551822      31.89986336      39.12453043
Si       3.28859639      30.47338436       2.38939305
Si       1.94003318      30.45420747      38.24515682
Si       5.05369927      29.15871409       1.42331623
Si       3.90122168      29.28879432      37.51941818
Si       5.63220143      32.86872486       4.86283263
Si       7.11987086      32.13848508       3.03872307
Si      11.27791624      32.19931283       1.39575573
Si       8.22435634      30.37503455       4.48514521
Si       6.82501045      30.68515950       1.05358829
Si      10.18494442      29.21726650       3.68980263
Si       8.79841921      29.61904436       0.20737122
Si      10.30201165      32.96488650       6.08835069
Si      13.51438717      30.38477195       6.18307765
Si      11.86620769      30.79712303       3.12440316
Si      15.36214807      29.66206902       4.96836784
Si      13.65926951      29.55281321       2.14920514
Si      17.44147332      30.69048866       2.90328848
Si      18.72913815      29.07682245       4.02234022
Si       5.52103516      31.01010820      37.04357502
Si       7.48024136      29.84314073      36.56384256
Si       9.88114092      32.55203847      37.81978933
Si      10.54183458      31.09904598      39.50232536
Si       9.59720450      30.79647034      36.31488094
Si      12.23938615      29.79670405      38.47594618
Si      15.27801032      31.22340307       2.08204363
Si      32.40141946      25.75619743       4.74156278
Si      34.99882277      26.76687021       7.35022943
Si      36.98499778      25.66861495       6.40770573
Si      33.17655692      24.84963864       7.05846445
Si      34.96902016      22.27505168       4.84428788
Si       0.68944141      27.03882240       9.61820215
Si       2.38404492      25.61809798       8.74811587
Si      38.08142355      24.16168408       7.81287973
Si      39.86659175      22.86876034       7.05067812
Si      31.49955013      27.12933341       0.68227411
Si      33.86744336      27.42924004       4.00334771
Si      37.30166763      27.36985296       2.20502974
Si      35.49171871      25.97754651       2.97479215
Si      39.17941439      26.10342993       1.48863614
Si      36.26107855      24.37594008       4.55825685
Si      34.35943900      24.56457964       1.41904081
Si      38.18488718      23.23944466       3.83050287
Si      36.31300560      23.38806262       0.47265306
Si      38.75931874      27.15724426       5.94031443
Si       2.37500041      27.39293522       4.61006505
Si       0.65576273      25.90831106       5.19612668
Si       4.18674349      26.10653020       3.67323727
Si       1.64991676      24.37572944       6.76802846
Si      39.94243253      24.73644429       3.27482237
Si       3.40854497      22.97514341       5.94183673
Si       1.80479304      23.61070850       2.36528055
Si       4.09328093      27.12689208       8.11092309
Si       7.40825267      27.19217975       6.47505242
Si       5.77036542      25.65783013       7.23882352
Si       9.39581076      26.09376939       5.72923787
Si       5.07055478      24.53448620       5.27963530
Si       6.90608019      23.39096634       4.27502771
Si      12.69706976      22.85129252       5.73209508
Si      38.19043904      24.83774507      39.71425652
Si       1.01490447      27.52707705       0.85207540
Si       4.40238818      27.94288531      39.41213142
Si       2.77324311      26.23083652      -0.26325713
Si       6.33796309      26.83081860      38.76151789
Si       3.58786853      24.98750145       1.62728989
Si       5.49274883      23.75622982       0.83000497
Si       5.89426456      27.62269250       3.04300172
Si       9.58364696      28.02169193       1.73490285
Si       7.82728867      26.47856055       2.19679618
Si      11.46280497      26.94168474       0.78079492
Si       8.65835544      24.91884166       3.75993490
Si       7.22752442      25.27568825       0.24374173
Si      10.32463289      23.81087858       2.47722032
Si       8.99002007      24.22023100      39.02489490
Si      11.16035409      27.54757008       5.14413674
Si      14.62761484      27.92721982       3.52762310
Si      12.96961709      26.33503440       4.12459184
Si      16.33123845      26.52637896       2.73743605
Si      14.13361638      24.70690379       5.38157018
Si      12.21380195      25.21758520       2.15907448
Si      15.42087295      23.06089331       4.37037766
Si      13.87642908      24.01999961       0.94482886
Si       7.98967582      28.40436761      38.35604381
Si      10.86361307      28.87914771      36.82259476
Si       9.56611429      27.03896862      37.33269391
Si      11.83491991      27.97711018      34.90410658
Si      10.75585168      25.79444917      38.89288332
Si      12.41858986      24.89455670      37.46268538
Si      13.19816085      28.40562883       0.11910128
Si      15.11742753      27.28800531      39.23032427
Si      15.69477001      25.55695434       0.72483089
Si      14.57485558      25.85558196      37.39492603
Si      17.56826609      24.22438391      40.22737366
Si      16.32194106      24.33646536      36.78432679
Si      18.55931913      27.22024328       2.65556398
Si      20.86741456      25.04560303       2.45943868
Si      19.45530272      25.41305954      39.29285023
Si      37.36492959      19.92428617       6.43026990
Si       0.84880311      21.70333854       8.78721771
Si       2.16091318      20.00460808       7.87013438
Si      38.34968162      18.52064399       8.16351481
Si      39.94036801      17.47723352       6.62386654
Si      37.41711632      21.98045468       2.01319881
Si      39.22187095      21.06863642       0.72469684
Si      37.71353052      18.58601707       2.25945034
Si      38.91605308      21.54043379       5.34270991
Si       2.55204125      21.96265715       3.89306002
Si       0.67897011      20.49248163       4.17882862
Si       4.34748001      20.75415775       2.87538441
Si       1.49616131      19.06572095       5.83763645
Si      39.95979369      19.31381890       2.17332628
Si       3.41311182      17.91716779       5.13280298
Si       1.76509217      17.97739090       1.25610339
Si       4.22375233      21.20427969       7.51149180
Si       7.75924384      21.95874978       5.93091682
Si       6.19561817      20.24035214       6.54445475
Si       9.62663906      20.80870978       4.91589670
Si       5.24747464      19.29610953       4.53094029
Si       7.01783891      17.99235648       3.68349226
Si      11.33464179      17.56686598       5.96683084
Si       0.88058120      22.71363537       0.43375496
Si       4.86786528      22.48021511      38.93810483
Si       3.71792207      19.51851275       0.83275654
Si       5.41185444      17.96603425      40.40285394
Si       6.21015773      22.13791373       2.36715102
Si       9.56956890      22.49379580       0.58627776
Si       8.02376193      20.86571417       1.44073753
Si      11.37877217      21.33596537      39.65262581
Si       8.82856940      19.43436481       3.14192116
Si       7.32828792      19.25920026      39.79648179
Si      10.46172244      18.01472255       2.19055040
Si      11.21354224      22.24178143       3.95217410
Si      14.63041974      22.22579593       2.31630370
Si      12.84647945      20.82977931       2.95144392
Si      16.47828149      20.97666075       1.38620482
Si      13.55744997      19.77345319       4.97200809
Si      12.08915954      19.48795199       1.16034520
Si      14.74192587      17.63007391       5.08478409
Si      14.03335047      18.43837601       0.27799171
Si      10.85786597      20.61894050      37.44207319
Si      12.94582111      23.03049516      38.95155849
Si      16.81515481      22.80695337      38.52544590
Si      14.70138587      21.97188224      37.89474729
Si      15.31916087      20.20073659      39.33955307
Si      17.96450446      22.80586879       2.05304562
Si       0.72283526      15.37074140       7.48546386
Si       3.02222651      14.57848388       7.59216065
Si      39.09303050      16.19935299       4.81540732
Si       2.78560095      16.83367054       3.13598320
Si       1.00980588      15.41195558       3.68232708
Si       4.31099760      15.41528449       2.04323613
Si       1.55663825      13.34308180       4.63067033
Si       4.00696262      16.72722824       7.08672194
Si       7.75553284      16.93101722       5.64298779
Si       5.71672737      15.68334490       5.85064206
Si       9.15485179      15.35105376       4.56593556
Si       5.59295801      14.46263669       3.74357213
Si       6.46878792      16.48710302       1.87342529
Si       9.60493652      16.68699007      40.43414225
Si       8.07768228      14.84853591       0.59384870
Si      11.51067497      15.89126081      39.23845372
Si       7.84606357      14.17143464       2.99920861
Si      11.19132752      16.37230702       3.85911497
Si      15.76548471      39.04707306      19.88940433
Si      13.36167319      39.81538301      23.79049665
Si      19.92751849      35.76579889      18.24862647
Si      18.46927405      37.55779427      21.84896887
Si      24.82034582      33.73212028      16.88738164
Si      22.48629393      37.80308865      20.57593975
Si      26.92008865      37.10850637      20.57647288
Si      23.56320323      35.46825146      20.59279003
Si      14.18252360      38.92419066      21.65949481
Si      15.03701555      35.56440488      23.04263023
Si      19.20504438      35.65120062      20.56066637
Si      20.19055344      33.64999496      21.45319064
Si      21.52020955      32.74679596      19.62593776
Si      23.88727537      33.45079801      19.17820860
Si      17.50894318       3.33990398      29.44283169
Si      21.87027657       1.92177861      27.68039858
Si      11.16436392       0.55494296      27.45462798
Si      12.69601288       2.91216894      29.56508406
Si      10.17097201       1.46567329      30.61867669
Si      15.40687502       0.41950764      24.82362915
Si      14.96861610       2.45010027      26.62444804
Si      16.63076274      38.36394512      25.39790936
Si      17.25313858       2.36665970      27.28316714
Si      13.45170823       1.17667438      28.00428386
Si      18.32656333       0.47737960      28.18198269
Si      14.75202322      39.20053100      28.86996824
Si      20.44645830      38.37699075      22.95937273
Si      20.19019932      39.77702017      24.91792474
Si      21.59965723      36.47821979      24.01140093
Si      22.20614813       0.34589268      26.00190265
Si      18.66853980      38.88217838      26.48453188
Si      23.41847515      38.60901705      26.88904139
Si      19.78822720      37.00705733      27.42179111
Si      25.43099530      35.92864549      21.94848845
Si      24.97879414      37.74237588      23.41914371
Si      26.69249489      34.01318150      22.89466814
Si      27.29819611      38.09225413      23.89193268
Si      23.62660453      37.02828205      25.16975582
Si      28.08730290      36.62106740      25.64844391
Si      24.71317730      35.25075167      26.27281072
Si      10.19935578      39.49924322      29.32094034
Si      11.37655931      37.48412077      29.62375011
Si       7.96007076      36.48072131      30.47900937
Si      12.41058826      37.91943997      24.92405753
Si      13.49196082      36.41225744      26.30714273
Si      14.94683202      32.92161205      25.57821839
Si      15.34395289      37.49328736      27.20200436
Si      11.78106250      35.82231065      27.76747963
Si      16.34431129      35.54294173      28.14929353
Si      12.81557977      33.98346282      28.81753574
Si      17.05339697      36.67992553      23.68405045
Si      18.44460703      32.79865697      23.13741814
Si      18.17671905      34.73785908      24.66939445
Si      19.87604317      31.08687677      24.07832815
Si      20.22689153      35.42657393      25.67988920
Si      16.84813275      33.91523225      26.48454219
Si      21.25525285      33.57113675      26.79005669
Si      17.82796291      31.90440910      27.29999349
Si      22.03222947      34.81484203      22.35670355
Si      23.02058475      33.04919276      23.54981593
Si      25.04821276      33.58926337      24.67110565
Si      21.91041508      31.78073642      25.35379995
Si      13.24755257      32.34196834      27.19075111
Si      14.14671794      30.34712120      27.96975483
Si      18.61076585      30.09476681      25.84015345
Si      19.55127995       2.79234436      30.48401720
Si      23.94065336       2.70065321      28.65634537
Si      24.84173822       0.75203943      29.72531936
Si      22.83672322       1.60783629      32.74196835
Si      29.13287084       0.61852804      27.74155276
Si      29.69088183      38.39737661      28.50502705
Si      26.91216877       1.40762887      30.77052834
Si      27.59353747      39.33739824      31.78945425
Si      12.23408875       1.91461354      31.61180012
Si      13.12318672      39.81560028      32.37032459
Si      16.84178728      39.77078261      29.90322401
Si      16.55099209       1.34809098      31.74791512
Si      17.89907832      37.77228459      30.81771038
Si      18.70902926       1.77327070      32.55405204
Si      15.21241905       0.30975512      33.38718632
Si      19.71228249      39.89154738      33.55444336
Si      16.18643465      38.25698638      34.06570443
Si      20.36632307       1.01692858      29.22869530
Si      21.84502914      37.69216429      28.44811494
Si      21.40177138      39.17677207      30.22558203
Si      22.77030505      35.83933295      29.55715800
Si      23.37085418      39.87297497      31.32009341
Si      19.98548104      38.26111862      31.87337053
Si      24.38532310      38.02775080      32.36123575
Si      20.98901199      36.37501770      32.90745179
Si      25.45513466      39.42489133      27.87767178
Si      26.70921738      35.88449379      27.37557996
Si      26.29861822      37.50236064      29.00670131
Si      28.00997346      34.15294998      28.43869271
Si      28.30402480      37.71783451      30.25007707
Si      24.78156442      36.56989773      30.56969943
Si      29.46854149      35.89620255      31.16839944
Si      25.91993371      34.80126134      31.62670233
Si      30.22752839      34.51598487      29.41801350
Si       8.17739987      39.21979531      32.18853341
Si      10.10908829      36.54745488      31.35710442
Si       9.63950180      37.79655506      33.41838291
Si      10.78455968      34.42062104      32.00418948
Si      11.74593783      38.80817864      34.02528825
Si      12.64297694      36.75488997      34.78215080
Si      13.43235414      38.18908740      30.57611909
Si      14.86500157      34.59304931      29.76455649
Si      14.39386002      36.17262648      31.46387712
Si      15.80496743      32.57489572      30.62203579
Si      16.51079769      36.65708483      32.39843613
Si      12.89587016      35.15166895      33.03124666
Si      17.49937059      34.73203854      33.40575976
Si      14.00823458      33.30818285      34.00386241
Si      18.38043097      36.16619557      29.14322615
Si      19.75751956      32.68196270      28.39431274
Si      19.31617728      34.23302996      30.11693259
Si      20.79435960      30.65379374      28.90807220
Si      21.35849458      34.82005900      31.15718818
Si      17.86995231      33.14584982      31.65526596
Si      22.39161490      32.82372827      31.87477800
Si      18.90650440      31.11988638      32.38143611
Si      23.24758500      34.30749654      27.84341653
Si      24.46323238      32.45306210      28.61178339
Si      26.33773234      33.23611356      29.91498886
Si      22.79704016      31.44531430      29.93023853
Si       6.36589175      35.43174553      31.88713024
Si       6.76953298      33.06392460      33.08137128
Si       9.11581693      33.81382201      33.62958831
Si      10.36756192      31.92223377      34.40565990
Si      11.14902645      32.92988280      30.14200297
Si      12.56324067      29.27315251      29.42224318
Si      12.16046783      30.97569304      31.09865406
Si      13.62075761      27.37505800      30.40626005
Si      14.25171832      31.68948042      32.23868256
Si      10.22866250      30.48884926      32.42677295
Si      15.33443425      29.81858115      33.23859007
Si      16.26821401      30.98078072      28.86789293
Si      16.85782641      26.84287088      28.52032636
Si      17.16137136      28.94654717      29.70809438
Si      19.42341134      29.46796075      30.48020260
Si      15.63653425      28.30724128      31.45168557
Si      17.24244245      26.69281742      32.04429512
Si      24.58533144       2.87027692      33.55081961
Si      26.52318038       0.66851882      34.69799574
Si      18.25389344      38.81831322      35.09143565
Si      17.48659803       0.46705383      36.51933099
Si      19.18553630      36.95027590      36.16049972
Si      20.97713344      39.63249214      38.30107332
Si      17.80648376      37.85815940      39.90902107
Si      21.69035035       0.82519253      34.60314190
Si      23.01008456      37.08671346      33.98781970
Si      22.71356268      38.87673261      35.56790232
Si      24.05281880      35.07198696      34.74768360
Si      24.35007604      40.06822928      36.95451264
Si      21.24467449      37.71647787      36.97799611
Si      25.97134308      36.75014570      37.67878233
Si      22.09165615      35.65089535      37.84725810
Si      26.34619406      38.55052642      33.57996045
Si      27.95107408      35.30209107      32.82765446
Si      27.68324908      36.80307527      34.64884268
Si      28.45546285      33.03766241      33.16951339
Si      26.17234654      35.41108388      35.78497789
Si      27.31938570      33.50782643      36.59089003
Si      10.95131161      35.93905970      36.28082895
Si      11.78731127      34.00125324      37.38301827
Si      14.74054694      37.37211058      35.71530494
Si      16.05684360      33.90939737      35.13004615
Si      15.79258929      35.61958010      36.85258345
Si      17.10383663      31.95795381      36.04462583
Si      17.81052545      36.25418332      37.98541492
Si      14.01203885      35.32491455      38.36589227
Si      18.75999982      34.15967252      38.65091532
Si      15.48015963      32.27952563      39.98102790
Si      19.54422625      35.32104645      34.46531544
Si      20.93649426      31.75019644      33.43309202
Si      20.58577893      33.31855109      35.24543393
Si      21.93325583      29.73324383      34.20597423
Si      22.63530818      33.95759043      36.26863820
Si      19.21447070      32.46468802      36.99786838
Si      23.72260557      31.97186434      37.09597634
Si      20.29524658      30.47591472      37.88936589
Si      24.36878331      33.57722313      32.93824245
Si      25.28862684      31.51460851      33.57895398
Si      27.23884322      31.95227172      34.86973749
Si      23.92885748      30.43862142      35.23062058
Si      12.51261406      32.40876551      35.60195252
Si      14.03388544      28.92785279      34.97352042
Si      13.63485630      30.56114381      36.71059771
Si      15.35090437      27.02915483      35.53491646
Si      15.70039332      31.04061586      37.80517182
Si      16.73372069      28.89351726      38.36452469
Si      17.49452228      30.39924687      34.20300532
Si      19.33279357      27.28646153      33.14914357
Si      18.79583612      28.57015537      35.01901430
Si      20.84126485      28.96336336      36.16089090
Si      17.38775912      27.52541118      36.54643996
Si      22.21105887      27.16180684      37.17414893
Si      16.32024855      25.49428783      33.95068240
Si      20.05546225      38.65119470       0.17444888
Si      20.58023719      36.54758864       1.10667936
Si      24.10872008      35.97551788      38.92294839
Si      24.11735959      37.00334585       1.03267017
Si      25.29372929      34.11825948      39.73527686
Si      22.30007074      36.86171144       2.62497720
Si      23.15087464      34.78631014       3.22907027
Si      17.61435881      33.16135823       0.43879148
Si      18.65741248      31.14553046       1.00111823
Si      19.63747290      33.10449030       3.54047499
Si      20.82256397      34.73825067      39.59173097
Si      22.38664366      31.11202732      38.85369670
Si      21.92866945      32.79137359       0.43518770
Si      23.74149098      29.40924382      39.90078354
Si      23.93936006      33.32370733       1.49646975
Si      20.67753257      31.61786425       2.04252807
Si      25.39039103      31.74594562       2.48830992
Si      21.83564190      29.71225820       2.88584651
Si      25.84602079      32.46363039      38.08865938
Si      27.07703360      30.61641888      39.02040603
Si      28.90978789      31.60546618       0.10260777
Si      26.01365412      29.83724644       0.98580986
Si      18.80208744      29.38819905      39.44149311
Si      19.69398436      27.46735561       0.56589022
Si      22.06951260      28.02155620       0.99179954
Si      22.83614453      26.40802903       2.52544447
Si      24.31468437      27.97789548      38.13153559
Si      21.59147494      33.75348801       4.65313659
Si      23.83301762      30.61015634       3.84939478
Si      22.39046104      31.61289342       5.42809739
Si      25.11047024      28.89592643       4.88910405
Si      25.27088449      26.94181967       3.47139906
Si      35.79994918      16.17083605      26.31435478
Si      34.08333202      10.18205387      21.90380347
Si      34.16061730      12.84620875      25.09708396
Si      33.23185310      13.95590518      21.80347929
Si      33.76229367      10.55187279      24.25653972
Si      31.26597900       9.99571264      24.18718791
Si      32.96257744      15.37863532      18.37667177
Si      32.59751589       8.75441622      17.98517903
Si      32.89398450      11.85439838      20.79042684
Si      32.45599917      13.33238744      17.33521956
Si      30.63222905      11.28203309      20.84026424
Si      30.22705410      12.57657237      17.35923554
Si      32.75110663       8.34830576      21.30796418
Si      30.59267430       8.89269777      20.71609877
Si      30.73023186      14.18201567      13.99468958
Si      29.06298323       9.09251987      13.33234022
Si      30.90329881      10.24732287      14.39979327
Si      29.64631309      10.39851620      16.42633825
Si      30.25173537      12.06922719      13.09126049
Si      34.77572692      18.70688596      26.36752826
Si      34.76911980      21.57034885      28.70184792
Si      34.20441035      23.06388108      25.27567792
Si      35.33015164      15.07679105      28.60125507
Si      35.79030716      18.19835037      30.43776719
Si      32.96631260      15.07580512      28.17357178
Si      34.36932923      19.22022322      28.67370111
Si      32.08492760      18.70804995      28.71763937
Si      32.65715411      17.90389828      21.16945959
Si      34.00486214      20.86281105      24.28861070
Si      31.72180473      20.17406268      24.41142632
Si      31.85806166      21.68220760      20.99594834
Si      34.93411043      16.85643661      24.11953143
Si      32.62049353      14.30310028      24.04795453
Si      32.67465413      16.56526900      24.87397065
Si      30.31455885      13.72013009      24.15040090
Si      31.78561223      16.82910544      27.18630657
Si      31.60907324      18.04442158      23.39441319
Si      29.70470533      15.70753599      27.53197317
Si      29.33171369      17.38310872      23.59188257
Si      33.18025977      12.90258336      27.25186373
Si      30.96312138      11.91283008      27.57094779
Si      29.60056184      13.60127815      26.46032837
Si      26.81721501      11.06855422      30.08339270
Si      27.25828156      13.15496287      26.44587080
Si      31.33328412      23.37779125      18.12462686
Si      32.20063647      17.15076401      17.02014577
Si      29.89774810      16.50951812      16.95380254
Si      31.47386132      19.55065011      19.92058696
Si      31.22360795      21.29367018      16.92395479
Si      29.20319714      18.91528106      20.11799891
Si      29.05873829      20.40623963      16.66860369
Si      32.18286361      15.64254869      20.56073676
Si      29.41797154      12.80549288      19.54438070
Si      29.91513541      15.00021608      20.49202661
Si      29.08443050      15.17030244      22.70769525
Si      28.95007288      16.68338104      19.14799268
Si      26.82874804      14.43922391      22.62374700
Si      26.71112232      15.92257498      19.02164250
Si      29.98591528      11.64081593      23.07877423
Si      27.63599966      11.18046236      23.02665465
Si      26.14623563      12.41286223      21.51741480
Si      29.34663704      19.45449233      10.10351501
Si      29.36374443      21.89388411      12.88825860
Si      30.21354445      15.82187595      12.34866427
Si      29.95528585      18.06326527      13.47109409
Si      27.59467591      15.37714948      11.98562008
Si      28.90647773      18.21329628      15.65198464
Si      28.52491141      19.55338678      12.27928474
Si      26.56073258      17.70609531      15.44519212
Si      26.20356700      19.17054569      12.02326627
Si      29.37849245      14.32276040      15.96724143
Si      26.98323825      14.26831434      15.82666851
Si      26.07835635      13.76576217      18.09136018
Si      26.32895233      15.80059396      14.07610910
Si      28.63487594      21.66474630       9.35491309
Si      26.54805412      20.60247055       8.96753426
Si      26.18850518      17.04251785      11.12848606
Si      32.39525249      18.36351507      31.04670818
Si      28.74008404      17.49283863      30.99037799
Si      33.57587105      25.86618999      21.73310074
Si      29.95935145      25.67573808      20.99732867
Si      31.02219621      22.01840390      23.09342111
Si      28.66531053      21.69415390      23.08618476
Si      30.10770382      20.46475597      26.22839877
Si      28.49639877      16.91704603      25.83001226
Si      28.22101756      19.04172960      26.70574998
Si      26.17515702      16.54428161      25.64169283
Si      28.96442499      15.35638640      30.09542900
Si      26.47224653      13.03399292      28.74942930
Si      26.68374323      15.20971247      29.66543608
Si      25.43908702      16.78072546      31.08793319
Si      24.91142202      16.59315979      27.65981263
Si      23.44921231      14.89108438      28.61016485
Si      30.35462127      25.12114614      16.76840070
Si      30.05916215      27.53592758      17.14012570
Si      28.22807410      24.18780947      16.13035726
Si      30.37642719      23.44273161      20.23928691
Si      27.95279109      20.43494069      18.81527010
Si      28.08534868      22.71724731      19.83587863
Si      25.71023904      19.59401195      18.69519323
Si      26.91384173      24.04328215      18.23816295
Si      24.68160218      23.27783140      17.81315696
Si      28.33148320      19.19395857      22.35229927
Si      25.82569302      16.10150481      21.21833155
Si      26.12248550      18.32362451      22.07448864
Si      23.55578294      15.43876397      20.89261349
Si      25.29990526      18.23800783      24.25138627
Si      24.74057083      19.84054756      20.90608231
Si      23.01019831      17.55581619      24.30067571
Si      22.42751486      19.22952672      20.87594148
Si      25.91999154      14.38871390      24.84916557
Si      22.31288391      15.54817306      23.03719696
Si      26.64775523      27.26493724       9.02455636
Si      26.50997508      29.54696949      12.68462701
Si      27.79301015      23.29271009      11.47317499
Si      27.68390132      25.61946630      12.24968652
Si      25.39312465      22.87512467      11.68466916
Si      27.43892884      25.84669654      14.60842564
Si      26.13660018      27.37140189      11.47437825
Si      25.17496421      25.20332409      14.69093209
Si      23.90537590      26.60097053      11.68044595
Si      28.20939896      21.98601882      15.12341293
Si      25.22718568      19.19088395      14.14464899
Si      25.93010165      21.23418767      15.04745032
Si      24.83503143      21.04796479      17.09709683
Si      24.82245606      22.97863445      13.95735951
Si      22.57854272      20.46154895      17.19473510
Si      22.52781852      22.57038886      14.11620714
Si      25.44558575      17.28186437      17.56927854
Si      22.01343236      17.03998791      19.97989552
Si      25.31658174      28.15286972       7.24683373
Si      26.44341912      24.98547644       7.83860952
Si      25.55262494      21.85776420       7.17980261
Si      23.72821570      24.41400817      10.78763657
Si      24.93681559      20.77310866      10.72170582
Si      21.78286633      19.30039126      23.22517420
Si      23.11013626      26.30799264      13.89351793
Si      21.53575391      22.34633073      16.22302299
Si      21.63344334      21.00915027      19.45590305
Si      21.18887319      20.91456537      12.98690909
Si      17.70712330      22.36495417      18.14145615
Si      19.94614735      21.06436593      15.07946831
Si      19.75657657      19.20121963      16.44890796
Si      15.07477343      18.98488549      19.40574524
Si      19.51479155      20.32697749      18.54747502
Si      18.85667829      18.93640468      20.40105445
Si      15.03123499      20.21715930      21.41865814
Si      15.44225809      18.51353654      23.10773750
Si      19.07961061      17.70931297      22.55911701
Si      16.93893223      15.38416246      10.07896923
Si      23.11096502      19.37093931       8.18033797
Si      22.72678377      19.21054080      12.22733456
Si      22.40071885      18.11531608      10.06103446
Si      22.26656921      17.47500327      13.82399411
Si      20.21313224      17.21075586       9.48257093
Si      24.27464588      16.51732034       9.88274059
Si      20.09194469      15.15360266      10.93212482
Si      23.94333198      14.74147534      11.37311928
Si      17.87969136      18.06718685      15.64596467
Si      18.14163865      17.28733390      13.44132248
Si      17.51909776      16.49592871      17.34540728
Si      16.49757731      15.71999769      12.78896176
Si      20.22385672      16.13695127      13.17732827
Si      15.88609199      14.20683378      14.47279253
Si      19.78579991      14.36181338      14.84070392
Si      13.45711958      17.36862231      18.97551994
Si      13.45642186      16.26998380      16.90853696
Si      13.52732733      15.82085366      20.69069995
Si      15.63765200      15.27470350      16.59375580
Si      11.84329747      14.31317774      17.24198274
Si      15.53074945      13.47411372      18.12223248
Si       8.73582333      15.97420449      24.01240843
Si      11.59402497      14.64894720      20.03256346
Si       7.76327097      13.52227459      21.61655396
Si      11.37061734      13.06072998      21.77633849
Si       7.15877450      14.23325545      23.83016182
Si      23.95664354      15.74045454      13.54489870
Si      23.59668048      14.09362916      15.16668677
Si      21.90341154      18.33294482      16.14266274
Si      21.63502557      16.52455912      17.64687390
Si      20.53466822      16.17375380      21.60369258
Si      19.60187396      15.28484469      17.12792490
Si      23.67167661      15.39738021      17.23665180
Si      19.46197451      13.52045870      18.70325775
Si      23.69657510      13.73061710      19.03912416
Si      17.11529706      17.73502699      19.34210265
Si      17.00871146      16.75575509      22.98663864
Si      17.09473039      15.90010647      20.79513313
Si      16.97558162      14.76862399      24.31629004
Si      15.37077359      14.45195547      20.25633596
Si      19.01527094      14.50533525      20.86201178
Si      15.32161434      12.76950278      21.83790715
Si      18.47774232      13.48790107      22.94549132
Si      13.47847025      17.23324994      22.63856066
Si      12.88476651      16.43941264      26.35442052
Si      13.08572394      15.47274689      24.16576715
Si      10.94290483      14.48749303      23.71380221
Si      14.87598021      13.73448722      23.96007530
Si      10.91685987      13.04606685      25.58209796
Si      18.44584300      13.73035628       6.84404322
Si      18.27876350      12.02881423       8.45840204
Si      13.98866426      12.08212103      11.75263408
Si      16.27885523      10.51130374       7.88398580
Si      16.03782185       9.06670421       9.82190905
Si      10.41818122      12.03694170      14.66197204
Si      12.14554912      10.58043435      11.32417405
Si      11.85591219       8.79381523      12.95689820
Si      25.82060096      12.81632398       8.96951734
Si      22.11819855      14.19497788       7.14997269
Si      21.91336703      13.60165414      10.94362041
Si      22.01019542      12.54935699       8.84452732
Si      21.81897064      11.82176200      12.60088876
Si      20.36077988      10.95624014       8.27053426
Si      24.02364594      11.35965808       8.75131738
Si      20.05296134       9.33573726       9.97056180
Si      23.92114118       9.57249700      10.31713884
Si      18.29719877      13.49012334      10.46386740
Si      17.87150891      12.93082862      14.35738846
Si      17.96215292      11.90410959      12.20123197
Si      17.71275172      11.16614549      15.94401355
Si      15.97398366      10.60379195      11.70275508
Si      19.85841848      10.42755023      12.14029178
Si      15.70941811       8.87174628      13.38509297
Si      19.69102384       8.71932368      13.81694133
Si      13.91254279      12.96517384      13.98789206
Si      13.46957758      12.35899640      17.65132571
Si      13.81918221      11.21851781      15.58787786
Si      13.44639633      10.67407934      19.36232572
Si      11.82611564      10.01143162      15.04979400
Si      15.70930849       9.80186588      15.60846722
Si      11.58592048       8.33676347      16.81418424
Si      15.30820649       8.10063927      17.31198761
Si      10.17618148      12.16534419      17.34585270
Si       9.48688270      11.89354303      21.03936849
Si       9.72886546      10.51906498      19.05135516
Si      11.68035485       9.13305690      19.05403778
Si      11.64017567       6.98137017      20.21130472
Si      26.02374306      13.60643797      11.18223025
Si      25.56175566      12.78771704      14.73669424
Si      25.89103710      11.77006924      12.66202923
Si      25.49988680      11.21239743      16.40978660
Si      23.84501626      10.44385083      12.52156219
Si      28.22799858      11.10380569      12.27668279
Si      23.49631356       8.60248084      14.16439860
Si      21.62224916      12.82242255      14.80152407
Si      21.56180405      12.37164736      18.66480420
Si      21.51469544      11.15775078      16.52276851
Si      19.64405373       9.75089270      15.99354659
Si      23.53846315       9.92891763      16.24756417
Si      18.89630890       8.49384662      17.91182447
Si      17.56857089      12.18608692      18.06948935
Si      16.99127656      10.98928424      21.58217949
Si      17.65968625      10.24264718      19.38454722
Si      15.46193994       9.36416772      19.32909419
Si      13.29598819      11.61113945      21.54180276
Si      14.13788883      10.00109919      23.07595247
Si       8.93688831      11.88136631      25.84080624
Si       9.41228602       8.35173050      13.35865116
Si       9.98139181       5.72124905      14.30907561
Si      22.07085877       8.11928333      10.00109411
Si      22.57546120       7.81377381       7.74458468
Si      21.83345992       6.28418139      11.45071778
Si      23.67220393       4.36069887       8.76474084
Si      18.13922839       7.87604782       9.49247302
Si      17.68753501       7.52176272      13.30332334
Si      18.03346558       6.34343946      11.25369599
Si      17.48438048       5.87978023      14.97414428
Si      16.05479471       5.09117126      11.08168067
Si      19.91710636       5.02664085      10.84870089
Si      15.54195998       3.53907118      12.78392897
Si      19.70823642       3.47206263      12.52871865
Si      13.82447125       7.34446282      12.86403639
Si      13.34270519       6.78625742      16.91777618
Si      13.68289477       5.77795288      14.81201749
Si      12.64993717       5.23927221      18.67945737
Si      11.92692532       4.42005990      13.99850047
Si      15.60820108       4.46075908      14.95932575
Si      25.89380890       8.32926633      10.04104221
Si      25.30980523       7.08432133      13.78630635
Si      25.66594643       6.56409816      11.54286896
Si      23.84454184       5.15286800      10.99093001
Si      21.56608388       7.23341348      13.63564121
Si      19.21751299       4.36863636      14.67912283
Si      17.29112105       6.88758401      17.10406035
Si      21.64936815       3.10383452       8.08499648
Si      21.80826520       0.45455164      10.81664112
Si      17.72087444       2.18380373      12.84769604
Si      13.74376027       1.17148116      14.60550762
Si       2.05285494      10.99273568      40.57370102
Si       1.15036457      11.89730388       7.54444876
Si       0.91185388      10.51466494      30.53666853
Si      37.41803118      12.95861971      27.33472126
Si       0.32401873      12.72972499      36.75748998
Si      38.45631939      13.63855348      33.43487507
Si       0.84703108      14.31660472       1.61189263
Si      38.56829431      15.79360297      38.96234833
Si      38.71294268      10.18928806      29.53194490
Si      36.99808944      11.21801437      31.04855926
Si      34.95134660       8.59537656      29.13513666
Si       1.07259938      10.67623933      32.95776110
Si      38.17425516       9.62092434      34.95722014
Si      38.71749702      11.98021080      35.20174731
Si      36.92192437       9.79732470      32.95378513
Si      36.94958275      12.99603298      36.52292729
Si      34.94997331      10.35056091      34.26452978
Si       0.63144344      11.38700076      38.68751191
Si      38.63390701      11.66433357      39.83181730
Si      36.64475962      10.74193069       2.60644918
Si      38.79605881      13.97694167       0.47318201
Si      36.73491257      11.65611896      38.51600224
Si      37.03511355      14.61434769       1.89604061
Si      35.05151614      12.00265165      40.09187861
Si       0.43929187      12.27274995       2.93139209
Si      38.98789995      11.34794360       6.74493908
Si      38.80156234      12.57333964       4.65862939
Si      37.26402852      11.77893694       8.25461209
Si      38.86773489      14.37667987       6.31939399
Si      36.71435179      12.90550519       3.50458148
Si      36.92828969      15.18028565       7.32707700
Si      34.88035842      13.05382744       4.97720290
Si      34.75151312       9.50353340       1.68005850
Si      35.28009680      11.56066532       6.74149868
Si      33.45577650      11.20111068       8.18531181
Si      31.03099940      10.38149860      11.63405027
Si      36.58090033      15.79677814      30.47621038
Si      35.78397706      19.01886256      32.72873894
Si      37.42520868      17.37120932       0.32404380
Si      35.39505612      19.15512185      37.76089883
Si      35.80278304      20.59499433       3.21295668
Si      34.88723240      10.87655695      29.97881881
Si      35.25359221      12.67831214      28.44932016
Si      32.78311219      11.11561976      31.22662168
Si      33.28086336      14.87369114      30.44889463
Si      36.71318662      13.60245027      31.84501057
Si      34.97266351      12.50317119      35.26931914
Si      34.85278260      13.79782421      33.31487135
Si      33.07258034      12.78701092      36.67283465
Si      34.71202622      16.11266692      33.78140350
Si      32.84977772      13.32271973      32.13485846
Si      33.09129303      16.59471531      35.46711822
Si      30.96801849      14.15320762      33.41864024
Si      36.97267536      15.41334881      37.25746354
Si      35.04944096      14.25035815       0.69647250
Si      35.03644224      15.46032074      38.64013185
Si      33.14435592      14.48471391       2.07503052
Si      35.24681100      17.60975673      39.54085638
Si      33.09370572      15.07471290      37.36572524
Si      33.55438620      18.03879481       1.10893531
Si      31.34510875      15.64362255      38.87796032
Si      37.33993492      16.51403538       3.28334570
Si      34.98006542      15.18198792       6.09363268
Si      35.28770627      16.76925060       4.38119222
Si      33.06062018      15.16933641       7.55093211
Si      35.74686956      18.97444624       4.98874245
Si      33.38405058      16.60629682       2.99487050
Si      33.86184095      19.24224398       6.33220862
Si      31.50240577      16.86216844       4.39997693
Si      32.24578762       9.28698886      27.36910602
Si      30.69165221       9.00716539      29.14244406
Si      30.70699868      11.18247275      29.90773111
Si      28.80145562      11.51377360      31.38013258
Si      32.78751673       9.56785596      33.17326137
Si      30.77595494       8.72271616      36.25670226
Si      30.90322422      10.40498428      34.55007890
Si      29.35357077       8.98251865      38.24063616
Si      31.08930025      12.63673459      35.35325814
Si      28.76594871      10.16386267      33.40161221
Si      29.35473329      12.98023647      36.95546331
Si      26.86110418      10.66713908      34.90307337
Si      33.21807813      11.44565079      38.73818449
Si      31.51028459      11.16747985       2.30459537
Si      31.32681516      11.92315361      40.06676365
Si      29.41610946      11.04807004       3.31206123
Si      31.24972931      14.18502213       0.73233378
Si      29.41329550      11.38570146      38.81379779
Si      29.45230241      14.57189577       2.25887467
Si      27.59251853      12.11832306      40.13876977
Si      32.80988048      12.80709053       3.70526729
Si      31.22249133      11.56565051       7.12827725
Si      31.12796527      13.17335983       5.32536902
Si      29.52469992      12.49175498       8.53120149
Si      31.14554326      15.32901773       6.21583721
Si      29.08468576      13.16659248       4.14225804
Si      29.23572419      15.89629617       7.60264945
Si      27.16712831      13.52099820       5.50355283
Si      33.63402357      13.37384864       8.93940619
Si      29.84843842      14.72383103       9.56897015
Si      27.32025135       9.02008601      36.52701019
Si      26.65452602      10.56913532       1.56105435
Si      24.99451321      11.08937327       3.21048985
Si      26.51266361       9.71116731       6.97951123
Si      27.39850233      12.06592220       7.40671175
Si      29.29951769      10.74109516      10.10512841
Si      33.97920402      20.11138920      34.52480567
Si      33.88594738      21.84525258       0.12664502
Si      31.29833174      23.37867363      37.79816164
Si      32.34379943      24.27239184       2.80852100
Si      34.04049656      16.75615390      31.56711161
Si      31.05690075      16.51053195      34.16841306
Si      29.34602485      16.78096554      35.77200501
Si      31.74146650      20.57150716      33.51547768
Si      29.97185448      20.61986500      35.11477221
Si      33.47842145      18.75577573      36.44595561
Si      31.59623637      17.81195422      39.80435860
Si      31.66207259      19.27060763      37.92058091
Si      29.76836462      18.28989484       1.25531279
Si      31.88576336      21.42413887      38.94005521
Si      29.61606196      18.98346314      36.75735256
Si      30.03995807      22.03965972       0.26778728
Si      27.75334885      19.57966554      38.10506080
Si      33.86343144      20.23734011       1.88213999
Si      31.82646940      19.02911676       5.20267624
Si      31.97561319      20.45852304       3.31596347
Si      30.03336914      19.49147133       6.64081360
Si      32.62113219      22.45639240       4.33721174
Si      29.92710272      20.51589380       2.10405957
Si      29.60488370      23.91139135       6.34488922
Si      28.07237053      21.06025978       3.46991979
Si      28.96625561      13.80713164      32.09351476
Si      27.31881662      12.84109642      35.75114316
Si      27.14548494      14.15719783      33.70838721
Si      25.53166953      13.42949771      37.26130669
Si      27.40455733      16.47520307      34.42320614
Si      25.75246304      17.08610358      35.94790083
Si      29.38844419      15.28545173      37.63589992
Si      27.54321011      14.36890216       0.93021235
Si      27.61370293      15.86392713      39.09653961
Si      25.55759435      14.73194844       2.17452168
Si      27.83958213      18.07697609      39.92090567
Si      25.63262914      15.70903877      37.83779285
Si      26.02853501      18.68619605       1.28137284
Si      29.54457642      16.76516736       3.09128081
Si      27.24256980      15.74483173       6.36119697
Si      27.60459680      17.19863993       4.45016295
Si      25.27193813      16.39332260       7.63927334
Si      28.04465205      19.42067207       5.17545939
Si      25.69339316      17.01104491       2.99193045
Si      25.90755783      19.87811801       5.97583438
Si      23.48670538      17.14808064       4.00631154
Si      30.15130540      17.90926673       8.42909206
Si      25.36108076      18.73286283       7.89926785
Si      25.42398228      12.27170505      39.30689500
Si      25.29002765      13.26507769       4.04980258
Si      23.33028756      13.88835237       5.19303793
Si      23.37387256      16.08883919       6.22070986
Si      28.16569495      21.87429653      38.65244849
Si      26.35607240      22.63293890      -0.03792380
Si      30.38680998      24.28954989       1.22779344
Si      28.16815777      23.22443442       4.56602669
Si      28.49705935      24.64986569       2.65376628
Si      26.14593392      23.66800023       5.75622487
Si      28.18839548      26.96312788       2.94999837
Si      26.56776803      24.56990171       1.32210911
Si      27.15934152      27.60277086       4.99315186
Si      24.28786794      24.56564739       2.11092409
Si      24.34557106      18.61410451      39.68257283
Si      26.17721192      20.98282582       1.92761999
Si      23.95553630      19.38880161       4.81685232
Si      24.25685478      21.22462076       3.32019145
Si      24.25541627      23.41794190       4.27222203
Si      18.25778866      21.98210405      36.87687645
Si      20.51791087      23.54171304       0.58973186
Si      20.09453435      21.75406676       2.10685406
Si      14.68195776      17.16849538      27.99320846
Si      13.44965161      16.04160255      29.86485125
Si      17.79224452      19.40442434      34.00586348
Si      18.25408176      17.42344225      29.67439702
Si      17.15284204      16.41978311      31.50999695
Si      20.55598772      16.78988850      32.88692690
Si      16.18860355      17.88343191      33.14084727
Si      12.42102403      15.71862842      32.07862427
Si      15.14548667      16.43050189      34.80675303
Si      23.70654797      17.05215950      34.77863985
Si      20.07920199      20.68453709      37.49919667
Si      20.93169354      19.39398325      35.77207626
Si      19.11347899      19.27366478      39.13347763
Si      19.42608616      17.86147419      34.74596085
Si      22.91844203      18.41145761      36.50418613
Si      18.70441155      16.42050218      36.48770942
Si      22.01721371      16.88115306      38.03411806
Si      16.73311237      20.61296599      35.72090987
Si      15.94017949      19.08240588      37.37674675
Si      14.03866512      17.94473458      36.44015672
Si      17.65271871      17.71352536      38.17504556
Si      13.68387264      16.69789435      38.62727505
Si      16.94600885      16.38145403      -0.01078628
Si      22.12872021      20.52775323       2.51741898
Si      22.48895757      20.00349017       0.20963704
Si      21.41782216      18.67463986       3.82909659
Si      21.06282822      18.20079624      -0.28695127
Si      20.39609923      16.81466440       1.49491819
Si      18.72540212      19.98414354       1.34473638
Si      17.02854680      19.13678696       2.97160867
Si      15.67537438      17.46324152       1.75295528
Si      19.22276091      17.98615068       3.17889266
Si      14.77637613      15.97103013       3.40030370
Si      18.43148444      16.36332519       4.76100989
Si      16.26470109      13.75248931      28.74809209
Si      12.59543600      14.11043209      28.82845457
Si      11.40395917      13.28490933      30.64483271
Si      14.32307680      12.45614676      28.42748280
Si      11.77178318      10.55009697      27.44355246
Si      14.05124980      10.85061915      30.11183679
Si      10.44470511      11.71697842      29.19584061
Si       9.32727287      10.94437980      31.24468317
Si      23.17750785      14.09279982      32.12134918
Si      22.05118339      10.69962058      29.86908802
Si      21.07797695      14.87605387      28.27477916
Si      18.99417500      15.11534292      32.21225140
Si      19.88222659      13.91977205      30.27279340
Si      18.20732945      13.69640654      34.00693519
Si      18.18583397      12.48092879      29.40048460
Si      21.51449838      12.52658780      31.34924790
Si      17.76163299      10.91224931      31.25886714
Si      20.98112178      11.09740493      33.18690460
Si      15.48780324      15.01663995      30.60881364
Si      13.80603451      14.69621342      33.79857817
Si      15.00524244      13.40612458      32.27444601
Si      13.20102783      13.09779556      35.50643514
Si      13.10737058      12.13224995      31.78992414
Si      16.75747951      12.08196274      33.08762348
Si      12.29834655      10.58388609      33.31575685
Si      15.85816531      10.68870450      34.82301719
Si       9.41059847      12.99490735      34.88639981
Si      11.35770013      11.68667928      35.14900742
Si      10.77882899       9.78197400      36.46295402
Si      25.19393708      12.95341434      32.71508867
Si      24.55304687      11.41642757      34.46261490
Si      22.27068614      15.38046059      33.89633282
Si      20.58040777      15.20146253      37.27559647
Si      21.68455770      13.90165240      35.65243236
Si      19.91211620      13.81730364      39.04497319
Si      20.00246350      12.40570865      34.91148931
Si      23.54985268      12.53289458      36.36412427
Si      19.21437422      10.97011242      36.63756071
Si      22.77815065      11.28542062      38.28421552
Si      17.01229653      15.01722917      35.65508295
Si      15.27367989      14.94234171      39.17358832
Si      16.34880946      13.58543737      37.46476640
Si      14.40670961      13.60973476       0.94663692
Si      14.90767168      11.92034087      36.59755229
Si      18.20868156      12.30851108      38.32216702
Si      14.07728274      10.53719426      38.39134196
Si      17.46447077      10.87253179       0.08733767
Si      12.17993849      14.68314012      36.83560699
Si      11.56323108      13.58766686      38.82857065
Si      13.03128143      12.03416658      39.89751889
Si      23.89808380      16.28453761      39.30119714
Si      22.23412147      15.71604944       2.45795211
Si      23.53575780      14.52524213       0.83679334
Si      21.30436869      14.31902262       4.09255131
Si      21.90248044      12.81425741      -0.07467617
Si      21.03964575      11.47283147       1.70432694
Si      18.89315910      15.22992514       0.62041018
Si      16.83463833      14.92670776       3.85924194
Si      18.08264601      13.79277368       2.25081574
Si      16.71693289      13.10172484       5.32378546
Si      16.37618845      12.35706323       1.57895509
Si      19.82658187      12.64761242       3.36200162
Si      16.10200010      11.38006297       3.68833849
Si      18.82656413      11.68738054       5.34001849
Si      12.90870768      14.60058344       2.76940652
Si      20.19438815      15.20751790       6.01774188
Si      16.64687691       8.46042621      28.60365628
Si      12.64868366       9.20565566      29.21192482
Si      11.36209894       7.68497286      30.55422369
Si      14.18200492       4.65475248      30.12954194
Si       9.54824503       5.22113313      31.69166509
Si      24.42896984      10.20404116      30.43798673
Si      24.15780041       8.58292874      32.23519520
Si      19.46916764       9.54629429      32.23243529
Si      20.98086142       8.57477040      30.60744501
Si      18.58528947       8.16796285      34.01136186
Si      22.66072826       7.02059602      31.34108798
Si      17.65937746       5.41775619      31.52382380
Si      21.64553609       5.95591850      33.15715953
Si      15.98052792       9.57622711      30.58163436
Si      14.12825321       9.27281415      34.02150850
Si      15.07417867       8.03654767      32.21483768
Si      13.26259918       7.89726947      35.79113386
Si      13.30485930       6.57264111      31.45204213
Si      16.79123997       6.75089147      33.24854367
Si      12.56548294       5.47364959      33.45562376
Si      15.94332996       5.28782079      34.96553106
Si      10.64898748       9.26782015      32.29775704
Si       9.65067543       8.52271975      34.31519634
Si      25.49176609       8.51070930      37.97055988
Si      25.81252644       7.57250371      33.61084419
Si      24.81408840       6.19254804      35.22576165
Si      22.91673065       9.80189032      33.92140937
Si      21.08671101       9.81650115      37.55649382
Si      22.11625908       8.51696965      35.86603605
Si      20.42968537       8.44132977      39.39626718
Si      20.50831085       7.05916113      34.90764799
Si      23.74512260       7.17405761      37.06406753
Si      19.68871493       5.66177103      36.65455592
Si      22.99491946       5.53155228      38.81399840
Si      17.61080032       9.45113116      35.76970359
Si      15.82586007       9.28439717      39.42519141
Si      16.76439387       8.11315228      37.56555929
Si      15.22993659       7.66661822       1.25937521
Si      15.04350500       6.64498193      36.69894031
Si      18.80039926       7.12887407      38.26429472
Si      13.47537661       5.82738385      38.30211391
Si      18.24184039       5.92526269       0.17233732
Si      12.48981248       8.88401514      37.78424135
Si      24.53896926      10.07150146      39.47861737
Si      22.80040027      10.24504434       2.68393777
Si      23.63503366       8.56471933       1.24694663
Si      21.97073832       8.97888179       4.47559182
Si      21.99627130       6.93729264       0.51522500
Si      20.98416555       5.28325220       2.50575786
Si      19.41037039       9.84562452       1.05540288
Si      17.57983104       9.77497471       4.56766520
Si      18.76042853       8.53656230       2.96941188
Si      17.32462936       6.93767767       2.02964401
Si      20.45963260       7.25611405       4.00016647
Si      23.93849911       7.97190439       5.17683592
Si      21.63461898       9.67931428       6.66525986
Si      19.81823878       4.72884529      32.34706127
Si      19.42754779       3.27838784      34.22319478
Si      16.00075762       3.65263022      31.28942124
Si      14.22499019       3.82070453      33.97360534
Si      11.14425058       3.81378793      32.61114094
Si      23.23893512       4.63132235      34.30700448
Si      21.33625320       4.19280182      37.64201555
Si      22.30321670       2.99331607      35.77883835
Si      20.37620359       2.74986693      39.29527896
Si      23.11563976       0.32893022      39.05766013
Si      17.91612025       4.28773848      35.82575647
Si      16.54391272       4.42186100      39.73298522
Si      17.06379878       3.18222198      37.79896910
Si      15.44186507       1.12552757      35.64647673
Si      18.46988935       1.32570889      38.46275295
Si      22.48466134       3.38500176       2.73525271
Si      24.30193962       3.72618901       0.04884848
Si      22.43510281       2.72202490       5.00988667
Si      22.27435272       2.04723213       0.53237608
Si      20.70395561       0.49032254       1.47641284
Si      19.51909784       4.18847652       0.95992535
Si      21.78797240       4.66490604       6.25168596
