3068
Lattice="40.0 0.0 0.0 0.0 40.0 0.0 0.0 0.0 40.0" Properties=species:S:1:pos:R:3 relative_density=0.96 cell_dim_angstroms="_JSON [40.0, 40.0, 40.0]" n_grains=239 grain_size=8.0 crystalline_fraction=1.0 grain_radius=8.722110763648523 pbc="T T T"
Si      13.21543291       8.66913261       2.02539108
Si       9.53184465       9.36641478       1.75308113
Si      11.44185349       9.31370827       3.09747999
Si      10.93203490       7.78934329       4.82133520
Si      16.26876692       4.20529974       2.89983228
Si      12.82339172       6.42757529       1.04980041
Si      12.59595502       4.91925026       2.81081161
Si      12.65304876       7.60460434       6.33686224
Si      14.32812218       4.85900965       4.17764484
Si      13.87065881       3.34200635       6.05924796
Si       9.12811488       7.26021162       0.82372391
Si       8.57699547       5.65699600       2.65607410
Si      11.95429709       2.88112299       1.82595430
Si      10.19001456       2.99782816       0.36150883
Si       8.26463862       3.58578910       1.66200443
Si      10.59352980       5.65168754       3.93807383
Si      11.98703288       3.97227852       7.13259520
Si      10.09591243       3.97628437       5.68502604
Si       9.77746104       1.97364551       4.79930024
Si       9.67517063      15.68349434      16.03321670
Si       5.79971480      16.03536619      13.55204761
Si       5.71369336      16.70815497      15.86099222
Si       8.60490627      19.20522944      14.92348270
Si       4.48805337      18.47240500      16.13628152
Si       4.94441857      20.26528037      14.74777999
Si       7.24584471      21.02968775      15.19113166
Si       7.26243498      21.71728006      17.53525982
Si       8.19939700      17.36821138      16.32826322
Si       8.15068595      18.06089639      18.54173222
Si       6.59365553      19.93223898      18.85582452
Si      14.99105564      39.11470703      32.58681945
Si      14.07634919       0.46502977      30.76994608
Si      11.91255788       1.19446070      31.11104095
Si      11.32584689      37.80908344      33.10875103
Si      11.84342229       2.20592625      33.02719906
Si      12.97395624      37.26065251      29.07643856
Si      10.68360281      37.99283532      29.47985569
Si      10.02387035      36.07495770      33.38527960
Si      10.08367451      34.69223422      31.48411579
Si       9.46759224      36.09257669      29.63851507
Si      10.68385664      39.24290155      31.38376221
Si       8.49261898      39.93230655      31.78645551
Si      29.16362508       7.05471626      37.04558805
Si      27.24899834      10.20915290      36.34913736
Si      27.27459185       3.85849005      38.36993656
Si      27.49239824       9.07409488      39.74768533
Si      27.52739522       4.54927963       0.51130369
Si      25.48078574       6.06821275       1.22764413
Si      27.21682704       5.82400189      36.86429801
Si      25.26748140       8.97201785      35.86953303
Si      25.41535197       7.11702820      37.43207450
Si      25.50745697       7.96190089      39.67011952
Si      27.73348169       9.80015860       2.05144077
Si      24.43611991      16.77715320      33.14498737
Si      22.55807234      19.99639465      32.49659655
Si      26.20819729      18.07340232      34.30418557
Si      26.14346018      20.26646976      33.39794583
Si      26.72861961      20.01097687      31.09327906
Si      27.93183105      21.37580543      34.53683826
Si      24.14750529      21.22062041      33.64711052
Si      24.88739747      23.29698049      30.56068450
Si      24.26891004      23.54873008      32.74408335
Si      22.33303823      24.58185174      33.08491247
Si      26.53958608       3.39921400      29.03395967
Si      25.67907890       1.67723434      23.96869091
Si      23.02384929       4.93619536      29.01458113
Si      21.15038798       5.23770337      27.74871205
Si      21.48336676       6.46016827      25.72553282
Si      27.86784791       6.75013087      27.54567504
Si      23.92844330       7.08162146      29.57936445
Si      24.42316441       8.23343190      27.50021916
Si      24.58188140       3.74262535      27.68958872
Si      25.11077627       5.01144647      25.65268852
Si      25.94592574       7.04547402      26.24663592
Si      18.80529803      12.99386545      33.16062477
Si      17.63537558      11.71527158      29.84192164
Si      19.72338272      10.85650671      33.67909564
Si      18.72995288       9.51699299      30.18003899
Si      18.46423499       9.53858112      34.67809974
Si      17.22696870       8.15215170      31.35009464
Si      15.85965904      14.68554015      31.51363136
Si      15.16785184      15.57016444      33.45709291
Si      13.64811079      14.15593353      34.56504337
Si      14.27306645       9.90469275      29.51108834
Si      13.96874537      14.46309691      30.14193253
Si      12.52972474      12.95805569      31.00418124
Si      16.94453370      12.63750760      31.90709030
Si      16.57587000       9.03136679      33.26355472
Si      15.39665596      11.12509887      32.94450458
Si      14.67585541      12.15788975      34.87859343
Si      13.50666105      10.95693662      31.59213579
Si      15.31031940       7.86658814      29.86110247
Si      30.62394340      35.64961801       0.37396685
Si      28.88301315      32.96552454      38.34314662
Si      28.96513346      37.18282172      39.72246802
Si      27.15028827      37.26218734       1.18313061
Si      31.25768879      31.93915808       1.07542655
Si      29.67453725      33.40830544       0.42033905
Si      27.80454490      33.55750124       1.91234972
Si      25.52738425      34.54834290      39.00943691
Si      25.58977722      38.74836253       0.57958120
Si      23.75962688      38.70507373       2.08313041
Si      26.85486458      31.38549898       1.88128321
Si      26.32985640      35.08610261       1.32830011
Si      24.35735245      35.01583131       2.65565788
Si      23.52844850      32.96379948       2.81062116
Si      13.13641063       9.51881399      12.39779768
Si      14.34679040       7.45228399      12.89997999
Si      16.46198130       8.08738810      14.18598854
Si      11.69858580       7.59650574       9.35142273
Si      13.02625108       5.67629084       9.89607653
Si      13.19486108       6.17556702      14.32896311
Si      11.24131369       5.47204009      13.17484230
Si      13.48943054       4.32773891       7.94951465
Si      14.66633207       2.54828884       8.51109760
Si      14.94537882       6.28161068      11.13128519
Si      16.17883470       4.37427657      11.59331301
Si      16.65884934       3.10319379       9.47428631
Si      26.38070658       4.34008377      21.66765915
Si      28.18231907       8.40539963      22.63849682
Si      29.45076047       6.71135777      21.65886470
Si      28.38660479       4.43903916      24.77778905
Si      27.11595983       3.10551009      23.43634353
Si      30.20584166       5.31458867      23.61251705
Si      28.35075119       1.43371795      22.56776672
Si      31.45940218       3.60404244      22.62713868
Si      27.29734887       6.67097204      18.55777836
Si      24.96916608       2.99563241      20.34354094
Si      24.14304611       4.35524879      18.37931361
Si      25.97118083       5.14430395      17.13036792
Si      31.15432337       7.55683744      20.55907759
Si      32.44558902       5.69396655      19.73076220
Si      29.10625455       7.32899346      17.35896637
Si      30.28073078       5.79631257      16.47870085
Si      28.09410708       5.36693214      20.28793125
Si      30.17926760       2.19727263      21.35225393
Si      29.29588488       3.50674622      19.57094495
Si      31.13194230       4.42469515      18.27316284
Si      33.29757565       4.46851277      21.43735430
Si      38.10473986      33.76460007      13.92971713
Si      39.35854410      34.79511210      12.16223113
Si       0.25410229      33.28962003      10.61379780
Si       1.73141921      31.83674600      11.72469413
Si      36.99053358      33.38173626       8.75815010
Si      35.14391859      32.15445205       7.76245556
Si      38.42083949      31.96613775       9.70094694
Si       0.08852035       8.87782538       1.15403707
Si       2.19975578      11.55010178      39.81222342
Si      38.24158624       9.75631213      39.99589283
Si      37.05161038      11.49242044       1.32997072
Si       0.46639266      12.56287171      38.52831716
Si      39.43367607      14.12481398      39.88099606
Si      37.57709152      14.96287815      38.73261596
Si      34.15556071      13.89623258       1.36277419
Si       1.48199482      10.61224080       1.77721593
Si       0.42637877      12.19210481       3.14097132
Si      39.18965083       7.98654183       3.17870896
Si      36.21654700      10.22453641       3.29199932
Si      38.00179764       9.45987454       4.30746011
Si      35.10353273      11.85305784       4.49352761
Si      37.29777404       8.30501971       6.40848181
Si      39.52450452      11.09745173       5.03717733
Si      38.35126113      12.60405370       6.32738692
Si       0.92279016      15.92393172       0.57629920
Si       2.63398350      14.90329330       1.79993637
Si      39.74545250      17.43866163       1.98496906
Si       1.95216298      13.79832398       3.76981723
Si       0.80932075      15.42233879       4.96091339
Si      38.51631436      13.01557589       1.89886615
Si      35.57868989      15.53497311       2.00937681
Si      37.38319653      14.62116412       3.31688354
Si      36.55703649      13.57152556       5.08090919
Si      38.83174330      16.32730682       3.83529245
Si      10.43733463       8.37636368      14.14609934
Si       8.80428638      11.47100780      15.79098039
Si      12.61055192      11.08663042      15.85034642
Si      12.46722779       9.51426611      13.98641429
Si      10.92355125      12.56450935      15.68545542
Si       6.68212701       8.61243981      14.19843363
Si      10.34127625       6.76340574      12.38644149
Si      10.41684767       7.94274779      10.36150470
Si       7.07568003      13.00889603      15.46893673
Si       4.98278645      11.80729565      15.69505964
Si       4.83512498      10.31496846      13.93387458
Si       4.92917116      11.43023662      11.84904632
Si       8.53588539       9.88669743      14.00474679
Si       8.80889893      11.11493620      12.01485987
Si       8.70538633       9.42831124      10.10005343
Si      13.93459473      31.02873936      16.27042596
Si      16.66646042      34.09154724      19.94830892
Si      17.43734038      31.00204367      17.89290225
Si      19.64686863      31.81736862      17.57496316
Si      13.90184289      28.73172626      16.22898470
Si      17.45734268      28.70107074      17.72413808
Si      15.33622425      27.83786689      17.92403103
Si      14.50213400      28.59783901      20.07264943
Si      16.68670035      31.70704359      19.86087121
Si      20.22989697      31.70020383      21.38418655
Si      18.16828224      30.84370984      21.61281055
Si      17.99852381      28.60397876      21.51442796
Si      39.46822398      16.06425959      20.79151104
Si       1.87454281      17.99637970      18.39968100
Si      38.19386774      18.10215059      21.02434679
Si       2.99632983      14.68905209      20.02346278
Si       3.96823660      18.48605320      18.02511381
Si       4.84734394      19.76195972      19.87403691
Si       1.64932125      16.63887061      20.34219394
Si       1.24833655      19.86989080      22.62551736
Si       4.74902796      18.45651629      21.81281090
Si      11.19005409      14.86540792       8.08639385
Si      14.16983682      16.75377054       6.64691427
Si       7.51656224      15.94672068       7.34300456
Si      11.14908991      13.41795950       6.16735577
Si      11.81111465      14.72408526       4.36885836
Si       7.52263866      14.61792841       5.42140526
Si       8.28594906      15.89386367       3.63667463
Si       9.82606029      16.66227729       7.81216901
Si      12.80873346      18.57236655       6.37959120
Si      10.51118048      17.76253433       5.94624245
Si      10.53200482      16.53732306       3.91834534
Si       9.08951113      19.86865732       5.67479230
Si      23.23474842       7.89152179       7.40277360
Si      21.47865343       8.06990391       8.97789374
Si      22.24779251       9.48079671      10.70783106
Si      28.17691545       9.89653157       7.76049444
Si      24.98960642       6.67685010       8.38909084
Si      25.78453271       8.11663247      10.08002350
Si      29.29005639       6.62801758       9.51601309
Si      23.77515818       9.79184195       6.41185923
Si      24.64451662      11.22561527       8.31381681
Si      23.08499771      11.55646610       9.90814941
Si      26.39772775      10.16642792       9.21134118
Si      27.35353031      11.48389575      11.09190178
Si      20.56706945       9.71872091      12.30761517
Si      21.46597211      11.06040332      14.19269589
Si      27.63036640       6.95951283      11.15370990
Si      28.52979933       8.22899014      12.95332437
Si      26.11984535       6.45385846      15.28868283
Si      24.14923701       8.35885241      11.75940152
Si      24.91794652       9.72489687      13.47807522
Si      23.25338593       9.95270558      15.06281579
Si      26.72682173       8.60212943      14.45635238
Si      27.54824234       9.84627731      16.21825134
Si      29.14725852      10.33623794      12.01910572
Si       6.74147891      31.44648404       0.73015258
Si       5.54778830      33.28933875       3.95562537
Si       5.68767382      35.28719746       2.65835803
Si       7.84474736      31.12093356       6.01982732
Si      10.04578918      28.70846476       8.18562284
Si       3.92766726      33.28493059       5.57415031
Si       6.21465348      31.01334998       7.82146708
Si       6.71876809      33.00411610       9.19827514
Si      11.07017067      28.88024148       3.86326046
Si      11.56588200      30.70893536       5.37365041
Si       9.97490419      30.69350304       7.03387818
Si      10.49029625      32.66621919       8.39147063
Si       7.79434050      32.94759835       4.93503697
Si       8.08693898      36.78540751       5.00580175
Si       8.31163028      34.77484372       6.20701203
Si       6.64744964      34.91670347       7.84753681
Si      10.43907270      34.68230963       7.30182470
Si       8.86104408      32.76133186      10.12261660
Si      33.95561678      17.56672034      15.71144224
Si      38.70288222      14.75683170      15.64616636
Si      36.06068181      15.71753911      13.03626164
Si      34.63752106      15.84666327      17.17907538
Si      34.97810612      13.75631251      16.18945231
Si      32.02548843      16.76410796      14.58647718
Si      32.40079661      14.73748160      13.53099107
Si      32.84256517      13.15512616      15.10780757
Si      36.66188927      13.91700955      14.61227130
Si      38.69034477      12.29060895      12.04006183
Si      37.03398646      11.98726917      13.47749048
Si      39.03316554      10.15902506      10.70534947
Si      34.93912888      11.36957238      12.43984566
Si      34.59690216      27.53787912       6.48592485
Si      37.49202714      24.39977574       3.07469101
Si      30.33626933      26.13396969       6.36864833
Si      31.57402583      26.75179323       4.41986160
Si      33.41321008      22.87412074       3.12300798
Si      34.27836094      23.66742303       1.22578839
Si      30.71895757      25.63538721       2.77182888
Si      31.81262670      26.29851500       0.67607847
Si      30.94783764      29.47335268       7.93957843
Si      34.11815312      29.88899396       6.13267618
Si      32.08126710      30.27748567       6.10962148
Si      31.22250679      29.07783419       4.21840726
Si      32.18569284      29.74919137       2.17490952
Si      33.86052990      26.29790941       4.69368425
Si      34.91528034      27.14716607       2.79613192
Si      34.10516640      25.91778782       0.84327131
Si      36.65997944      23.16811259       1.41627408
Si      31.38668048      28.67929888       0.30142919
Si       3.37531056       1.22917596      27.91444283
Si       1.78780292      39.62513976      28.20074870
Si       2.48659214      37.79927501      26.88246416
Si       7.20989823       2.17662903      28.59576924
Si       3.74318953       1.68024451      25.61836415
Si       5.24107508       3.49946867      25.44028247
Si       7.45697542       2.64249166      26.33650212
Si       8.10053663       0.60993189      25.00958145
Si       5.54946061       0.42831767      28.77809333
Si       4.44265483      36.90313208      27.81429331
Si       6.07555696      38.44998674      27.65465697
Si       6.36893582      39.00067998      25.41569658
Si       8.17618716      37.67436863      28.36310564
Si       2.58977837      38.24220196      24.71952213
Si      12.21924705      34.30458218      27.10345640
Si      14.21187490      31.14316148      26.56579772
Si      14.01249317      33.36819141      25.75729344
Si      14.38775601      26.79712983      25.95596932
Si      16.32626157      27.91541581      26.08102996
Si      17.51340155      25.94121539      28.93637405
Si      13.47625897      27.82333666      29.36565887
Si      15.09031751      31.15178346      28.79211155
Si      15.36147600      29.04530626      29.56850229
Si      17.00078942      28.03114797      28.22989010
Si      19.04221264      29.29068312      28.37518210
Si      17.20206384      26.77724866      22.57761252
Si      18.10400544      26.98550961      24.70428065
Si      15.92453819      30.14528401      25.15308459
Si      17.60838708      33.54874550      24.50573033
Si      18.03782673      31.42033627      25.41012550
Si      18.75047753      31.45710201      27.59682547
Si      11.70104699      20.57851305      36.41903014
Si       9.58383040      20.28264621      36.95562390
Si       9.07920167      18.16544663      37.63100101
Si      12.37082535      19.16395343      34.65242669
Si      12.01995138      16.88388160      35.26547236
Si      12.57710064      15.38266921      33.57544176
Si      12.34897085      13.18691286      34.21254850
Si       9.74890329      16.63097177      35.88265664
Si       9.34420790      14.37883158      36.43953905
Si      12.39872394      16.07827476      10.87183040
Si       9.98830097      16.63982986      13.74526230
Si       5.82867896      15.43253211      10.73709613
Si      10.27537796      16.12612256      11.43742908
Si      36.08332740       4.40240939       3.53038532
Si      33.71649416       2.60614014       5.79251924
Si      38.95847603       7.30619430       5.36812913
Si      38.49105182       6.96900258       7.51538056
Si      37.40254119       3.39353006       6.83414513
Si      35.51019746       6.49087009       4.25497819
Si      34.73087576       6.23228399       6.54127093
Si      33.12231776       4.63665644       6.64357892
Si      36.62369625       5.42648063       7.79361208
Si      32.43943805       4.48173456       9.11938299
Si      36.06560515       5.18089760      10.01483773
Si      31.84419836       6.42270986       9.81062510
Si       0.31074061       6.15199462       8.85075310
Si      35.50831133       7.29180235      10.74916313
Si      36.23562641      39.81682976       6.16652928
Si      39.33382896       2.59660715       8.05515247
Si      35.65909110       1.86087745       6.95319923
Si      34.31192560       3.64937472      10.13581297
Si      34.96794869       1.56160568       9.22139042
Si      33.35421685      39.94156593       9.40512017
Si      12.26584273      18.12305718      29.55789511
Si      12.39997739      20.31452158      29.92706118
Si      10.90822799      19.02084755      26.03205718
Si      11.04742582      21.32555417      26.60374738
Si      10.38429905      21.06072864      31.12774436
Si       8.95373859      22.05638030      27.64929860
Si      10.47374612      23.30763712      31.69618364
Si       8.92355241      24.34550829      28.18811556
Si      14.77735429      21.01814461      27.22553118
Si      14.19257711      20.72900145      31.64246326
Si      14.27972080      22.99004966      32.16283318
Si      16.49428400      21.33998197      28.63583324
Si      16.64665065      23.64684198      29.23059497
Si      11.37627762      22.56251579      24.74345624
Si      15.32047463      24.53708409      25.85746790
Si      12.79889781      21.63208547      28.03341217
Si      10.95146563      24.59491688      29.77204934
Si      12.82297495      24.01988899      28.83259246
Si      10.94250121      26.83073114      30.33212340
Si      14.58737086      24.18170844      30.26250189
Si      13.17356629      25.11770169      26.80906175
Si      14.68906517      26.49274797      30.92738419
Si      12.12735436      23.57533945      33.15919349
Si      16.98766484      24.80355425      27.29007905
Si      37.13940927       3.15039867      19.62970527
Si       0.34987951       0.49700434      18.11100245
Si       1.55779279       2.96492830      20.72735901
Si       1.90025271       5.12773876      21.13156056
Si       0.63003106       2.73146477      18.52417566
Si       2.46662223       3.49755113      16.99465408
Si       6.67574900      26.50455737      10.85469530
Si       9.77581610      28.58048108      11.38619918
Si       6.40874235      30.01131571      12.50498327
Si      10.02163084      25.13768384       9.88032099
Si       8.89247570      26.28467802      11.37171344
Si      12.56009711      24.02268724      12.53635333
Si       9.12563603      25.44117290      13.47086614
Si       5.40420930      27.76369607      12.32666215
Si       5.79294257      26.81668325      14.42714812
Si       5.87117422      24.40689906      10.69812976
Si       5.86921353      23.39206561      12.92474961
Si       8.24641530      23.25618567      13.54954679
Si       4.91730230      24.65380391      14.64407581
Si       8.40624086      22.20267122      15.59043957
Si       5.06165915      23.76555891      16.61676253
Si       8.68365090      30.03174618      12.99543768
Si       9.57097099      32.01467901      13.00187400
Si       8.99261571      28.92861450      15.10138828
Si       8.55019168      32.27312637      16.71806578
Si      11.27405922      25.41781725      14.13108791
Si      12.40188565      27.55451996      14.16870312
Si      11.14059675      28.69345778      15.70167550
Si      11.29580942      27.87265547      17.83502626
Si       7.73627863      30.25654444      16.65628161
Si       7.94730034      26.70644448      14.97757109
Si       7.40756878      23.63769629      17.07315004
Si       8.13684198      25.78300493      17.23039315
Si      10.50632990      25.73325543      17.78134663
Si      30.04314922       9.05762142      22.08061306
Si      31.18316802      12.74207639      22.80112126
Si      29.48487965      10.43982799      16.89615638
Si      30.61463541      11.18297338      21.10459599
Si      32.15675784      11.03413942      19.55368426
Si      33.65224372       7.95318537      21.54611132
Si      31.59200488       9.44239043      17.87409797
Si      34.65630557       6.36247980      18.10928100
Si      33.08434845      11.81999954      23.87543327
Si      34.83532505      11.66710058      22.30416748
Si      33.34387161      14.62087766      20.36393384
Si      35.24303230      13.70602789      21.29795936
Si      35.64704903       7.17452043      22.41261777
Si      37.28115932       6.90771079      20.84269630
Si      36.82752473      10.86966713      23.29752653
Si      34.13059636      10.21497346      20.59537641
Si      35.84721508       9.97773830      18.95298987
Si      37.78547230       8.99403150      19.95491263
Si      24.21345748      39.57295181      18.92463068
Si      25.03712558      38.38097341      15.34193316
Si      21.54081575      39.23860070      16.38157721
Si      23.82966598      34.97016112      14.34024763
Si      20.72481208      38.10464372      14.56582333
Si      23.50285122      38.18725667      17.16066456
Si      23.13740955      36.06144439      17.93066221
Si      22.29483274      34.81754781      16.01342186
Si      24.93498812      33.07695695      11.92701417
Si      26.12102895      32.12470880       8.33610861
Si      29.39057642      32.63287165      11.61371282
Si      27.65577918      33.87343458       8.39445448
Si      26.59342397      35.63866747       9.67115335
Si      27.97781813      37.54707579       9.49001673
Si      27.57848353      30.95470442       5.07297560
Si      28.88535198      32.82657320       4.94908068
Si      29.78386600      33.39402304       9.35971919
Si      30.71221146      31.62814942       8.25005987
Si      30.94047955      35.34316820       9.29072548
Si      30.95351744      32.26833070       5.95902157
Si      32.37252194      34.22367514       5.82751849
Si      29.34021360      36.46351179       6.07325948
Si      31.39258235      35.94632245       6.98175405
Si      18.22268468      26.64298928      33.08361448
Si      18.05818420      27.97762444      37.40912968
Si      19.92195240      28.35685470      36.16795698
Si      22.24037764      26.19546768      38.54146551
Si      20.11919705      26.70706500      34.37411441
Si      22.05886231      27.05689120      33.17372672
Si      21.71961584      30.13999327      39.11212437
Si      25.56286304      30.38269927      39.09260578
Si      21.79095119      28.42884352      37.44786134
Si      23.74946211      28.67446594      36.03921771
Si      23.47641049      30.85546380      35.03549343
Si      25.66209231      28.65144911      37.47280471
Si      22.87681493      26.27251777      28.08867003
Si      23.19311137      24.75551552      26.30087989
Si      25.35624089      24.99182560      25.56190911
Si      27.82123851      23.92706218      22.77766639
Si      23.01917924      28.26144619      27.40059553
Si      22.71518453      29.92506624      29.22346506
Si      25.12901550      28.65894812      26.47296013
Si      24.43013547      25.71474332      29.78991975
Si      25.57706452      27.34778888      24.70486792
Si      28.00321904      26.26120101      21.95152851
Si      27.71762855      27.61283263      23.80983992
Si       5.69637559       7.80774296      28.96454275
Si       4.17191478       6.17710986      25.87503877
Si       3.36621123       2.97911883      28.06705408
Si       3.80733540       7.52591751      27.67733857
Si       2.17686215       6.55287104      29.16141632
Si       1.62306032       7.88942525      30.82407390
Si       2.86511157       4.42425907      29.66499133
Si       1.19448887       3.47659810      31.21668285
Si      16.78123429      38.73434125      23.52282150
Si      20.20453259      38.93781806      21.66019029
Si      18.25480709      37.60355655      22.05253516
Si      18.99289304      35.51628493      22.96152066
Si      20.13710115      36.06903295      24.92070528
Si       3.05233815       1.70088589      29.71277933
Si       0.72701933      38.71926087      29.43286724
Si       2.52850929      37.26097268      30.42273559
Si       4.76637887       0.43589285      30.61428929
Si       2.20843386      33.24013092       0.44714740
Si       0.45909689      33.84904530       1.65613921
Si      38.84988210      32.09542412       1.88408406
Si      37.09898837      32.71602965       3.15892599
Si      38.24859644      14.40406722      25.30337124
Si       0.14842359      11.05631037      26.03021169
Si      36.52327419      11.50961082      27.23254894
Si      36.26806089      13.36303027      25.68979533
Si      38.10782363      16.12385194      23.82327570
Si      37.23993669      15.33407818      21.61499244
Si       0.87705486       8.68874692      23.24911175
Si       3.52339317      12.35787757      23.35662954
Si      39.85051235      12.90626628      24.58323484
Si      39.04824960      11.96371351      22.46838173
Si      35.52379274      35.96808008      25.65927001
Si      35.83979406      35.86877312      28.00883232
Si      33.32811907      35.37051653      22.64231018
Si      37.41872422      34.99914198      24.62759437
Si      35.06780803      34.32967314      21.62685987
Si      33.52075111      35.09799504      25.02122888
Si      33.54389685      32.70298178      25.50055931
Si      35.39820665      31.72935976      24.36921995
Si       0.43967729      23.18979011       0.20817647
Si      37.97869443      25.54452321      38.69010976
Si       1.96683241      23.67667708      38.38497361
Si       0.74621851      24.26665139      36.54830665
Si      36.48487580      23.85230590      38.13831712
Si      39.44919712      22.58955551      35.87488474
Si      35.42882928      24.44140420      36.22821052
Si      38.19413099      23.07030088      33.96112805
Si       2.00098111      27.41896939      39.42912998
Si       0.86170369      27.80910427      37.51999217
Si      35.53132105      28.11859449      37.17629297
Si       2.21349783      24.67163858      34.76770679
Si       1.03615710      25.23061390      32.74336981
Si       2.41150855      28.38554741      35.76863711
Si       1.17136434      28.99877585      33.80058697
Si      39.54771542      26.05893873      36.87846930
Si      36.87967725      24.95164331      34.25379148
Si      38.19509144      26.80377463      34.99882950
Si      35.68527832      25.55754845      32.40816136
Si      36.98357271      28.59414193      35.46175222
Si      39.68387456      27.27606808      33.33236307
Si      34.02889908      26.32642147      36.60612215
Si       2.86082746       1.28455555      19.39828749
Si       2.79753018      37.29778114      17.26113444
Si       4.86161211      38.41742142      17.61760133
Si       5.30412699      39.91328402      15.90673343
Si       2.17953120      37.03509702      21.12345916
Si       4.27076101      38.25027964      21.52436208
Si       4.79206222       3.71763953      21.81844065
Si       4.08645322      39.61196770      23.42708488
Si       6.15723344       0.71657291      23.75012445
Si       6.53888604      36.93221863      17.92862974
Si       6.07549790      35.46385564      19.78982338
Si       5.86647909      36.81509220      21.64135538
Si       4.60652358      39.74848709      19.71468046
Si       7.13010743       2.41491395      18.14662433
Si       6.77709145       0.88002657      19.97264567
Si       6.38106665       2.14480506      21.89548653
Si      13.81788514      35.27492303      18.71843895
Si      16.57348468      37.70978604      17.58324027
Si      12.81566347      35.59385745      16.63587991
Si      15.04895547      37.26607095      19.37700872
Si      13.45963189      39.01768866      19.62114216
Si       7.92383542      26.73610599       2.66794172
Si       7.58971508      26.68464268       6.55950730
Si       6.56855210      25.86849892       4.58921429
Si       4.37864737      26.64573554       4.42475737
Si       7.85350293      29.12829143       2.87761748
Si       5.75255746      29.77798227       2.72081731
Si       3.38287113      25.97623744       2.47690506
Si       4.71625784      29.21029602       0.75734176
Si       7.65456926      28.98260195       6.59788817
Si       5.45913108      29.71156921       6.65664130
Si       5.13238999      29.61457043      10.37567030
Si       6.37322393      25.76410698       8.44171540
Si       3.19319353      25.90714584       6.30913035
Si       4.10753827      26.53521640       8.25156053
Si       4.20912207      28.95324110       8.31599190
Si       3.33973123      32.95653532       2.62503451
Si       4.50876983      28.99075112       4.50050388
Si       2.10149193      29.70231619       4.43710827
Si       1.99778086      32.17024477       4.41645393
Si      34.83351626       0.66637542      28.14783841
Si      34.25646819       0.06680336      24.41730318
Si      34.22686835       2.48096022      24.11627784
Si      36.05093190       0.15427817      30.10266967
Si      35.98674600      37.84428439      30.31510586
Si      38.99058940      37.44254689      28.11941740
Si      35.67661541      39.65594422      26.26030147
Si      37.71010837       0.36122586      26.00744161
Si      39.03029152      39.74084427      27.87222517
Si       1.11007340      34.56687574      20.55019798
Si       2.92202771      34.90326373      17.18007337
Si       2.28047531      36.06437146      19.12894470
Si       0.96130996      37.78238055      18.57351269
Si      39.20479919      33.75163472      19.41063544
Si      37.81445711      35.47347261      18.78932276
Si       0.20383391      39.10327340      20.41232420
Si       1.04772610      34.11391848      16.00676620
Si      39.60382235      35.91337641      15.51749597
Si      35.89013547      34.64136417      17.73617172
Si      36.59148743      33.49535242      15.90895382
Si      34.43369147      36.40528804      17.18903801
Si      38.96805923      37.02400232      17.39382722
Si      37.49331390      38.75607846      16.86598380
Si      38.67163799       0.30527931      15.46555448
Si      35.57550578      37.79932174      15.71105684
Si       5.25522001      38.33219612       9.20420423
Si       7.22505129      37.95141860       5.80994338
Si       5.38789656      39.00193971       6.93570586
Si       5.37680438       1.23237788       6.54761293
Si       7.42249569       2.04165320       7.71730431
Si      38.32927308      21.28958036      17.04313550
Si      38.75222409      18.83249878      19.81050605
Si      35.25376638      18.99695490      18.24671229
Si      36.85515704      17.67878068      19.12684190
Si       1.52225258      21.13725782      18.68509331
Si       2.59094377      22.22801417      16.90712090
Si      39.71905514      19.81564291      18.06251348
Si      23.91623445      24.01801631       5.87722372
Si      24.38468699      26.10745394       2.56356212
Si      23.08585161      25.91877718       4.55602350
Si      20.89601765      25.53936143       4.11225883
Si      37.65715776      12.49920725      28.46918738
Si      38.55083098      13.01732928      30.50539656
Si      37.89083255      19.45530605      29.53465822
Si      39.28837281      15.85956701      27.24043648
Si       0.09521876      16.21347571      29.47438999
Si      36.58709580      16.20358463      30.68805762
Si      38.45432710      17.42414700      30.58041020
Si      39.31616025      17.85970267      32.80485877
Si       0.60858679      14.23752170      30.48148499
Si      39.79988821      15.83150959      33.91892677
Si       1.40782547      14.79014346      32.59952447
Si       3.32337299      15.84400850      32.50963541
Si      24.52013775      32.74648842      31.57951819
Si      25.15885887      32.27578227      33.84140456
Si      27.75317902      35.00636154      33.57212311
Si      30.10746522      32.88910473      35.65577980
Si      28.57038545      36.77533397      34.51932651
Si      29.32768137      36.50164568      36.68341417
Si      26.06271712      34.10700899      34.93785939
Si      24.75975584      32.82513327      38.24964514
Si      26.55421276      33.85306531      36.95028019
Si      28.24017581      31.94977850      36.97515687
Si      30.98259100      34.65444027      36.75419669
Si      21.05906593      13.90580346      38.11881813
Si      24.65721054      15.09953803      39.59070343
Si      15.78374596      13.67966530      35.93406450
Si      22.52653050      15.83563909      38.75842234
Si      19.21280403      14.71389804      37.37434415
Si      20.54666742      14.80710677      33.79239098
Si       5.27732407      12.07186087      32.45024737
Si       7.10921994      10.60572828      32.00781948
Si       5.20869797       7.95244098      33.94883372
Si       8.76807188       8.22503496      29.66774934
Si       9.04633332      11.97229753      31.90206451
Si      10.87269414      10.61332270      31.40915220
Si       5.48190182       6.35126198      35.63975704
Si       7.37977151       9.21129282      33.82522891
Si       8.89196777       6.72550461      31.31875464
Si       9.12236488       7.74706308      33.31574345
Si      11.04778229       9.14388003      33.43558702
Si       9.29870479       6.24287345      35.18920800
Si      25.03798853       8.61285561      20.12891390
Si      25.03746968       5.79475792      23.49656849
Si      23.65710177       7.60011601      23.47252436
Si      26.46136315       9.95535413      23.32840984
Si      24.64178690       9.31781087      24.47859420
Si      23.50733294       4.37005318      20.25643333
Si      22.07008722       6.25324265      20.23750202
Si      24.55628455       9.25615669      17.75968462
Si      21.69043549       6.79585627      17.86930583
Si      20.14811685       8.63737969      17.83039532
Si      20.04988724       8.78065638      24.51352263
Si      20.09296572       5.64196264      21.29151284
Si      18.49004266       7.46899334      21.10587474
Si      23.08369289       8.09657085      21.19573295
Si      21.55181454       9.90700859      21.14815248
Si      19.57150961       9.30529223      22.24398797
Si       7.07727324      11.47628945       6.15789285
Si       6.31118442      12.72052130       1.97539718
Si       5.09976251      12.72603905       5.73412280
Si       5.80853409      11.22262567       9.92634885
Si       3.88668962      12.39289255       9.42197196
Si       5.44603891      14.96390356       5.88485097
Si       4.34815294      14.65795631       9.65222514
Si       2.44600104      15.94361695       9.05227411
Si       2.87553264       9.72057231       6.77092643
Si       4.46374879      12.13082059       3.37807476
Si       4.02171103       9.96575925       3.15522730
Si       2.32169691       9.39559477       4.57536128
Si       2.17113176      11.83852666      10.66856594
Si       1.69410738       9.46454128      10.49778588
Si       1.20312811       9.15901000       8.23856614
Si      39.09951300      10.40794170       7.59900797
Si       3.33932494      12.03627005       7.03669340
Si       1.82948367      15.57446738       6.79672426
Si       1.33953690      13.29334219       6.45056826
Si      39.67822528      12.62629716       7.95970329
Si      17.79163573      20.37628776      20.60840778
Si      14.35415327      19.79334584      19.57009049
Si      16.90722637      21.44371002      16.39325057
Si      16.19310660      22.74384990      18.25700696
Si      17.08098690      25.89395216      20.58806988
Si      14.18942576      23.93807268      17.58712719
Si      13.44337969      25.11743791      19.42751482
Si      15.93312176      21.37271522      20.05788366
Si      16.80742936      24.15576799      22.36288079
Si      22.05375899      15.59229687      16.64654348
Si      22.98157150      16.03217995      20.36751945
Si      23.34088904      16.70115231      18.06166971
Si      23.22870829      22.74115840      23.41829799
Si      19.44410770      25.30901999      22.44010177
Si      23.26919799      24.71527108      21.91145350
Si       1.00009044      23.51549557      20.13045354
Si       2.20814513      21.69891860      20.58318306
Si      37.80501185      24.91144325      18.33714672
Si      35.90165336      24.14250505      17.03464260
Si      36.48619227      23.06460817      15.17260098
Si       2.87983334      24.08301022      16.65296799
Si      39.00256596      26.34023017      16.91121500
Si      38.98635246      22.97086224      18.86854789
Si      39.62237721      22.03851171      16.70562691
Si      22.53818273      28.17305133      20.27659845
Si      21.64587065      29.52742784      18.45543327
Si      23.41903452      29.59453867      21.82936989
Si      21.57747863      30.91866333      22.82583462
Si      21.42948330      26.24033039      23.77573820
Si      19.18484781      29.58469095      21.98161148
Si      22.45223739      28.29326316      23.31299231
Si      20.10538893      30.22541810      25.70271515
Si      22.35872774      29.56028910      25.19913021
Si      20.07484932      27.10093183      28.05148344
Si      29.03417974      21.08965751      10.47818810
Si      28.55122217      22.72746409       8.94014212
Si      26.85888599      21.95838287       7.50815265
Si      28.24349570      24.37534738       4.71501693
Si      27.62892679      26.01979835       3.10715957
Si      26.37844828      23.67111202       6.04844836
Si       7.66267250      21.33452853      13.41722118
Si      11.56804146      17.79712886      11.91404948
Si       9.58093949      22.00651947      12.30215238
Si       9.81624114      20.76740023      10.30472615
Si      13.47653647      21.93857450      12.72493656
Si      13.56723081      20.90464649      10.56002335
Si      13.62116586      18.54323452      10.86759450
Si      11.86762491      21.54119345       9.28901053
Si       7.76257621      17.88085061      11.55306118
Si       5.74018892      21.95376848      11.98332141
Si       7.88512267      21.42490183       8.86404945
Si       5.90791079      20.81401303       9.95788719
Si       5.91883912      18.51181327      10.27779913
Si       9.90842689      18.49437170      10.61104473
Si      31.43844132      36.96361228      37.93941697
Si      28.32236223      39.14807544      38.62430294
Si      29.94014199      38.48642989      36.85302730
Si      31.03042326       0.37329954      36.13277283
Si      32.53327514      38.05523340      39.64057639
Si      33.63136576      39.92733538      38.84121281
Si      32.98620151      36.28510290      36.12425762
Si      34.13757771      38.18580758      35.36275665
Si      35.08872620      39.20390638      37.13082501
Si      29.53485260       0.07144150       0.45667494
Si      30.63976973       1.99141533      39.59106979
Si      29.48727970       1.85840952      35.15468129
Si      34.91764893       0.94217611       0.58535720
Si      32.20933335       1.49122106      37.81038369
Si      34.83347748       2.72239613      35.51156190
Si      33.26632858       3.20996757      37.10432756
Si      37.97710855      26.52732085      22.74956674
Si      39.21817958      30.07263980      22.10670950
Si      36.96132827      28.54109992      19.46939736
Si       2.17980460      27.33235207      24.12709426
Si       0.36242376      28.02593628      25.32069006
Si      37.31473583      24.92532237      24.30618122
Si      38.72681494      28.56646124      23.74764703
Si      36.59377505      29.38017221      24.95049598
Si      35.86005059      27.57789001      26.45441161
Si      13.97755170      11.94773809      24.67723035
Si      15.59366185      12.85714441      20.38757611
Si      16.57920685      11.04146430      16.35939627
Si      13.98334836      11.69580548      19.12794759
Si      12.98576991      13.39373663      23.14696581
Si      11.34461802      12.24453342      21.81529929
Si      12.82661269      13.22723126      17.64499875
Si      15.15389582      10.22525623      23.12158891
Si      13.43653220       9.30212408      21.88480138
Si      17.81937771       9.61827755      20.36126943
Si      14.98000688      10.07895442      17.72588161
Si      16.03863748       8.48226827      19.03254205
Si      13.31124438       8.97858608      16.40366762
Si      12.44608037      10.72765087      20.54602725
Si       9.60695283      11.22088679      17.94569118
Si      10.75435492       9.67957908      19.19626371
Si      20.83904454      37.42091328      22.57252696
Si      20.38270097      34.26624630      20.33622500
Si      22.54446012      37.15836330      19.21309239
Si      18.40596638      39.51404005       9.19649701
Si      18.13808881       2.53268754       6.69781006
Si      17.00878983       0.55697206       7.69342569
Si      16.28007577      39.17762750       6.15308526
Si      20.35572923      38.82307439       7.89356564
Si      19.47336686      37.26395066       6.23539298
Si      16.57749943      36.31233541       8.54604960
Si      15.06588231      37.38701642       7.25795996
Si      18.50682315      35.38638531       7.34760006
Si      19.91441220       1.64512964       5.38685183
Si      18.98859016       0.27202134       3.71763393
Si      15.90929776       1.97156483       3.61623526
Si      17.70019365       1.19331916       2.42623641
Si      16.74716946      39.76506466       0.74782020
Si      20.86666114      39.28219017       2.47490634
Si      18.02294517      38.35760550       4.84805920
Si      17.21917005      36.82003868       3.21281020
Si      15.64174740      38.02050866       1.83951484
Si       0.68290002      17.79855093       8.15932792
Si      38.46887639      17.86735482       8.58799339
Si       1.57150749      20.51582021      10.81585799
Si      39.24400739      20.53281784      11.20397462
Si      38.32903830      21.66866467       7.83749839
Si      37.36562243      19.47763771       7.39779687
Si      35.90933544      22.20202104      10.69812088
Si      37.54251709      15.83346900       8.36955293
Si      38.40276378      18.41407740      10.97648779
Si      34.98035347      20.15404770      10.19627704
Si      36.04762590      18.50932784      11.51769671
Si      32.53400443      20.33219573      10.76367124
Si      34.97896345      16.45833607      11.08983683
Si      33.50796845      19.28606382      14.40426725
Si      35.75319183      22.92634115      12.79189828
Si      32.47843474      20.86492824      13.16087140
Si      16.83887340      14.62628916      18.21110964
Si      17.01877178      16.32463917      19.85291210
Si      15.36386064      17.82957741      19.46884385
Si      14.84302659      14.34616322      22.15757483
Si      12.90703566      15.85314749      21.65739971
Si      15.01128239      13.52783659      18.33041511
Si      13.14002280      15.02715248      17.90296661
Si      15.71438202      18.85135883      17.25389222
Si      15.54131550      17.14385958      15.52987731
Si      11.08505538      14.00196011      18.12446505
Si      13.21364148      16.86611694      19.53879086
Si      11.49252656      20.05589912      20.68571536
Si      11.41983935      18.35180360      19.06207071
Si      14.80697551      19.81804142      25.68277945
Si      12.68110001      17.10978695      24.13463224
Si      12.44475199      15.11667238      22.98403372
Si      14.66769156      17.78044174      24.57664331
Si      15.96051349      17.84081315      22.53230742
Si      34.53957935       8.69891406      37.62253800
Si      35.36538145      10.76417909      36.59746214
Si      30.86406329      10.12093810      37.59200205
Si      31.77805565      12.13887883      36.43662822
Si      33.26491096      11.01134418       0.66889338
Si      33.98391143      12.89730476      39.49678366
Si      35.83787900      12.21856605      38.23263419
Si      32.41170025       7.83906512      34.76372995
Si      33.04154195       9.71077548      33.54311783
Si      35.00780819       9.33463077      32.20519739
Si      33.64076139      11.45652554      35.18161875
Si       7.82642600      16.14786977      39.71303966
Si       5.88262956      17.43982341      39.28353778
Si       4.78622856      14.99423689      36.56122368
Si       3.46301948      14.69501916       0.16105170
Si       4.10698233      16.97984878       0.77440714
Si       2.94257202      14.35350023      38.12614391
Si       2.17844871      18.25913155       0.19072372
Si       6.59103036      19.65650045      39.58593058
Si       4.71070179      21.04108701      39.08071152
Si       3.54273269      18.56300889      36.41387510
Si      29.89980236      35.86584838      29.57733793
Si      30.23295030      33.85274261      28.50323528
Si      34.02883788      33.73954073      29.45623910
Si      29.09036855      35.32096176      25.16316384
Si      30.81617784      34.15847751      26.26832619
Si      31.21682148      32.11783266      25.12752547
Si      29.22537489      30.86456171      25.21679164
Si      31.50762400      15.77228839      22.29092179
Si      31.62310579      13.94052301      18.82180138
Si      28.72247004      13.24106250      21.40998276
Si      34.39956364      16.41991371      19.93833414
Si      32.13638904      15.93803328      20.23270832
Si      30.83902518      17.74903005      19.13294722
Si      29.22455884      15.20140619      22.48187992
Si      27.97090340      16.88602567      21.53510213
Si      31.45094200      19.66146769      20.32522723
Si      29.99882901      21.47533774      19.23201958
Si      29.32520186      13.50163848      19.14067216
Si      28.93289567      11.46805344      17.85029549
Si      28.10300092      15.20796294      18.11633122
Si      29.50073362      11.72010592      15.69975750
Si      31.52643379      17.90740867      16.83883172
Si      30.99867851      16.04218753      15.74153267
Si      30.20825415      19.59896486      15.83354597
Si      28.71689347      15.51526660      15.99249878
Si      30.87302637      19.90649333      13.58589087
Si      25.65168753      16.45509065      21.62917072
Si      28.58853568      17.25968693      19.37369153
Si      27.86304080      21.01955378      19.45847404
Si      27.36376118      19.00324114      18.19618566
Si      28.02904962      19.26665221      16.00994241
Si      30.71588965      21.62637616      17.09208531
Si      29.56000784      23.50123470      16.07397067
Si      12.26954421      31.76471652      35.40278936
Si      15.14369819      35.49291890      38.00796458
Si      11.34558419      33.77607221      36.34007092
Si      12.49166359      35.56663791      35.25446873
Si      14.33096890      37.65407248      38.90194819
Si      14.58786646      31.61127729      35.90991728
Si      15.58889391      33.40169895      34.82456402
Si      12.07135665      35.42296410      33.02089360
Si      12.82679986      33.30790674      32.05300403
Si      14.73153833      35.48064195      35.70521987
Si      14.96159142      39.25989592      35.49851496
Si      15.76201665      37.22756436      34.58042945
Si      18.02833447      37.19109580      35.04029094
Si      26.45384919      30.62157960      13.05178354
Si      26.30160646      29.20151279      11.10059855
Si      22.92928800      31.10341445      10.02838870
Si      23.87256840      28.91697315      10.54563953
Si      23.80760601      27.56126694       8.62373232
Si      27.25775176      30.26679522       9.12774381
Si      27.16885081      28.89153169       7.40048998
Si      28.09589234      26.70937480       7.82604713
Si      24.26135633      32.01503764       8.27916591
Si      24.02828628      30.58467638       6.29625813
Si      28.18245456      28.33432556       3.71373962
Si      25.07422947      31.62299916       4.48793592
Si      24.85189904      30.35385943       2.56686251
Si      24.87403753      28.56316846       6.90206734
Si      25.86438580      28.23702353       3.05616031
Si      21.57052418      14.70847687      31.41887731
Si      24.06369542      17.09999764      29.93400655
Si      23.13778648      15.95342411      26.46100686
Si      21.64287249      10.90099863      30.57759025
Si      23.06778812      14.36646196      33.32107980
Si      22.62495500      12.05761908      34.04750264
Si      23.22776820      10.63934151      32.54509659
Si      21.16124025      12.00672863      26.22516482
Si      20.86528297       9.79869600      27.03159074
Si      23.39614225      12.32662574      25.54351475
Si      22.36925435       9.47692560      28.90730345
Si      24.49773158       9.64045798      28.13887216
Si      22.12565446      13.09052634      29.72971976
Si      24.60267546      15.62316120      28.26543489
Si      24.29110236      13.45882706      29.26148480
Si      24.80465151      11.89935709      27.43102503
Si      30.88270234      17.45716730      31.77222196
Si      28.44850777      16.39206214      28.99788556
Si      33.92816599      19.50715109      31.05569948
Si      32.52587829      17.79895594      30.20975443
Si      33.79940641      15.79251530      29.87031519
Si      31.52906528      14.82929604      27.11541852
Si      29.29302099      13.86715898      24.16124638
Si      34.68871300      17.05951498      26.40818207
Si      35.49706705      16.40524517      28.44958211
Si      33.22281195      15.23991063      25.57001238
Si      34.61353304      13.38001733      25.12317691
Si      29.48068477      15.78167061      30.99580990
Si      30.85878588      13.64020170      30.48159059
Si      30.10341150      13.19832919      26.31077286
Si      31.43582986      11.18314446      25.89647493
Si      32.47043551      14.18013421      29.12165770
Si      33.78092808      12.20071370      28.84689641
Si      34.76477231      11.51610949      30.86590418
Si      26.69285445      10.17464529       4.72480863
Si      26.22068964      13.85565056       5.60380549
Si      25.76559744      17.58412574       6.53279838
Si      27.86617864      13.72698722       7.23609685
Si      29.54782147      17.98087935       6.90792439
Si      26.19178277      16.07095483       4.79592448
Si      27.99897349      16.56156176       3.69941809
Si      26.46332635      12.35811426       3.81731901
Si      30.44161011      12.67414598       4.34991318
Si      28.63111417      12.82975063       2.73325053
Si      32.31076317      13.32867174       3.22697672
Si      28.45878797      15.13926518       1.93797414
Si      30.40505853      15.47455192       0.82101767
Si      29.38044526      20.17516274       6.00364247
Si      27.87649031      18.74740754       2.92215095
Si      29.80962016      16.49819495       5.30572124
Si      29.90264513       8.09135578      30.02189728
Si      31.57544687       9.56658493      30.82723915
Si      30.10581285       9.52887302      26.67977934
Si      30.35728789      11.59610227      31.54205468
Si      31.97186094      13.15848318      32.19400849
Si      33.86427878      20.69807921      39.45121991
Si      31.72672414      23.20517987       1.54336070
Si      35.24669805      20.33042096       1.37626493
Si      34.25345841      18.53185168       2.53474669
Si      31.81026936      21.33149049       0.25830505
Si      30.72280293      19.56798628       1.40576841
Si      34.08591779      16.49874127       1.29673036
Si      30.64754275      17.75608887       0.08675584
Si      33.11472064      14.72768175       2.49375438
Si      29.90969285      21.57655416       5.28595528
Si      31.96934092      19.05754074       3.27464670
Si      30.49851071       3.65627337      39.92008263
Si      34.77461523       4.24834379       1.45185804
Si      33.55233053       5.93051478       0.62496704
Si      33.77935706       7.77953380       3.75445603
Si      32.40504682       7.03323117       2.15942303
Si      31.08494936       8.78801673       1.22319808
Si      36.14419000       6.23160278      37.83455854
Si      35.11023840       7.47382267      39.62040137
Si      32.09832720       5.15902038      38.91680923
Si      30.78885366       6.89860888      37.90085354
Si      29.68947184       7.93054055      39.60962853
Si      29.92704138       9.99866007       2.92525375
Si      11.63866550      34.14670575      39.85169628
Si      14.09806022      34.62395399       3.46738831
Si      13.62581824      32.54810511       4.68750703
Si      13.68146245      32.69064476       0.00487540
Si      10.59279486      34.50428693       1.78717382
Si      10.11917271      32.42614831       2.97724738
Si      12.17160945      31.18648630       3.36608159
Si      24.04312946      34.18583332      37.15495836
Si      26.96712232      38.77880480      37.23744554
Si      22.71686151      35.06423465      33.79681000
Si      26.44471698      37.59070488      32.85231771
Si      24.84243057      36.84044754      31.15654576
Si      22.89926585      36.56144560      32.06556057
Si      24.09480526      35.62533413      35.44362801
Si      24.89137964      38.47251880      38.06575493
Si      23.49221179      37.64421977      36.40374210
Si      28.37172300      21.53296180      36.97336311
Si      26.27740974      22.57159158      37.43778103
Si      26.56916922      25.00145757      37.65105058
Si      25.87003428      25.36252795      33.87468502
Si      31.10484781      21.20023732      34.34364787
Si      29.46219408      24.55738057      35.04053436
Si      33.07122918      23.88378044      36.31084015
Si      29.79847189      21.93294985      38.70688830
Si      28.30971143      25.24283753      39.41065633
Si      30.24331084      24.29088904      38.78686914
Si      28.62390387      27.54808115      39.60499814
Si      31.12824532      25.09525121      36.76354050
Si      31.52867820      27.44338698      36.90088314
Si      27.68912358      25.76250079      35.61518350
Si      27.98362938      28.18651768      35.71675943
Si      26.57582555      28.68145193       0.06497039
Si      35.87376160       1.88286570       1.67500535
Si      37.89560378       4.28529699       3.59956550
Si      37.13814614      39.94257643       2.41301188
Si      38.81927459      39.79932658       0.90345971
Si      39.30347750       2.59972614       4.31643807
Si       1.19094536       2.29411409       2.82672526
Si      37.14232100       3.54681874       1.47112427
Si      38.72428812       3.35950125      39.93535712
Si      38.56781349       7.17399510      38.98406268
Si      37.86769913       2.91525020      37.76553625
Si      39.63736250       2.57871270      36.31007404
Si       0.04878210       5.43741415      39.82215972
Si       0.07473777       1.74469964       0.80738512
Si       3.41930903      39.88125070       0.07432688
Si       1.92202472       1.43636660      39.19776857
Si      35.81597791      38.38454972       2.57182219
Si      34.79017397      36.20929945       2.28664552
Si      35.13494174      35.15374864       4.32886472
Si      34.19219216      32.99287759       4.31176054
Si      34.85018478      31.67606321       6.25690337
Si      34.42594151      36.30725941       6.24896378
Si      37.56364793      34.85320728       4.55411611
Si      38.14141315      33.77770131       6.68642447
Si      12.68565375      15.71564643      29.19243820
Si      10.81173376      15.71656290      25.81306961
Si      11.75364788      17.01223983      27.55685727
Si      13.29606150      18.49159419      26.51223119
Si      12.65520181      14.39955258      24.93305669
Si      18.91806055      32.02966140      39.56300186
Si      16.53111253      32.33620082      38.98782593
Si       6.97696257      13.75775862      12.62585060
Si       8.34648776      13.21475282      10.68720564
Si       7.02842533      13.53828455       8.74212690
Si      11.49534715      14.15483631      12.49164260
Si      12.23135707      11.93356316      12.66262212
Si      10.27465080      14.51628658      10.70514590
Si      30.64086460      12.90285462      39.79974739
Si      27.14426363      13.43064225      38.77808772
Si      29.28583838      16.38856480      39.94762590
Si      29.01864825      12.15348742      38.39028473
Si      29.74447324      12.52550578      36.17921406
Si      31.30086686      15.20589471      39.44849883
Si      31.90489297      15.42039511      37.33440338
Si      27.60287775      15.87470211      38.51364106
Si      28.35526855      16.08062117      36.31578991
Si      25.39590096      12.95617166      37.35777301
Si      26.58924231      15.45464125      34.77561043
Si      32.42300529      17.74036044      36.97118489
Si      30.62621623      18.98274239      37.25941303
Si      28.87277278      18.25521070      35.78147992
Si      29.51360022      18.61556726      33.65164535
Si      30.24603132      14.68686043      35.77125056
Si      30.85885797      15.04828219      33.65946914
Si      31.51805555      17.44495739      33.27222913
Si      20.17010802      13.73102634      27.42204069
Si      17.65934006      10.15785908      26.81348891
Si      16.92638094      12.16619959      26.07886843
Si      13.83300976      11.92557526      28.17408455
Si      14.65764362      12.21888292      26.29140208
Si      17.80245575      13.83186125      27.54260867
Si      17.06423811      15.88950406      26.75744427
Si      35.51417734       8.87659226      30.51157788
Si      35.57434411       3.42141056      29.88392952
Si      36.82129483       1.94201635      31.07190888
Si      38.32624427       0.57478824      29.70160551
Si      37.12368816       4.83174004      28.81952426
Si      38.61188650       3.77656590      27.40653555
Si      39.79587696       2.25139818      28.80666360
Si      36.59414010       8.95691433      23.36935643
Si      37.04898377       8.30647281      25.66071656
Si      34.43912114       5.91564996      22.64488098
Si      34.74943186       5.01062469      24.84197717
Si      32.74212283       9.07314425      24.06756636
Si      33.21383691       8.36186666      26.17061190
Si      37.23664797       9.99143629      26.90139709
Si      33.34511766      10.20484962      27.65122407
Si      35.07303889       7.01051594      26.33133246
Si      20.69589427       4.03492531      17.55710413
Si      20.47995789       6.52515474      14.61657367
Si      20.85913954       3.58578619      12.09010439
Si      19.26984595       7.72301223      13.15715708
Si      22.20005139       2.78279284      16.26127761
Si      23.38451054       4.07492897      15.01660394
Si      21.78174667       8.14189026      15.96562956
Si      24.64845511       5.71175032      16.21474940
Si      21.97993354       5.11275456      13.33230181
Si      33.73481252      19.74618870      37.81793636
Si      33.18105957      21.28802296      33.53646583
Si      34.02093120      22.62746533      35.29062328
Si      35.04165479      20.31643635      32.60204557
Si      35.26762752      21.44495484      36.83693143
Si      37.04107723      20.32357156      35.83234122
Si      35.00115887      18.50244318      39.24718398
Si      36.73586407      17.30597151      38.26544309
Si      36.24059101      19.02064822      34.26195382
Si      37.18917622      21.39693690       0.10253041
Si      38.93188165      20.29593486      39.17072960
Si       0.46382787      21.97870910      38.23941837
Si       2.33881953      20.75778049      37.12701174
Si       0.09303851      19.04775100       0.72778923
Si      38.04770607      18.91978514      37.41546200
Si       0.02508046      17.77874574      36.39339033
Si       1.11919946      16.54386233      37.86616880
Si      30.51452311      27.96089229      12.97441731
Si      30.73507821      29.47943824      11.17518855
Si      31.96494954      26.15287598      12.54339209
Si      32.88110779      30.22922911      10.81121717
Si      34.27852814      28.41400555      10.47648406
Si      37.18352378      30.27313433      12.13793136
Si      34.15480524      27.03155224      12.27506882
Si      36.56064402      30.73223252       8.51479531
Si      35.88906173      29.72946517       6.47474667
Si      36.44840092      29.22776405      10.21477702
Si      37.87882911      27.34318445       9.78784618
Si      22.90989686      37.67024984      37.92315224
Si      23.07936055      34.34042893      39.86468188
Si      22.99983029      38.88024747      39.83352119
Si      21.82141744      34.25227609      36.28270714
Si      21.76937819      35.46645132      38.21212603
Si      19.69485627      35.77718917      38.83616411
Si      18.52966114      37.07419989      37.39061371
Si      18.91840512      18.74769017      31.21698696
Si      21.70517027      19.27485347      28.66051039
Si      17.51770255      17.62461952      29.46163990
Si      21.62548207      21.36357483      31.74125178
Si      17.55387885      19.75327374      32.58956019
Si      16.25753613      21.43750354      31.53814128
Si      20.30126075      22.36157960      33.39154044
Si      19.10485720      24.01934092      32.26436093
Si      23.08302066      20.77929154      27.53749669
Si      24.48920912      21.85117491      29.22702529
Si      21.90085502      24.55716888      29.75212283
Si      20.27166404      20.44993990      30.12976808
Si      18.95236524      21.98261788      28.95764396
Si      17.67649030      22.97927868      30.65783941
Si      20.46743622      23.56491714      28.03554979
Si      20.44674235      25.54452925      31.40682773
Si      14.41617629      24.94469274      38.20472928
Si      11.85833107      23.38679973      35.70882042
Si      11.25114983      23.43328240      39.51518070
Si      15.24272092      24.94373773      34.30082622
Si      13.62315303      25.12971683      36.00063425
Si      13.24565011      27.34214487      32.01698518
Si      12.39554530      27.20155152      35.68068033
Si      12.89618957      25.16507567      39.68640301
Si      11.66994983      27.19303372      39.57560000
Si      11.09355317      27.15171699       3.34959123
Si      16.07763097      26.75916400      38.33680522
Si      14.97550071      28.82696382      38.08225550
Si      14.00359821      28.96649828      36.01025807
Si      13.27565093      28.96039373      39.87541721
Si       9.10802674      25.64363971      37.14038090
Si      11.39076846      27.32077128      33.77215501
Si      10.08206304      27.44463689       1.24600700
Si       9.09911452      29.39647765       0.93009530
Si      10.77482759      27.40583475      37.34762141
Si      11.08351621      31.22947545      37.52751110
Si       9.70104957      29.37771181      37.31490245
Si      12.00173555      31.24795033      33.78776407
Si      19.13922118       3.39762743      37.44561776
Si      20.77843902       7.43052455      36.48275386
Si      19.64300536       6.20535609      34.82842519
Si      16.90051253       4.00604853      37.83721132
Si      19.78293029       3.81388090      35.29348705
Si      18.55524356       2.72620856      33.79324012
Si      16.27721079       3.36285637      34.10315903
Si      11.95847779       4.99795541      23.14351244
Si      17.26203053       6.87467344      19.69892114
Si      15.85752235       7.11708938      23.98862960
Si      14.37519653       7.67771754      21.99507009
Si      14.90338008       4.04729317      20.83239287
Si      12.58325646       3.63922039      21.33698169
Si      15.13251413       6.34876438      20.17725908
Si      12.19829603       7.27983589      22.55645083
Si      15.60622069      16.50601959      38.28225689
Si      13.13296766      13.00965243      36.66999810
Si      12.81040679      13.76997844      38.95759873
Si      14.28904494      12.63254653       0.26517718
Si      11.84958430      17.30325779      37.69274009
Si      14.61959829      19.83676958      37.13743155
Si      12.47224660      19.70567147      37.83276967
Si      12.05974927      20.33585253      39.97088765
Si      10.55830548      13.43418100      39.53791311
Si      10.21474761      14.29942570       1.90636192
Si       9.51270399      17.72293480       0.57315625
Si      13.41466021      16.09899116      38.99146206
Si      13.13370155      16.88069446       1.15326197
Si      13.60704634      19.16364328       1.42180759
Si      10.77519084      16.50572767       1.88449858
Si       9.92119474      19.99582667       0.69851020
Si       4.83209424       6.86246061       6.39884056
Si       7.71578128       6.32255483       3.97324282
Si       5.69784091       9.44976805       3.82716467
Si       7.73225537       8.62407761       3.63713237
Si       6.93544680       3.52869925       6.66529904
Si       9.05148759       2.68801796       6.35004066
Si       7.02004806       5.92625693       6.12335588
Si       8.54582133       9.23128320       7.45387243
Si       8.49181120       6.98649967       7.70896200
Si      16.96044325      20.16048871      22.89691088
Si      16.09366892      24.21941168      24.24736923
Si      14.75895627      23.25157494      22.69400821
Si      10.30010233      20.08632570      23.64295923
Si      14.82269029      20.96748000      23.12774612
Si      13.44431858      19.74332315      21.33709827
Si       5.92354837      23.52059340      32.97242317
Si       5.49071617      24.02437086      28.59370931
Si       4.26391793      22.31583208      31.71895479
Si       4.83651366      21.80500792      36.18104600
Si       3.20029871      20.69163494      34.88349826
Si       2.36289292      23.58475145      31.67719296
Si       1.15081381      21.76556038      34.90705645
Si       5.12590900      22.08096009      29.55461690
Si       3.88825402      20.26298050      32.65477013
Si       0.29795574      20.35455605      31.56441013
Si       2.28953269      19.15726006      31.62333944
Si      38.04163799      39.30040831      32.43320722
Si      34.27804730       0.29339547      31.61762369
Si      36.44761526       0.99688111      32.77046066
Si      36.20378545       1.47776713      34.90367571
Si      33.60681861      38.33461443      32.77141961
Si      31.55000712      37.87374472      31.91806943
Si      32.85557873       2.02797091      31.96485905
Si      32.52096133       2.47647960      34.31183764
Si      23.22400643      39.78868355      30.69210696
Si      25.27274033      38.05166587      27.94468683
Si      24.28673310       3.32725090      31.69967741
Si      24.82257466      38.73278785      32.29881674
Si      26.85749399      38.43178545      31.42297724
Si      24.17649396       1.78979992      30.00785123
Si      26.06781782      39.99498963      27.11122334
Si      26.29745907       1.47907478      28.95853554
Si      27.55988971       0.49124203      30.67720615
Si      26.55828746      36.86951362      29.55131615
Si      11.62390507      29.50432802      19.23779698
Si      11.51485768      27.69745143      20.78690681
Si       8.53692520      29.40181672      22.43068018
Si      10.73070305      28.57244790      22.80609140
Si      16.30469937      34.02986800      23.08086321
Si      18.43174627      33.10492604      23.29288781
Si      12.81334915      33.76886898      21.16493168
Si      12.99423665      34.80497743      24.93442115
Si      12.66821861      32.53078153      17.64963743
Si      11.63880220      32.55773113      19.77353021
Si      15.01873372      32.77956187      21.50288246
Si      14.85188615      30.47938048      22.22502254
Si      33.14977030       2.36153255      22.23777107
Si      33.16826016       0.19116388      18.98255694
Si      32.82273497      39.96426615      21.31328022
Si      34.24968733      38.61375840      22.28544504
Si      35.27179661       2.93917194      21.89335997
Si      36.81186776       1.38951240      22.97453132
Si      35.46859968       0.93632886      18.53433476
Si      36.86999007      39.37940829      19.69603112
Si      34.23320133      36.62573547      19.08508739
Si      36.44131727      39.33400750      21.95094074
Si      37.96050402      37.76249489      22.95918271
Si      37.59590490      35.60509714      21.95937764
Si       0.09107523      38.47402344      22.51267263
Si      22.40580802      19.39415398       5.47987077
Si      26.05090465      20.17271989       5.25897633
Si      21.89026522      20.98505053       3.89290133
Si      23.72119292      21.29094134       2.45718379
Si      26.46855436      18.32225417       4.13688788
Si      24.58646014      17.53223980       3.07366634
Si      24.08425041      19.18494349       1.40547132
Si      25.80557517      19.49397093      39.94185444
Si      23.21536606      22.93760341       1.01622760
Si      25.66141886      21.82554599       3.61086222
Si      29.40180265      22.81438630       3.42593416
Si      27.38734985      22.08071821       2.10927388
Si      27.81145250      20.11536242       1.01406391
Si      26.89455032      23.85509544       0.62407776
Si      33.69286787      13.80121886       3.64679459
Si      31.09552432      13.61713040       6.61806696
Si      32.74395516      16.54816472       8.22983721
Si      30.68483422      17.33505622       9.01681267
Si      28.60236101      13.50958371       9.33725774
Si      30.11406554      16.46610181      11.21482948
Si      34.91013393      13.35536091       7.39402136
Si      33.58817975      11.38373376       3.56374277
Si      31.10570761      11.32570143       6.43070466
Si      33.08399018      10.55445420       5.63818055
Si      30.49720841      10.27181068       8.44309736
Si      33.04566415       8.09553416       5.54127230
Si      34.68645539      11.14822181       7.27048266
Si      34.31089882      10.11007193       9.21592477
Si      30.45170146       7.85855849       8.29725452
Si      34.51072814      17.18369990       9.97972562
Si      36.53950588      14.04884029       8.98483312
Si      32.70814320      14.33398000       8.10034994
Si      30.09533683      14.10234324      11.00629546
Si      32.19469614      13.27340680      10.21225251
Si      32.12107160      10.98910181      10.00345907
Si      33.70511815      13.91416524      11.76070993
Si      31.60424752      10.00551119      12.17154805
Si      28.39099283      11.04935716       9.18416607
Si      31.79915528      17.03319780      12.55592270
Si      19.18551505       1.59240152      16.75120011
Si      17.30781568       2.47419895      15.43911549
Si      20.56087533       0.16414602      13.25570493
Si      18.82357033       1.16467944      12.24918475
Si      19.66442950       4.68878779      13.30946618
Si      16.61553300       4.37757388      16.64076422
Si      18.35052825       5.99011146      16.67846638
Si      14.67999860       5.28162628      15.46985300
Si      19.46339164       1.52631234       9.96925111
Si      17.94311599       3.00780181      13.25451771
Si      26.65704967       3.63746989      16.09568434
Si      27.25864651       1.31710413      15.69410138
Si      23.45218504       2.62521271      17.90851491
Si      27.12512070       0.83154319      19.62475231
Si      26.21793433      39.64175268      21.33980331
Si      26.27623524       0.26969163      17.47199840
Si      29.43553796       9.30550059      34.79010810
Si      29.20510427       7.76881896      32.77951717
Si      25.45150754       7.26083601      33.45238377
Si      25.06756656       8.63074144      31.43434130
Si      27.58600870       6.09904629      33.09209552
Si      27.51569385       4.69482906      31.33886712
Si      16.50260423      17.69063596      33.12732063
Si      16.53885619      18.30249757      35.47116847
Si      18.40074282      17.10548179      36.39029029
Si      18.45794362      17.79833216      38.76909686
Si      25.58210431       0.05562322       3.29572055
Si      28.10322124       2.78055029       3.85569408
Si      23.24966850      39.46637478       3.75291672
Si      22.92764362      39.23391204       6.03968720
Si      28.55443167       4.96137945       4.89159210
Si      27.09615100       6.41186320       3.92689039
Si      25.83772017       2.15559969       4.29377289
Si      24.55100379       3.89127160       3.28880214
Si      24.81848143       5.91387652       4.38370790
Si      27.53140682       8.65264618       5.01493717
Si      37.63514538       7.26623370      14.33231288
Si       0.99832645       6.47225978      12.92900539
Si      38.84678526       6.31903263      17.94800242
Si       2.12864424       7.33431566      14.81806319
Si       2.29189312       5.51748094      16.44503580
Si      39.91001014       7.26409209      19.84009918
Si       3.38777898       6.39671795      18.41443197
Si      38.97985569       5.49816944      13.48407765
Si      39.18474977       3.93199743      15.08520529
Si      35.50911991       6.26941627      15.02249039
Si      36.79327541       5.49797969      18.42000905
Si      35.83917361       4.52639424      16.54348721
Si      37.17907365       2.87811185      15.60098488
Si       3.75933038       3.85913115      15.50248572
Si       2.72084312       3.04962786      13.50948961
Si       0.20631401       4.59763093      16.97879970
Si       2.67289141      16.78193156      10.64030102
Si       2.69053107      14.11211538      14.47455507
Si       0.71871054      13.39828431      10.33468831
Si      39.48377320      13.99160652      12.32371361
Si       0.64753353      13.24568110      14.23645234
Si       3.98515341      13.67181285      12.52411903
Si      22.12555028      11.26927868      23.50645659
Si      23.26847959      11.56859377      21.54360844
Si      22.87568325      15.28712086      21.79610861
Si      25.92949253      13.56659233      23.16465750
Si      25.55516996      11.73692296      21.81217990
Si      26.58837308      11.90464823      19.79506218
Si      19.69334741      11.42683262      18.63133980
Si      20.75843077      11.61784171      16.59994598
Si      19.42823712      15.27080587      18.94066419
Si      22.47314135      13.57773496      20.28949306
Si      25.95255312      13.94144884      18.70582881
Si      23.51367687      13.72175621      18.38555792
Si      23.14050519      11.87323707      16.91906405
Si      17.70979841      37.87241513      12.20067175
Si      16.17119421      37.93183385      10.40624782
Si      14.42343096      39.62735270      10.93044173
Si      16.61278742      37.38074596      14.26073751
Si      15.06030071      38.85357205      14.70347458
Si      12.37861696      36.92736739      12.64364136
Si      12.86837737      39.74156350       9.28680058
Si      11.26649699      36.33237158      14.82633120
Si      13.39224454      39.01723492      13.01184939
Si      12.81879358       2.79751973      13.66247824
Si      11.87578016       0.54207602      13.54418397
Si       1.37276699      16.61919311      13.54748234
Si       2.95012409      17.87771774      12.47672126
Si      39.24662621      17.06806231      12.54394458
Si      17.35877052      35.38583404      23.81164214
Si      14.08756838      35.80848237      22.02420280
Si      16.33087712      35.84385986      25.75957750
Si      12.93593546      36.42727571      23.89123187
Si      17.21877937      35.94252217      20.07316673
Si      16.21467940      36.52602232      21.91899920
Si      15.38127810      39.37927655      24.38391461
Si       9.86242764      38.17128993      35.84895943
Si      10.11927803       1.61998441      37.53075032
Si       8.00524856       1.28498207      38.47106149
Si       8.20604883       0.30465390       0.56251002
Si      13.21675144       0.91621204      34.26775758
Si      13.34203202      39.75248618      36.47721167
Si      11.49553300       3.00923608      39.07185177
Si      14.56413898       1.04982792      37.83446554
Si      14.81666094       0.14648972      39.92169055
Si      11.15738441      39.51417172      37.26696654
Si      11.18090268      38.47804706      39.36986400
Si      12.59456183      39.86266635       0.80934910
Si      21.56599012      17.86418094      34.72397259
Si      19.01885447      20.95406584      34.84026242
Si      16.64346947      23.85330354      34.98540923
Si      20.70115792      17.36109742      32.55300593
Si      21.53726743      17.64043391      39.19625387
Si      17.53774716      21.90763813      36.18610762
Si      18.93784881      20.58044985      39.40937724
Si      19.87916884      18.99774318      35.99174803
Si      10.44055287      37.31838908       8.59012027
Si      14.06843487      36.40233870       8.27704114
Si       9.88279345      36.22568358       6.53736165
Si      10.09184380      37.56370295       4.73645161
Si      13.54926034      35.06395238       6.33590035
Si      13.68460480      36.59598822       4.43454054
Si      12.58831271      38.21519736       8.45461390
Si      12.71193353      39.63457566       6.59922245
Si       8.76515461       0.91507638       3.17224135
Si      11.35544727       1.35436359       6.86775690
Si      14.98352460       0.46040450       6.50484398
Si      12.14043847      38.38752048       4.61771208
Si      12.46106456      39.85974287       2.80763711
Si      11.02907728       1.70060075       3.05186928
Si      14.70980509       0.69054012       2.61274142
Si      17.57371786      38.96707219      31.15554178
Si      37.86141932      19.01741838      16.62038881
Si       3.50620755      20.82174030      15.97778412
Si       2.95054381      22.89108008      15.17351057
Si      36.08533948      18.93232210      15.12663010
Si      35.62681340      21.05186467      14.27217692
Si      39.73026465      19.87612686      15.59597279
Si      39.38909153      22.03728779      14.87312662
Si       1.25452599      22.77971046      13.54212296
Si      37.65135671      21.95169506      13.22358585
Si       8.47701002      34.85306197      33.43886020
Si       8.69751263      36.82948471      34.53243736
Si       7.21493172      36.88221743      36.44775585
Si      10.31238533      35.60330213      38.56162910
Si       6.21989882      38.94725673      39.28880059
Si       9.05481393      33.04855504      34.80396366
Si       7.76748202      33.23636810      36.76764298
Si       3.79796776      36.56001032      37.67383312
Si       7.96240555      35.13291630      37.88606611
Si       6.79773460      37.27665046       0.85395056
Si       6.61439349      35.20736398      39.75294723
Si       4.24214966      34.87855440      39.10672190
Si       8.72709171      38.68746590      16.97334289
Si       9.79404729      38.14102551      20.62685326
Si       7.87088282      35.24774071      18.74140956
Si       8.49397278      36.28404919      16.80647289
Si       9.48693888      35.86240906      20.42188938
Si      10.49764409      35.42882286      16.16913890
Si      10.36371957      33.09827868      15.75117537
Si       8.54734884       2.27115431      19.50773196
Si      10.67034513       1.37285636      18.70942138
Si       9.45790644      39.62512759      15.01049742
Si      11.22320929       2.45113937      16.66979289
Si      11.44243094      38.74573592      22.32588009
Si      11.59163635       1.02885308      22.53052763
Si      12.29353363       1.89632104      20.37295664
Si      10.41808091      39.09424407      18.56778732
Si      12.36701165      38.20906709      17.93819906
Si       8.32187676      12.83611520      37.66351999
Si       7.06082684      12.76480018      33.98026279
Si       9.20370577      12.92792697      33.31162907
Si      11.43091200      11.04081474      36.60538625
Si       3.79567135      13.37544253      37.14784876
Si       4.89263859      11.25748470      37.04392687
Si       8.33746690      11.75975460      39.80526309
Si       6.03063344      11.43278277       0.53395535
Si       9.27493037       9.62499917      39.52662928
Si       4.89197158      10.11763690      38.87631308
Si       3.56312707      10.12431001      35.30866107
Si       7.13530319      11.55334825      36.12402829
Si       8.10492887       8.42391860      37.95734429
Si      15.19523295      12.41658003      10.08294217
Si      13.51065038      13.85094070       6.91962355
Si      15.43231122      16.87461794       9.63605202
Si      16.73800308      15.54039693       8.21340734
Si      17.24889130      13.52402475       9.52812783
Si      12.02089748      10.78437755       8.79938562
Si      15.67163544      10.45562148      11.35997101
Si      12.34503127      13.23946954       4.98918351
Si      10.38381694      12.09660584       5.59135656
Si      13.45139641      11.78551570       3.68343091
Si      10.74416805      10.12618713       6.87206589
Si      14.03373689      11.81545922       8.13320041
Si      17.21844933      11.52591688       6.23522186
Si      15.37311746      10.43498642       6.83510364
Si      14.17455285       9.88339050       4.88554241
Si      21.71870958      28.11056606       0.39712773
Si      22.23737313      24.48710920       1.34882372
Si      23.64689169      28.69696168       1.12132874
Si      18.89849038      24.97882185      38.46596806
Si      16.77809319      24.32088554      37.50655124
Si      18.56441896      25.68618405       0.73256585
Si      17.14116821      27.33827071       0.73331140
Si      21.38499325      22.69621438       2.61697124
Si      19.19437655      22.01859246       1.81299797
Si      17.88527081      23.86804177       1.93411106
Si      20.71199380      26.34148484       1.58176615
Si      17.95662418      33.02482672      36.97050471
Si      19.33718954      29.58358085      38.24787312
Si      19.58810801      32.11127911      38.32032950
Si      22.04658621      31.81089923      35.05177996
Si      21.69342637      32.52299610      37.49463646
Si       8.28583514      38.45736279       3.08712725
Si      10.94065566      36.69152697      39.84909140
Si      12.95609149      37.80680142       0.42272342
Si       8.34498714      34.32670443       1.35953606
Si       9.28119294       7.49204314      26.08206657
Si       6.53037740       8.07551111      23.35714795
Si       6.40578100       5.03264630      25.78279918
Si       7.88313792       6.12639254      27.08470077
Si       5.17152118       6.85494870      24.69698208
Si       3.83178390       8.07548093      26.09050806
Si       9.48940562      10.70848445      23.81779850
Si       9.62415607       9.83390751      29.20162143
Si      10.96380398      11.61019345      25.22832397
Si       9.60213754      12.83294311      26.81978019
Si       5.36407188       9.84365829      22.48495349
Si       8.04656178       9.30836240      24.79223968
Si       5.46826154       8.93168788      27.72246408
Si       6.83140249      10.52584797      26.48055216
Si       8.35057323      11.40209878      28.05722079
Si       5.63640179      12.16350272      25.38361958
Si      22.81561061       5.99598018       8.09589585
Si      19.88550377       4.44308720       9.82578488
Si      20.64073929       2.34697976       9.30061127
Si      23.03577724       5.30653274      11.83459431
Si      23.75322728       3.25139662      11.25361576
Si      25.47395235      22.11511334      39.28285465
Si      24.41516618      20.36283809      38.27002321
Si      23.90103736      24.55109812      36.99900263
Si      22.63304275      22.88901346      35.93694976
Si      21.01092738      21.85795985      39.25134376
Si      24.06368146      18.51644613      39.67504806
Si      20.65185602      20.00367268       0.76699992
Si      20.62774287      23.77703121      35.08380098
Si      19.29539721      24.52558346      36.93776561
Si      18.95692911      22.69433474      38.38872190
Si      22.23170206      21.10753638      37.40485867
Si      16.74917739      12.55840002      37.56570920
Si      16.51313309       9.74549796       0.27968045
Si      16.51574951      11.00805638      35.78495951
Si      20.66382830      10.03637232      34.98683044
Si      22.57428741      12.97896274       0.67123957
Si      23.36113220      12.11374914      36.98338283
Si      19.05484826      12.89013535      37.94164436
Si      18.90079689      10.21981710       0.52197551
Si      19.96460512      10.97376568      38.58090461
Si      19.78956496       9.38199840      36.94237634
Si      22.27735078      11.32012588      38.98589999
Si      23.00191934      10.37152392      35.24780507
Si      37.14163191       3.25289197      11.27364989
Si      35.64607229       0.02145783      12.63358306
Si      39.85524479       1.07767861       9.38787421
Si      38.34232784      37.96587809      11.15041031
Si       0.44986810       0.02223912       7.61563345
Si      37.17851890       1.67073964      13.00604759
Si      39.27388533       0.85892741      13.42596750
Si      38.64991207       4.94551193      11.62014986
Si       1.47273637       2.91455511       9.85257555
Si       0.78495784       4.00897912      11.83280089
Si       0.94276425       2.64232542      13.85806439
Si      38.46562779      36.40163661      12.83469451
Si      39.91612979      39.57726677      11.42255568
Si       2.13232969      38.75399656      11.74609546
Si      20.72174979      36.81929985      33.15574542
Si      19.42250572      36.26425782      31.43210743
Si      22.01068431      37.62945849      28.80545412
Si      22.20035840      33.96949151      29.97653580
Si      22.58886219      35.53378512      28.13796233
Si      21.21832635      34.76410880      26.44215738
Si      19.02815983      39.83077696      30.29783073
Si      19.63823106      37.59253750      29.53479924
Si      11.65009165       6.10960655      19.41915031
Si      11.94909405       3.62466921      19.43545094
Si       9.05792316       2.73621276      22.66045357
Si       9.92846588       9.01049826      20.88014384
Si       9.98980660       6.67011770      21.03572549
Si       8.08361304       5.62321805      20.49429294
Si       6.43269361       6.25165861      21.98622592
Si       7.34861242       3.30186423      24.29942713
Si       3.60473155      37.91682266       2.68518114
Si       0.72675827       0.73400817       4.67647405
Si       0.33838708      38.31976977       4.89307637
Si       2.58636014      37.32243524       4.88111860
Si       2.38000870      34.99470801       4.92666077
Si      34.12905733      18.20782287      34.90103271
Si      35.33951343      16.11240715      34.36644946
Si      35.43482767      16.05078573      31.91498485
Si      32.93706667      16.64410954      38.14895720
Si      33.98888235      14.52529294      37.46623529
Si      36.26667566      14.55401853      38.37416513
Si      34.02734084      14.37188415      35.16774799
Si      15.71655283       4.39173772       5.58407028
Si      17.78418294       5.88558215       8.53938062
Si      15.39823930       8.58016929       8.99715936
Si      17.40618429      10.04222865      11.93685601
Si      15.11676827       6.48725749       5.06146355
Si      16.88669939       8.09025061       5.60996456
Si      17.72432291       3.77872189       4.53779588
Si      19.82666882       5.22227586       7.46447779
Si      19.42923190       5.22453863       4.99282689
Si      18.76220762       7.48194757       4.40636914
Si      20.58260306       9.06612814       5.06379931
Si      16.16368312      10.27791737       5.04004499
Si      17.29507044       8.03334148       7.76556811
Si      19.38736456       9.56942538      10.79761974
Si      18.99102950       9.47865421       8.43252675
Si      20.90142864       9.01251962       7.25208651
Si      18.23431460      11.61565262       7.69230855
Si      33.53734339       2.34075715      13.89847644
Si      31.51109659       3.32792897      10.89104025
Si      33.07918052      39.88141348      11.18879393
Si      32.17717130       6.00162139      13.63642048
Si      31.93227060       3.70610911      13.24037172
Si      29.78249551       2.88291241      14.28109478
Si      33.21830557       0.07741487      13.48058263
Si      31.37650481      39.42218246      14.60318629
Si      33.91309612       2.71325127      16.20903816
Si      32.03616323       1.88625193      17.45186911
Si      30.23465094       3.18408402      16.62358855
Si      31.70395616      39.74037873      16.87243066
Si      31.16046969       1.16392049      10.42930650
Si      29.19220689       0.31144343      11.60652623
Si      28.03782015       4.10550175      13.67945199
Si      30.72781967      36.75532576      11.77600580
Si      28.78938743      38.14915480      11.06224930
Si      29.58587531       0.67588237      13.87429182
Si      12.83244797      15.08837066      15.62273829
Si      12.06378697      19.32201933      14.58429049
Si      15.03956292      21.25733535      12.91025912
Si      14.25363721      20.29874162      15.01362375
Si      10.73713291      21.04469546      13.85699293
Si      10.56222497      22.71840603      15.54615445
Si      11.30563136      18.52142175      16.52881139
Si      10.27158168      19.12479939      20.17836733
Si      11.04240281      20.13246606      18.11887000
Si       9.72316857      21.83865863      17.34647448
Si      12.64342841      23.66599718      15.85522567
Si       8.42131602      18.05185684      29.12522089
Si       5.26345881      18.60643763      31.36836432
Si       7.95796707      14.23373093      29.43640470
Si       7.89961868      22.19363702      31.00096791
Si       8.67889059      20.19840969      32.31321809
Si      11.32893713      16.02057900      30.50760529
Si      10.89211055      19.98303457      32.41115671
Si       7.67444232      20.41080000      34.48205018
Si       7.57530171      18.25843885      31.32669921
Si       7.19890671      14.48839246      31.62479934
Si       8.08743685      16.42088211      32.53270142
Si      10.27179203      13.94252893      29.45359228
Si       5.02154133      13.46642343      27.70422191
Si       2.78238298      13.15065756      27.73888144
Si       5.11882690      13.46990726      31.60908692
Si       2.75274600      13.14811592      31.58488104
Si       5.61596940      10.15947235      29.68015331
Si       3.29883565       9.86266764      29.63677291
Si       3.23149628       9.70760117      25.83118905
Si       0.41181135       8.23799509      27.74159983
Si       2.15068042      11.91756568      33.46199712
Si       2.18734468      11.87380603      29.66094516
Si      39.80478584      11.57217090      29.66916814
Si      39.36636719      10.21180742      27.82800324
Si      39.21953139      10.33054428      31.47329471
Si      25.61618203      25.12173517      31.31912279
Si      26.53833914      26.83475851      30.09468086
Si      26.83235652      28.84087570      31.46247336
Si      23.54024196      27.82725308      33.22740062
Si      24.72356794      29.57568896      31.98884967
Si      30.05065409      25.58059136      31.46030380
Si      30.16337944      27.63635176      32.92559882
Si      33.41923736      26.34939456      34.28532936
Si      31.24310432      27.00315809      34.91630032
Si      31.43225263      28.92551214      36.34165511
Si      31.21354134      29.31144147      31.77834206
Si      27.91795638      28.18286860      33.40548668
Si      28.10387167      30.15507003      34.81617268
Si      29.28431132      29.80208969      36.73699614
Si      29.18049004      31.91966415      33.60944604
Si      32.49372440      30.69044692      35.02104798
Si       7.21962086      20.55263254      26.70051420
Si       7.57677843      16.07820775      27.41582412
Si       5.60405385      15.78392492      28.65599021
Si       5.88105430      18.93702522      25.48645216
Si       3.86195708      18.55525648      26.70495358
Si       6.00130990      22.51006089      26.96549166
Si       4.05130965      22.21645038      28.19728950
Si       2.68662366      20.70956306      26.99176786
Si       0.79478741      20.28389384      28.19766560
Si       4.42611514      17.81637119      28.96954061
Si       2.42405513      17.33640430      30.07460953
Si      22.42579374      21.57455648      16.42585741
Si      20.97891889      19.97008561      17.05228031
Si      22.18208308      20.41956000      20.75234745
Si      18.95893237      21.08112274      17.55679632
Si      21.73605447      18.84077379      19.00233569
Si      20.26021419      17.29409984      19.65926622
Si      18.28046316      18.34918988      20.34632348
Si       0.31408303      29.39464158       3.20752735
Si      38.92509108      29.85640739      39.62388413
Si       0.81438535      25.71528070       2.61292965
Si      36.75504419      30.93430969       2.64528570
Si      36.17122929      30.58218750       4.92098888
Si      34.97090925      30.88795719       1.32241264
Si      38.34288477      29.19922239       1.84397303
Si      38.78994072      25.69794499       1.25639521
Si      37.29673813      27.15490316       2.11778809
Si      35.29970815      27.13584549       0.70124413
Si       0.19697086      25.21849150       4.81502011
Si       8.92160868      19.56286121       4.13729396
Si       7.32249258      22.71987971       2.92966677
Si       6.22816124      19.54682472       1.34715386
Si       9.41174288      25.00936939       6.37538148
Si       8.22250645      21.65043925       4.81750225
Si       7.81831866      24.82558513       8.06947876
Si       6.52908531      21.44720580       6.29488869
Si       6.90193975      18.30430604       3.17291567
Si       5.35653020      18.20996434       4.93202146
Si       4.68656490      16.69067744       8.28754296
Si       5.49813456      21.79839225       1.99973203
Si       3.81356613      21.48835891       3.76594207
Si       5.84828750      23.54570098       7.18005526
Si       4.21184662      23.37432786       8.82979220
Si       3.24156019      23.60501730       4.53907267
Si       1.49383019      23.40668605       6.00944424
Si       3.53218531      16.92619085       4.02583202
Si       2.70618489      18.20691316       2.05561886
Si       1.92971384      16.75817348       5.55387638
Si       2.01534330      20.38568261       2.85016857
Si       0.40458154      20.10975879       4.53956525
Si       4.69340511      20.32263985       5.48561958
Si       4.00905550      18.81342782       9.01729045
Si       3.07538986      19.99023889       7.32387613
Si       2.35968343      22.30374286       7.95515160
Si       1.15885127      18.84374340       6.32365827
Si      39.63492032      22.11700165       5.23454864
Si      16.05561571       3.56729573      30.64955427
Si      18.14584348       4.89270012      27.78732848
Si      18.84652438       1.66160429      32.03599027
Si      17.41913464       5.24855724      29.95640335
Si      19.39649772       5.41612899      31.29116746
Si      21.19201657       2.87308137      29.14585513
Si      20.76648734       6.93055296      30.65940439
Si      22.66053917       7.25363698      32.14397354
Si      20.43318312       3.27294570      31.30619405
Si      22.20270526       3.34087104      32.77697714
Si      23.78737545       5.05845740      31.94059986
Si      27.08819048      13.46247829      32.52607474
Si      26.35669230      12.83352445      34.69982763
Si      25.03760602      10.90732406      34.62524752
Si      29.08076082      12.18325212      29.41615724
Si      27.10543133      12.76413659      28.02897420
Si      28.79389146       8.47292187      28.33855741
Si      28.28488428      11.63977229      31.56284907
Si      26.87820443       9.79877507      31.40931586
Si      24.98974595      10.10734520      30.11568249
Si      26.86471707       8.99478545      26.95393422
Si       0.71529739      36.34678330       6.95118202
Si      36.99180109      36.06643767       7.48557450
Si      38.63796756      36.78366225       6.05112130
Si      38.48460530      39.35081420       5.93462702
Si      11.66374552      23.93929781      19.41661669
Si       6.26782725      21.21413203      22.48432397
Si      10.18659198      23.20438415      21.09576155
Si       8.13701894      24.13471487      20.88950170
Si       7.53286234      24.22715101      24.51330768
Si       7.69017547      26.62933758      24.77448202
Si       6.61104641      23.61916916      22.49014263
Si      11.82610898      26.23930312      19.57581100
Si      13.30126143      26.84709683      17.82475663
Si       9.76038064      27.33696153      19.22612832
Si       8.22148943      26.61172573      20.94950421
Si       5.43194383      37.87908557      35.57336933
Si       5.73508464      39.55447637      37.34670407
Si       3.97262226       0.74964677      37.63434111
Si       6.01729741      35.81070629      31.72985303
Si       4.03045758      37.19876748      32.14325163
Si       2.34746543      35.89403630      32.82933828
Si       4.57302975      38.95907893      33.58543301
Si       3.26523933       1.80476407      35.59400967
Si       2.81716727       0.15983730      34.17738949
Si      39.78701759      38.08587211      31.20511023
Si      20.73210266       1.78801797      35.99073339
Si      23.72150457      39.46217379      36.30942067
Si      20.35779837      38.23248636      34.63792504
Si      21.31619896      39.57000086      36.32742661
Si      20.60570284      38.93211173      38.45965856
Si      18.27999226      39.15425996      38.57562882
Si      10.53499399      38.72875429       9.12422152
Si       9.63582239      36.89323474      10.26030115
Si       7.39291274      37.26094497      10.42539581
Si      10.12238442       0.72140918      10.54889771
Si       7.71185113       1.07059825      10.72026805
Si       7.87384070      38.84345751      13.94013176
Si       9.80708110      34.71388900      13.43859120
Si       7.36347908      35.13434940      13.59247219
Si       6.99847159      36.90952384      14.84822874
Si       7.32154103       0.78770496      15.19836498
Si       6.93704676      39.21136853      11.87849409
Si       4.73973840      39.42718031      12.18482443
Si       4.18820039       1.30434453      13.36628080
Si      14.76782385      27.76124493       0.83033097
Si      14.03540552      29.92462444       0.67198050
Si      14.94509039      31.30515289       2.44280162
Si      14.51136853      30.40975036       4.58236763
Si      15.41222418      31.56498365       6.26220750
Si      14.90104064      34.42867823       0.32771359
Si      17.30457584      31.26146852       2.12251332
Si      18.28597775      32.51574631       3.84130077
Si      36.04129603      30.19757542      35.43654799
Si      32.69519792      33.21188114      34.74308046
Si      33.96735629      33.22324575      36.65982690
Si      39.06122423      31.61031679      37.04106719
Si      32.70445293      29.73953352      37.41937917
Si      34.75818233      31.13955540      37.17605038
Si      31.50275807      30.73099487      39.22568957
Si      35.95593486      31.29873922      38.96745362
Si      35.87085761      34.64586813      36.24891081
Si      37.02335284      34.76602980      38.25759284
Si       2.36298652      33.15792573      38.63403836
Si      32.61368205      34.19244371      38.27680309
Si      33.83899469      34.30035060       0.28992048
Si      35.74571906      35.64324999      39.91711064
Si      37.82603565      32.50858492      38.74217452
Si      32.60481798      12.34538804      16.71064106
Si      31.21501093       8.95419345      14.35843979
Si      33.01131808       8.53846082      12.88048445
Si      35.47119256       9.90023463      15.57800735
Si      33.85711879       6.40650358      13.22613018
Si      36.30923108       7.70829025      16.15448236
Si      34.68886101      10.14678044      13.48998433
Si      36.51187530       9.86662403      11.99157468
Si      37.06842352      11.57215092      16.21402241
Si      39.70928991       9.05720984      14.94213011
Si      38.87856380      11.18342930      14.80446794
Si      37.42324241       7.66106764      12.37094443
Si      17.56601282       1.78400176      29.07138167
Si      18.03800896       1.03324330      25.34061541
Si      18.18168733       0.21391451      27.43166680
Si       2.66326359      14.82415383      16.00165877
Si       2.40202974      10.28624195      12.98239983
Si       3.44962931      12.74932724      16.74511044
Si       1.64980662      11.12169946      16.63288285
Si      39.23352559      13.94703916      17.58472048
Si       0.82802743      11.06967368      14.52634107
Si       0.99942229      12.02642696      20.47650757
Si       2.40506539       8.98876415      17.30836848
Si       3.41215311       9.15691628      19.35571752
Si       1.70197997       9.71918448      20.92026279
Si      37.59673813      14.56150927      19.13122486
Si       0.16553752      11.93102927      18.23703604
Si      38.23232684      10.24236479      18.27741627
Si      38.94739386       8.27954978      18.75837431
Si      10.76245272      34.39714377      23.23548243
Si      10.71460590      32.78738172      21.19555851
Si       8.45866089      32.44188764      20.90146852
Si       9.78468163      33.65545395      24.79237717
Si       7.36334170      33.11251518      24.48975315
Si       7.70801475      35.79020539      21.96140439
Si       7.46312809      34.40713891      20.14301422
Si       6.63785891      35.15478526      23.66361452
Si       4.24225940      34.87792548      23.24240333
Si       8.27470751      30.70216306      19.04760608
Si       7.35502733      31.59732662      22.77676764
Si       4.03221277      33.29161143      21.64728902
Si       4.97574257      31.32409116      22.23627053
Si      19.36418224      23.97255513      19.05257737
Si      20.96552170      25.55482310      19.03500692
Si      23.74407506      22.98725764      18.58596836
Si      25.75010265      22.00319160      19.26983869
Si      27.44575359      23.68597820      19.43848403
Si      24.13044889      23.64778481      16.33307515
Si      25.75923923      25.32599339      16.08644293
Si      23.02767502      24.74155415      19.83922126
Si      24.77682966      26.34937562      19.81435076
Si      25.01450870      27.12558377      17.57574906
Si      27.68864092      24.41730191      16.99123240
Si      28.97214213      26.88349995      13.43408216
Si      23.19247384      23.69104533      12.89432419
Si      27.36357833      22.66358712      14.09319574
Si      27.02282891      23.94686649      12.23390260
Si      24.87532640      20.94709570      10.86085901
Si      25.22588546      26.76466014      14.26064291
Si      26.98505865      28.04597306      13.69994652
Si      25.04006708      25.26831801      12.37194180
Si      24.58470353      26.26075750      10.39390591
Si      22.83791497      22.33496385      11.24482687
Si      22.46194085      23.34625551       9.08892897
Si      20.78047044      26.18821371      11.22454483
Si      22.59569032      27.58332114      10.74095675
Si      20.50312416      24.61693643       9.35572772
Si      26.79282211      22.37463578      10.43183039
Si      26.15370641      23.58056600       8.46818350
Si      28.70270419      25.44809023      11.79798084
Si      28.19682112      26.40598046       9.68902453
Si      22.20393472      21.88230926       7.42291929
Si      24.29394784      24.83004998       8.72687821
Si       2.89024642      15.50000099      34.64025460
Si       4.34883703      17.31000133      34.41654588
Si       6.89586216      15.36785172      36.62021485
Si       5.60083811      17.48143712      36.41458027
Si       7.07661986      19.18217790      36.24786074
Si       8.48574955      19.28882298      38.23027540
Si       1.66976338      37.52071483       0.12807653
Si      39.07968618      39.96136857      38.48966026
Si       3.21710553      38.08175479      38.22545184
Si       0.60928524       0.52799197      36.85971327
Si       0.25053493      39.05702136      34.94692433
Si      37.88818410      37.22277603       0.83937133
Si       2.02998864      35.28340015       0.72763919
Si      36.95835723       0.19937233      37.75643001
Si      36.55429100      38.79035728      35.89710039
Si      35.77691652      37.52912340       0.17937524
Si      39.45680512      37.79502833      39.16863199
Si      39.19625565      36.37627960      37.47564556
Si      36.89543608      36.56302765      36.57106576
Si      38.13239622      39.34934748      34.22214585
Si       6.65373486       2.68393504      15.85639033
Si       5.97547420       6.49455544      15.54055077
Si      10.33242234       5.25151772      15.81282381
Si       9.57324042       7.02833299      16.91844052
Si       7.03662988       5.06061456      18.95053088
Si       3.84736932       6.20275344      16.04965932
Si       4.85833726       4.69933954      19.48558992
Si       4.00846702       6.62530146      20.50603071
Si       7.32938389       6.96171408      17.46387319
Si       6.60641135       8.90728361      18.56115185
Si      29.26370035       4.91590841      29.54681779
Si      32.46969324       5.45345127      27.42319119
Si      29.02938264       7.06706887      26.33672294
Si      31.12859682       6.00040344      25.55687608
Si      30.51892282       4.05716817      24.42183151
Si      31.24776201       3.78359093      28.86944982
Si      29.47588015       0.47822391      28.99683746
Si      30.68827712       2.02217738      27.65694730
Si      29.51205704       2.55260671      25.70510355
Si      14.53417387       8.83601341       0.25501509
Si      14.08175067      11.01964267      37.10427037
Si      16.25583318       7.73054471      39.20286237
Si      15.91418957       3.62260203       1.15129492
Si      15.44821034       5.84933333      38.00060344
Si      14.83427857       8.02141177      34.94956049
Si      16.72041606       6.89986665      33.84413318
Si      15.90169451       4.95806737      32.67768178
Si      13.07235763       9.43047047      38.71612542
Si      12.08560341       7.73444948      37.54027703
Si      14.48749617       4.35302085      39.47314916
Si      11.00990654       6.19291381      38.98260597
Si      10.28972026       4.35150964      37.80266459
Si      13.33376534       8.59023941      33.30732968
Si      12.54306837       6.84894054      32.05056178
Si      10.46543491       8.43585739      35.87180205
Si      13.90476084       6.63726171      36.45093272
Si      13.01412007       4.63880285      35.20425838
Si      11.48746560       5.38825125      33.83745993
Si      14.28289162       5.69211317      30.98916997
Si      29.30054153      35.56081066       4.45876536
Si      25.56097242      36.16808766       4.56870822
Si      27.97319066      38.26898605       7.72378648
Si      23.61241191      35.68097006       5.79306598
Si      23.70523694      36.57605218       8.12203550
Si      27.34503342      35.24997930       5.64885332
Si      23.44431304      32.14308968      13.44382492
Si      20.64686619      34.19442677      11.74604488
Si      18.32157107      36.38769582      13.77916642
Si      17.97310231      36.31629541       9.86233268
Si      19.58080565      34.51060064      13.71215190
Si      18.02828419      32.63784414      13.97509166
Si      19.20347526      34.23266810       9.95251653
Si      17.64895624      32.38279178      10.19331764
Si      21.90477420      32.20819955      11.67113698
Si      20.41303145      30.36837328      11.94512135
Si      19.32146546      30.70583890      14.09743070
Si      18.88144899      30.28382820      10.12417619
Si      17.38318540      28.53920297      10.40033679
Si      16.88374501      36.37165896      11.84002382
Si      15.37495927      34.59963876      12.23487590
Si      16.87354332      32.88740062      15.91403557
Si      14.12489339      34.85664055      14.25863664
Si      12.61741722      33.08801076      14.56090451
Si      16.15677012      32.41132327       8.32531808
Si      14.88922990      34.45506958       8.43075502
Si      14.54136489      30.51368861       8.74674447
Si      13.69627420      34.59796782      10.32790018
Si      12.30410990      32.83761286      10.75523062
Si      16.55152057      32.51597116      12.14459607
Si      16.22895772      28.77082118      12.46756856
Si      14.96517336      30.84305240      12.54964899
Si      13.78403554      30.99789779      14.50815577
Si      13.52259458      30.79641786      10.71396409
Si      11.94820637      28.94210523      10.99679882
Si      15.92340230      28.69446139       8.74102159
Si      13.22386980      26.93937135      10.97259990
Si      11.06242870      33.01470582      12.78279878
Si      35.91474221      29.04450603      27.56424111
Si      35.71017081      30.96409894      30.96381549
Si      36.29488385      31.10267911      28.64279822
Si      38.62494706      31.55518032      28.38016755
Si      39.77720336      30.04314406      29.51285620
Si       2.39691557      28.52497970      26.19021835
Si      38.00243179      33.25177249      25.12370821
Si      38.59650587      33.45857027      22.84999158
Si       0.85323568      33.93069876      22.73066934
Si      39.06364853      33.72553978      29.53428537
Si      37.77500133      35.45397492      28.36472227
Si       1.34910977      34.21014061      29.34775735
Si      38.40193665      35.39271704      26.05131777
Si       0.69198517      35.90724190      25.95252513
Si      39.26420355      31.69448105      26.27410304
Si       1.49046017      32.11224265      25.96533931
Si       2.07747473      32.28636376      23.74900409
Si       2.00566559      34.31149486      27.06942801
Si       1.29438757      35.97111040      23.71149131
Si      30.12975968      37.37719288      16.89494666
Si      26.38437031      36.60192535      16.17605168
Si      30.73826536      36.66703092      14.70232202
Si      31.10794746      34.48904899      14.61316623
Si      27.46280597      33.66242003      13.70845196
Si      27.56777832      36.58922748      19.85828529
Si      31.85896457      36.78032898      18.32944241
Si      32.34382171      34.48705782      18.22975102
Si      28.09376329      36.15534994      17.57831333
Si      29.17343804      33.12674371      15.21363310
Si      28.63585682      33.85153494      17.50919837
Si      29.69767393      30.95539290      15.04492849
Si      32.84145974      33.90600592      16.02606478
Si      25.38110213      32.62935405      14.49362523
Si      37.83111594      30.82709384      19.65559426
Si       1.64642004      30.21805909      20.04853505
Si      38.14503021      30.17627699      17.33576277
Si       0.22534772      30.83778378      16.48288982
Si       1.88372055      32.58813727      20.41057691
Si       4.09630618      33.21380895      19.73017753
Si       2.68672612      33.71655788      16.15192786
Si       1.57870271      27.33018193      17.61230692
Si       2.55235062      30.90231909      13.67968466
Si       1.80515597      26.72219715      15.34192645
Si       1.81871058      29.70457212      17.87905616
Si       4.38702931      32.53457120      17.51295386
Si       3.97879727      30.26477989      17.20145407
Si       6.49395780      33.26182294      16.59965875
Si       4.24126222      29.71374436      14.83284631
Si      31.28204369      39.14924059      27.91040838
Si      32.39025641      36.35496860      30.16254734
Si      30.83474959      38.03048248      29.88395837
Si      28.61903742      37.29496737      30.01251558
Si      31.44614156      38.84522144      24.22130192
Si      29.89825074       0.54159375      23.88877140
Si      30.92923513      37.57260199      26.14833874
Si      28.89294699      36.80456145      26.14033580
Si      27.26380242      38.65751699      25.97094103
Si      17.53807694       2.95952989       0.10653380
Si      18.51712971       6.03102857       2.33761186
Si      18.85691488       3.64649494       2.06488517
Si      20.96764386       3.13202157       1.71124184
Si      21.18274159       0.66770479       1.47226894
Si      19.31698907       6.93593075       0.14194652
Si      21.55054223       6.46520369      39.98739930
Si      22.65243013       9.59930523       1.89949148
Si      22.38558603       7.47605292      37.98492923
Si      22.24103182       3.74806284       3.58446067
Si      22.09393264       6.13818837       3.87646408
Si      22.73213156       7.15745279       1.85132310
Si      21.80028830       4.07306785      39.71273248
Si      24.29474630       1.10622817      39.24002754
Si      24.07585425       3.42209679      39.44805554
Si      20.51005098      30.18497135       8.07071431
Si      16.62457112      29.49746623       7.52633528
Si      18.85916990      28.53129212       7.54340139
Si      19.33936479      27.65399410       5.41286926
Si      20.42668464      31.88752209       6.40297722
Si      20.91167552      30.95723884       4.38762251
Si      19.36036748      29.24587090       3.79614322
Si      30.36656346      19.43010216      29.92835879
Si      28.67549975      21.53889736      27.34747502
Si      30.76854246      17.85239545      28.25536463
Si      30.99036275      18.89291259      26.19218850
Si      34.90069876      19.32312368      26.62865749
Si      32.78244399      20.42036303      26.36064004
Si      32.95912940      21.47694545      24.13601643
Si      29.66487717      15.76805435      24.37604736
Si      31.47697312      17.21239801      24.40653113
Si      29.08366988      19.99804504      25.70287394
Si      29.08256225      20.94524554      23.64353515
Si      30.96516994      22.67280807      23.58516244
Si      30.99302266      23.70470646      21.52584257
Si      33.37767349      19.86088989      22.39628054
Si      14.80787870       5.76500665      28.05253786
Si      10.12855724       4.90138945      25.39165346
Si      13.84525271       5.79811146      24.47980994
Si      12.65157915       6.72485041      28.49942087
Si      12.70608015       8.09552987      30.51010765
Si      11.81532523       7.92769787      26.70827004
Si      16.18954166       7.44003892      27.67769318
Si      15.42342930       8.85582010      25.81378082
Si      13.31156546       9.66408636      26.42949702
Si      11.68566064       6.61224404      24.85190089
Si       1.85180753      13.51350151      35.37707854
Si      38.87758486      13.51827830      32.78668647
Si      36.43745183      14.42329482      35.60970648
Si       0.29777859      12.72532148      37.10604908
Si      38.78095363      11.26681321      35.92255520
Si      39.83258416       9.66399482      34.78802451
Si      37.24959486      10.32474201      37.63538739
Si      37.57870558      12.64434286      34.51848971
Si      35.76593605      11.33832317      33.37087633
Si      36.97553840       9.57311628      32.19302352
Si       6.87092784      24.09401889       2.02588808
Si       9.01544195      21.66666768      39.81183654
Si       8.07542238      25.82443020       1.04750813
Si       7.06196987      26.59801506      38.93763753
Si       6.69340305      22.26059397       0.43904713
Si       5.73560629      23.05889563      38.37645553
Si       3.61851493      25.41315089       0.43691385
Si       4.75445957      27.30668956      39.46211724
Si       3.51825468      23.61300392      38.86687002
Si       9.21026219      24.22044977      37.01112484
Si       9.08401290      22.29772810      35.39938195
Si       8.17396369      23.03432564      33.53944460
Si       6.96377502      24.68077318      37.42099307
Si       3.70531575      26.14686532      35.96792560
Si       5.80057585      25.53263320      35.50997166
Si       9.12580780      24.78871637      32.51010352
Si      29.86194334      38.91195307      23.07201210
Si      32.07793699      36.54868833      21.09388582
Si      28.95259636      39.94714024      21.14915543
Si      30.70607142      39.80295409      19.42082747
Si      32.70863823      34.28078887      20.71927417
Si      30.44882361      36.76242627      22.77220185
Si      28.51768625      35.50306398      22.20294888
Si       2.52665061      28.45560545      28.83455757
Si       3.88385090      25.23046932      27.36946134
Si       2.66258596      25.31207978      31.14778236
Si       2.66021638      26.97254255      27.01392227
Si       0.51182916      26.24847926      26.12482780
Si       1.32690740      27.27563208      30.43985146
Si      39.30446054      26.46783022      29.86880241
Si      37.86492413      28.25953297      29.25210337
Si      35.83736154      27.56782607      28.46922734
Si       3.07655668      23.97052655      29.22740293
Si       1.00749451      23.19814722      28.49377986
Si       4.33188598      23.72616480      25.63737818
Si       0.83883431      24.79879657      24.40861223
Si       2.12243403      22.99963339      24.91622245
Si       1.09875403      22.05366117      26.61036082
Si      39.00010303      21.09467546      25.97301820
Si      38.18235535      25.22855093      31.58192913
Si      39.58614247      23.34928435      32.14847475
Si      36.14869358      24.54145989      30.89460389
Si      39.88751527      22.07982589      30.27710892
Si      37.67148311      21.21963715      29.52902511
Si      39.54020876      25.02904404      27.99890524
Si      36.09896508      26.15600794      26.64370117
Si      37.40558373      24.12665218      27.27135174
Si      36.35034271      23.11918448      29.03707688
Si      35.12612605      23.27724340      32.63983730
Si      34.82538498      26.34302866      30.34747040
Si      37.98465574      20.04578035      27.59916581
Si      18.93496864      32.75179460       7.10487198
Si      22.27449384      34.68673549       7.49793842
Si      22.89820135      33.91084935       5.40100161
Si      22.27909169      35.32384203       3.75851242
Si      23.21522085      37.54486776       4.21017142
Si      20.03064130      35.59088251       3.64905131
Si      19.37432085      37.10841438       2.01748654
Si      11.59608068       3.43982712      26.69166982
Si      14.63227757       1.61061323      28.17653568
Si      13.11679765       4.51193517      29.94725822
Si      11.00104794       4.22220308      28.91112711
Si      14.17621838       2.40648272      30.35752317
Si      14.49188071       2.02729836      23.61954741
Si      13.06366580       0.52887226      24.77871561
Si       9.63441781       3.21508990      25.65964102
Si       9.55150181      38.81095956      24.65260315
Si      14.08438815      38.44916292      24.96132078
Si      12.66601776      36.76775021      26.18458185
Si      12.65764099       1.38647299      26.86604757
Si      11.15693996      39.80067421      28.00437273
Si       9.18500437      39.63462005      26.79842309
Si      10.62966609      36.56732587      24.91417891
Si      38.59581242      23.34214860       5.73430233
Si      37.56001997      23.19519013       9.47449167
Si      37.84929182      25.46952593       5.69632897
Si      37.03696103      25.38779779       9.36220288
Si      34.67150621      25.49144701       8.80420957
Si      35.03344828      22.34523048       6.59909736
Si      38.34637874      22.31152495       3.59355035
Si      33.42869089      24.42036738      10.28413928
Si      34.11364483      22.06053300      10.44002480
Si      31.17656889      24.59423959       9.86761305
Si      33.69666581      21.17273242       8.45151389
Si      30.53328433      21.15426982      11.54130997
Si      34.34119728      24.62948993       6.65585894
Si      32.08264159      24.80934159       6.08525892
Si      30.85125857      23.64012295       7.59049851
Si      30.34271943      26.71536119       9.70104814
Si       1.34975358      23.70617543      23.01700887
Si      39.62274330      20.65974236      21.09864911
Si      39.94211656      25.12446881      21.96041877
Si      37.83456980      24.03419896      21.59055665
Si      38.48813152      21.74223773      24.60868813
Si      36.68874118      18.83148477      22.83511847
Si      36.98827137      23.30222354      23.81121796
Si      34.93303699      22.25547506      23.28301776
Si      35.77524123      18.12116003      24.78342380
Si      36.33603713      25.59741122      20.54657280
Si      34.35471084      24.51032713      20.21307538
Si      38.04306185      22.20398124      20.13866926
Si      36.04817920      21.15282137      19.84273239
Si      35.25948071      20.53812365      21.83024816
Si      34.54306456      22.84934655      18.78235018
Si      32.44731733      21.66921871      18.27049786
Si      33.53832926      23.80642696      22.19199706
Si      27.07092764      28.42906018      19.20162602
Si      24.31173913      29.45608244      16.81447959
Si      28.31061240      28.26756511      14.92492311
Si      26.42510317      30.12203481      17.76153186
Si      26.19437804      32.07887395      18.88709416
Si      28.14219836      32.68379765      20.00223552
Si      27.08251938      30.80210410      23.02236228
Si      22.45009299      31.21828958      19.59376545
Si      23.64002277      31.30023664      15.20803069
Si      23.29928636      33.14426085      16.44137812
Si      21.75444202      32.78717305      18.07868615
Si      24.41098328      31.84564342      20.57485855
Si      24.24541506      33.88635015      21.64779322
Si       6.39202981      37.61530424       2.65033095
Si       6.20013004      36.74541934       7.09979285
Si       4.15652117      33.59935239       8.04996343
Si       4.36707915      37.51961329       6.06762773
Si      17.91768789      13.54188679      19.51243759
Si      19.63514261      13.91152060      21.05434450
Si      15.65817006      12.04030988      22.32844226
Si      17.49983863      12.42481734      23.85587457
Si      18.75516053      10.51163174      24.03658805
Si      17.27022473      16.08372714      23.09003093
Si      18.73193338      14.21285271      23.12300096
Si      21.79707998      12.62382487      24.88560768
Si      20.42764279      14.55574337      24.77148609
Si       4.18667009      33.73097807      25.48185882
Si       5.83984624      34.53290165      27.01246842
Si       5.76314890      33.07088019      28.88883195
Si       8.65718947      30.96258363      27.43909062
Si       9.45864331      35.42720707      27.62335155
Si       9.56024424      34.02763055      29.52372213
Si       7.27169992      33.94925416      30.36789672
Si      10.10206835      31.80143768      28.83354346
Si       7.33633277      32.57694889      32.40717208
Si       9.97289742      30.38186471      30.84852466
Si       4.74983691      30.12073245      26.70263908
Si       3.72690283      33.15841555      29.86237739
Si       3.60583198      31.77110822      31.78895226
Si       2.77647649      29.99883452      27.70416965
Si       9.10140538      27.53084809      28.70053021
Si       5.46704129      27.94506158      26.10488875
Si       5.39688499      26.54681647      28.13153172
Si       6.36092975      30.95330037      28.33864457
Si       7.96344117      30.45708215      31.73250101
Si       6.26616152      29.63247379      30.17930084
Si       4.39452950      29.61664548      31.20904790
Si       6.90177079      27.51625650      29.59108142
Si       3.47305317       0.89571685       3.66377411
Si       6.11604239       3.19440237       5.21915612
Si       5.17014413       0.02970833       2.29192156
Si       7.91056552       2.26091336       3.88119653
Si       5.38383628       1.13047452       0.21602223
Si       2.28365499       2.79522658       7.42712018
Si       2.37738054       4.00725461       5.51727298
Si       0.31846814       3.98026169       4.30378952
Si       2.81091600       6.32532379       5.86899944
Si       3.99028557       3.24826400       4.10606828
Si       4.15011778       4.32064144       2.14126114
Si      25.61193080      38.07586255      21.50714854
Si      25.00019915      35.91001485      20.72168923
Si      26.00869156      34.30653960      21.88493447
Si      23.14230895      34.33708159      24.39814369
Si      24.97316079      38.11323996      23.90221739
Si      26.09467425      36.61503603      24.97622212
Si      23.64736304      32.70837159      27.95574805
Si      25.45050243      34.42681715      24.19275090
Si      26.48164050      32.69823708      25.50654166
Si       2.28776474      25.42364619      10.11162237
Si       1.80426157      29.34283821      12.57425378
Si       0.29486560      27.46100912      13.02489824
Si       0.23116793      26.21474331      10.97610168
Si      38.80410249      24.32568718      11.38122309
Si      38.57066579      29.32433733      15.66796143
Si      35.53631322      31.42336324      14.75562212
Si      36.45263198      30.08815411      16.21805451
Si      35.06140320      28.25186188      16.82251213
Si      38.33619065      28.10098972      13.64974575
Si      36.74423590      25.12540971      12.09092245
Si      36.91795856      26.22170365      14.07615963
Si      34.86685989      26.94256606      14.89355817
Si      33.40567527      25.04554741      15.29025201
Si      33.30572913      23.72871614      13.44820050
Si      17.18238924      34.61600813      33.77593852
Si      18.54956987      34.06512075      30.31016890
Si      14.83062741      32.06216009      31.04969381
Si      13.18329294      30.35546053      30.91143523
Si      16.70337086      31.28311712      32.01418856
Si      16.14103377      30.23164861      34.04902387
Si      19.72099846      32.63867066      28.88046018
Si      21.65951722      31.66363124      30.01573616
Si      17.76232443      29.69295200      30.52415005
Si      19.62983559      28.73386690      31.44948409
Si      18.13214494      33.03699257      32.44834935
Si      20.10749138      32.12372236      33.42589022
Si      21.18285181      30.72973633      31.82929111
Si      15.71373777      26.74930439      32.14501890
Si      20.61918384      27.41737378      29.99161709
Si      33.42516977      24.36704729      24.47556860
Si      33.83285062      21.91366596      27.35378479
Si      34.25956072      25.74218751      27.90503413
Si      32.48887047      22.32557066      25.42191503
Si      30.41160517      22.61173505      25.85081071
Si      33.12898531      26.14661187      25.92166170
Si      30.85727853      26.36526473      26.41803369
Si      29.84866866      25.21874022      22.86294242
Si      29.64699286      26.89562882      24.47736895
Si      33.43509770      23.72350081      28.97986448
Si      34.59925995      23.24884854      30.88430671
Si      31.17919389      24.00755096      29.30226609
Si      33.85912899      21.26959319      31.82408607
Si      31.53331121      21.55964770      32.42584870
Si      30.31830672      21.93873289      30.35106631
Si      28.05248764      22.34290993      30.84699716
Si      34.01296128      27.48122183      29.49029789
Si      31.77440405      27.73686802      29.84788513
Si      30.04723705      24.38461664      27.44965467
Si      27.65787422      24.70601424      27.85695360
Si      26.96373616      22.82118313      28.85387979
Si       2.61427922       4.38470887      10.24586459
Si       4.14825809       2.65230951      10.82865594
Si       5.57290242       3.33826906      12.50167227
Si       3.80243765       6.30810016       9.62530658
Si       5.20400766       7.02633107      11.31316753
Si       3.85992409       7.60403614      13.16591477
Si       8.13914292       4.80780963      10.13096512
Si       8.58674328       2.48387203      14.86036393
Si       9.54801915       3.14425899      10.53884782
Si      11.06328348       3.86977916      12.16131715
Si       6.40512579       8.87998048      10.58486709
Si       9.23653876       6.62488966       9.25572989
Si       6.80578207       5.34866604      11.80639741
Si       8.13290348       6.03575684      13.57719137
Si       9.65977418       4.35257770      14.05597215
Si       6.38585597      28.96603251      19.92034409
Si       4.14904003      27.62803592      22.65323069
Si       3.94106484      29.76349154      23.68007442
Si       2.17141554      31.14677500      22.61220736
Si       4.65074476      25.67726296      19.35234461
Si       3.83742309      23.27024563      23.21769841
Si       2.61573157      24.66083623      19.82919957
Si       4.47155183      27.97079994      20.32262885
Si      21.65937206      20.06244504      15.00190481
Si      23.37793646      20.73938088      13.43959217
Si      25.60382939      21.54370181      16.55048779
Si      24.10007619      13.86226816      15.03640227
Si      24.06332377      17.49784336      16.49024352
Si      25.84277033      18.20533561      14.99562851
Si      27.13680994      16.20529569      14.52504323
Si      24.58110193      22.44034202      14.64373472
Si      15.14127269       1.54437005      17.75686312
Si      15.69617511       1.51060650      20.00262081
Si      17.82291301      39.01828749      16.89775922
Si      18.52663068      39.00603735      19.15178361
Si      19.17455471       2.76709354      18.96695662
Si      17.29592994       3.13358061      20.40624762
Si      20.17970883       0.56575636      19.45095865
Si      13.93615842       1.99895462      21.34406116
Si      16.51300677      39.45332478      20.56163584
Si      21.99502954       3.43187055      27.25095583
Si      24.11251260       0.42052730      24.78177422
Si      23.53544842      39.82283578      27.08505292
Si      22.96066543      37.56639019      27.19594224
Si      21.50271795       1.04434686      27.46321318
Si      20.90068334       0.64453182      29.71151036
Si      23.27506611       4.62101770      37.07001771
Si      23.19174893       7.36683811      34.33282902
Si      23.36413033       3.00346204      35.55065184
Si      25.62217537       2.56881598      34.92932333
Si      26.79432899       1.80634162      36.98806740
Si      14.81962130      26.87886685      22.69100770
Si      12.42400992      26.73431091      22.07786345
Si      11.61049714      27.27861230      26.01249247
Si      11.78357753      24.44148479      22.40977161
Si      10.97635932      24.98756597      26.05493134
Si       8.54245443      24.80828441      25.56996382
Si      10.89342932      30.91512494      27.30336370
Si      10.24104009      28.48153414      27.52164405
Si      34.71540870      29.41104200      33.06136962
Si      35.98216421      31.33955580      33.07236595
Si      38.24714161      30.56994734      32.85448688
Si      39.65934086      32.45513929      32.99316512
Si       2.49874119      30.37714186      34.45523581
Si       1.97948966      31.81398957      32.75921395
Si       2.10525881      31.41683807      36.60722673
Si       3.27844583      33.66363274      32.82619419
Si       3.57338678      33.25416378      36.66997115
Si      35.69558978      32.38590749      35.15225363
Si      37.19062795      34.26101393      35.35136015
Si      33.08825162      34.48651437      33.63176307
Si      34.41035593      36.47669286      33.81723027
Si      35.55169318      32.80466040      31.30895866
Si      39.21713327      33.99861505      31.25518986
Si      36.83109069      34.70501780      31.50558968
Si       0.55638806      35.80262891      31.43114257
Si      36.57774990      35.77692289      33.61898091
Si      37.99140614      37.61037665      33.68448557
Si      39.45671212      33.64558849      34.98530492
Si       3.08516594      34.79511771      34.83703403
Si       0.73768576      35.44910333      35.18597587
Si       0.36798468      36.98375880      33.47639004
Si       4.51051530      31.55021834      37.80191649
Si       5.15827601      29.35858714      36.97306113
Si       6.46593981      28.47706667       0.39274112
Si       7.56313508      30.96320839      34.35026655
Si       3.82415214      30.18383958      33.38339753
Si       6.09259581      30.34950505      32.68785716
Si       6.77554019      28.25497393      31.86138505
Si       9.74610189      31.11096939      33.69137093
Si      10.31408682      29.00833626      32.74561174
Si       7.38307082      29.56464928      36.27994602
Si       7.96283582      27.38791824      35.43276044
Si       6.60337154      26.71352533      33.65276774
Si      37.34997927      30.22400839       6.58308096
Si       0.50086084      27.22696783       7.58365740
Si       0.95869056      29.31753059       7.03938986
Si       2.76345169      29.84054657      10.50638659
Si      39.49223251      30.80099933       7.66478054
Si       0.04370134      33.05558892       7.16712942
Si       1.91268729      33.61995320       8.28505779
Si      22.52233798       2.49581603      25.42216028
Si      18.39716881       3.86869981      26.54492379
Si      18.21257749       5.91744877      25.24491740
Si      20.95949090       0.47898564      22.40931864
Si      24.88775646       0.98933834      22.74436143
Si      23.03297544       0.75653255      21.22122528
Si      22.84724076       2.71508270      19.89626820
Si      16.84870520       1.80768745      23.55811382
Si      16.71718129       3.73168714      22.32819740
Si      20.72314895       2.29333756      23.85204966
Si      20.22298892       6.08554122      24.11789444
Si      20.55332337       4.33595646      22.65243528
Si      18.77328432       4.15067291      21.12396082
Si       3.71155220      14.23548511      23.54562168
Si       2.90277424      16.46749645      26.61009960
Si       0.10607700      15.89523475      23.98771567
Si      39.49073899      18.02230789      27.01669698
Si      39.12440587      17.86611434      24.72491599
Si      39.71050907      19.67810948      23.44024891
Si       2.52086884      16.13369737      24.30695386
Si       5.49825028      18.37141232      23.43925162
Si       3.18946130      18.13180031      23.04818492
Si       2.15234191      19.89724079      23.76350558
Si      29.46106422       0.28446902       7.97747813
Si      32.97054736       2.29834694       4.43683091
Si      29.70549125       2.54487223       7.38187456
Si      29.18618638       2.77574078       5.08820257
Si      31.39457804       5.83492131       5.06042634
Si      33.07600617       4.69590249       3.89581382
Si      29.00286305       5.37231167       2.21570030
Si      30.93984725      39.00790243       6.84439853
Si      30.67593870      39.26805254       4.50982453
Si      34.47586560       1.15714680       3.23776694
Si      34.41345636      38.88818259       3.69361403
Si      32.23358778      38.04350468       3.23528766
Si      28.46117761      38.49791576       3.99193068
Si      30.73916680       1.51952191       3.93124005
Si      30.40255705       1.87535969       1.71657090
Si      28.10904979       1.07692273       1.12201396
Si       3.28372646       8.42465050      37.60978511
Si       2.82181647       6.47622562      38.94342169
Si       5.58079104       9.60529778       0.51194737
Si       5.06045124       7.84671478       1.68685328
Si       1.52212966       8.71580480       1.80498377
Si       1.09216279       6.80741240       0.23789577
Si       3.25169177       8.12696525       3.09031728
Si       6.51120709       5.61799984      38.95603610
Si       2.41466496       4.76876396      37.55535211
Si       5.57952476       1.68209046      38.83552138
Si       8.31533235       4.93968183       0.29566037
Si       4.65530149       5.96937721       0.29739038
Si      15.50866603      19.37978161       1.66769674
Si      14.66291061      18.39353274       3.58451596
Si      16.26993601      16.74020677       4.18526280
Si      17.35952613      16.30244391       0.54357484
Si      19.15069009      18.79521251       2.67474478
Si      14.32308275      14.12956457       1.82229913
Si      15.50764834      15.51861323       5.97241885
Si      16.55813324      15.21579879       2.27412229
Si      18.08497860      13.45374169       2.90900166
Si      17.21408431      12.22275571       4.72672052
Si      15.51765536       9.74636921       2.54033381
Si      35.90749148      31.06090889      19.90735470
Si      34.08223298      33.29159838      17.18147136
Si      33.77532654      32.27610490      19.35355462
Si      32.51109351      29.76229725      15.68813655
Si      32.19818291      30.75131938      19.34523434
Si      31.42605260      31.62951371      23.00734751
Si      30.11242720      31.87960079      18.85873118
Si      29.63084645      32.79181291      22.52403369
Si      33.76445663      28.56913478      22.22157088
Si      32.40680755      29.05710027      17.77874253
Si      34.34143662      27.71333789      18.36917283
Si      30.52639944      27.49852947      17.97641598
Si      34.13045885      26.97803636      20.63697415
Si      32.35690784      25.47423123      20.67322890
Si      30.89862708      25.64804474      16.33180354
Si      33.11653652      29.44131810      25.83408594
Si      33.61674703      27.74217982      24.31752940
Si      31.83859481      29.90942815      21.55629106
Si      28.06206576      29.53035441      21.06653243
Si      29.95215440      28.46333302      21.53875727
Si      30.32153572      26.72932146      20.11183816
Si      28.71914503      28.68264637      17.35338147
Si       5.00230556      35.73114630      10.04971490
Si       7.31609423      35.24029153      11.00183278
Si       6.87620843      33.49508104      12.54756332
Si       1.51202274      36.86990044      10.36039466
Si       2.76324792      38.86777424      14.41758401
Si       4.03494022      32.02897824      10.28457167
Si       3.58090585      36.25906661      11.68123919
Si       5.26124990      34.00539419      14.21417656
Si       3.15817930      34.63590462      13.22417442
Si       1.70069365      35.15154577      14.68315396
Si       6.06459878      31.48162109      11.38455076
Si      19.83160331      23.31717530      11.99696646
Si      16.29020553      24.70376118      12.45406791
Si      17.44854627      21.87677324      14.55544618
Si      18.57045243      25.25170729      11.95286678
Si      19.46725904      26.79746921      13.48379616
Si      19.79006288      22.35471972      14.06274313
Si      20.60786633      23.87328868      15.75233996
Si      22.94816999      25.43518333      13.11536960
Si      21.67145636      27.33586531      13.17384945
Si      22.81367069      24.38262255      15.28031994
Si      22.36805975      28.85185789      14.72616353
Si      24.74268925      29.41943638      14.30234226
Si      16.15345009      23.85056303      14.67626378
Si      17.01699937      25.27039169      16.16469525
Si      15.20260642      26.61909054      12.40154140
Si      18.03311840      28.74946346      13.48471850
Si      15.80635143      28.28995616      13.87943338
Si      15.66653918      27.33418715      16.18428785
Si      19.32342950      25.86643800      15.67865406
Si      22.35080976      27.87545541      16.83279394
Si      20.12837916      27.41803460      17.20305647
Si      21.10702723      30.68841762      14.70086385
Si      18.27210229      21.58707653       8.97543818
Si      15.96650219      19.60488625       6.68328596
Si      14.56791743      22.05673654       9.31377630
Si      17.99832735      20.70706236       6.87105138
Si      18.11546478      22.46071349       5.27410171
Si      16.53267712      23.17763004       9.40377822
Si      16.52201392      24.85831813       7.80046032
Si      20.09406771      23.57025419       5.37729472
Si      18.61482196      26.00544888       7.97806771
Si      14.23209128      21.06336750       7.12708313
Si      14.24262931      22.75561350       5.47988360
Si      11.95280395      20.74424211       3.21882130
Si      10.43464769      23.11133506       5.78306897
Si      17.83329080      21.49794175       3.02032034
Si      15.72410712      20.31745605       3.00898221
Si      14.09343047      21.85055501       3.27873599
Si      14.06308456      23.54369127       1.70100617
Si      12.58213665      23.49767898       9.67014834
Si      14.78514492      26.43366660       8.15285720
Si      12.70015231      25.21805860       8.13532104
Si      14.87342743      27.98945377       6.75621406
Si      12.35139190      24.28708941       5.96183903
Si      11.13214708      26.67227253       8.57754678
Si      12.59526862      26.00577599       4.36647882
Si      16.28207131      23.95549365       5.65873237
Si      16.31864714      25.69796164       4.05631182
Si      15.99984533      24.64515834       1.87866664
Si      14.69883446      27.20477012       4.43996275
Si      13.03739349      29.62046042       7.04572351
Si      12.38912794      25.19048790       2.07182119
Si      21.12368608      16.08778270      14.71484098
Si      21.45578993      12.55195390      11.99231152
Si      19.48033679      13.60263578      12.37455023
Si      19.72636330      12.82894044      16.22185696
Si      19.92290729      15.10070373      16.62878622
Si      18.39148414      12.53239377      14.19873378
Si      17.94718488      16.23370692      16.74975271
Si      16.20068433      13.65067029      14.52458314
Si      20.88560559      16.83375251      10.91067212
Si      21.26813435      19.03681257      11.35566726
Si      19.19582233      20.21486019      11.65616041
Si      17.49078222      17.55503974       9.37634049
Si      19.83038514      15.80409439      12.80427314
Si      16.64932234      15.86340546      14.86003172
Si      17.69365888      16.97283570      13.20067051
Si      18.13924930      19.23253315      13.47627061
Si      16.37839384      16.60650633      11.11588097
Si      17.80859345      19.97150778       9.79892755
Si       5.88731680      15.97792006      19.79257245
Si       6.69372127      12.91468601      22.09791013
Si       4.50005132      14.48510004      18.33824479
Si       5.26806086      11.46127315      20.71357832
Si       5.90750983      13.55231970      16.74266607
Si       7.47107842      16.74129073      23.88555426
Si       8.75192182      16.01877803      22.15647705
Si       6.75012206      19.91810742      21.55651421
Si      10.60338378      14.80326104      23.09536606
Si       7.57612260      14.51770492      20.85002000
Si       7.64068135      12.13669215      17.79245086
Si       8.91891797      13.55982517      19.03934220
Si      17.24906472      17.65612915       7.22956976
Si      19.59132093      19.20019969       4.73028384
Si      18.38008220      14.03579042       6.09408847
Si      19.44172653      18.35363656       6.92307735
Si      21.02309873      16.66599117       7.35247560
Si      18.31081142      13.22282768       8.18264013
Si      20.86579007      15.64614164       3.67717508
Si      19.53788251      10.53731127       4.86265811
Si      20.57946888      14.11359832       1.98177685
Si      22.07550681      12.33576769       2.54379454
Si      23.29069672      17.44485288       7.11506740
Si      23.08572235      16.54311340       3.32111123
Si      24.59454508      14.75857845       3.72265772
Si      20.61875596      14.89720948       5.85501860
Si      21.81439732      12.29843865       8.32407940
Si      22.14308689      13.09857390       6.12362373
Si      21.71447621      11.41695182       4.52850388
Si      24.38717921      13.88080221       5.95974919
Si      23.25175959       9.65237292       4.83887988
Si      24.19395533      13.13518074       2.15693309
Si      25.76153530      11.33195133       2.41193874
Si      30.69187593       3.78259130      33.51700588
Si      33.53256776       6.60721837      31.56637236
Si      33.66129806       4.28099257      31.27392927
Si      28.65052470       0.69188520      33.55740239
Si      31.42562421       3.25366744      31.34995557
Si      29.47765963       0.00082897      31.35169151
Si      21.16534887      15.53968429       0.47084658
Si      18.94716996      15.61259615       0.82213529
Si      18.19431928      11.28860298       1.68349855
Si      17.67713532      14.27096218      39.29495762
Si      15.49906411      14.33049201      39.62927786
Si       1.81633563       6.11851620      35.13818698
Si      38.28699771       7.21050018      36.42874675
Si       1.57000256       7.52313728      33.13961491
Si       0.57900252       6.34153368      31.48511631
Si      38.08260386       8.65734935      34.46199241
Si      37.06095173       7.43657425      32.70209022
Si       0.23074378       7.60135260      29.58393676
Si      39.56143651       5.38169136      35.79004556
Si      38.62291241       4.10730992      33.92321465
Si      39.86075631       2.37509650      33.26941442
Si      38.74502624       1.10418886      31.65283241
Si      34.87345950       6.67148796      33.43009508
Si      35.21978624       5.42044208      35.24179481
Si      36.60123310       3.53904442      34.68062639
Si      38.40324436       5.39635798      32.03797525
Si      14.23893354      34.91078632      27.46923874
Si      18.00031289      35.13572722      28.01563212
Si      15.64064271      36.45275127      30.66456403
Si      17.64939819      36.81799428      29.68446762
Si      22.58228672      16.28331048      24.49709143
Si      19.43701491      17.69901694      22.97111438
Si      22.78457495      17.87183626      25.98477948
Si      21.80387960      19.91487521      25.10616404
Si      23.04850044      20.51302709      23.13979273
Si      18.43498874      18.76537017      26.51008260
Si      21.78222803      21.55785256      26.75300188
Si      20.91239241      23.52259500      25.82307308
Si      17.46309765      22.45560470      27.17440378
Si      19.54210153      19.41059261      24.53043980
Si      19.76793682      21.98675273      21.68899690
Si      18.63604059      21.32475436      23.65523467
Si      18.63468716      23.07330042      25.26953924
Si       7.25885868       1.77902085      36.33232010
Si       3.78361863       3.54351527      36.02201979
Si       7.40613073       1.35853092      32.49970929
Si       6.21297370       3.88607303      36.17044080
Si       6.90089391       4.86184980      34.02882987
Si      10.32032273       3.03975495      34.34337287
Si       3.83644263       3.11806032      32.20666339
Si       3.48957829       6.56057849      33.79766910
Si       6.27168285       3.38357350      32.28842272
Si       9.23247267       4.68929889      30.24870385
Si       7.02332632       4.34920011      30.28983772
Si      32.80328978      30.45794124      30.73713434
Si      31.19636692      33.70264308      32.04833888
Si      31.09249366      31.35491008      32.16631023
Si      29.12081343      30.55081877      31.41981692
Si      32.64558907      31.23640413      28.65755241
Si      30.51867421      30.41376268      27.81592297
Si      32.84961974      28.21440052      31.04053058
Si      28.88863185      33.54972031      29.01439248
Si      27.03776368      34.36036316      30.36859297
Si      24.98659014      33.66928549      29.46206254
Si      28.90300052      31.22457880      29.14855833
Si      26.67901257      28.11416637      28.46067858
Si      26.71822008      30.38775058      28.34231171
Si      24.86675078      31.25839128      29.67189096
Si      26.44187023      30.94593624      26.10292840
Si      37.27323273      36.84971988      10.38288361
Si      33.28165212      37.07251309       8.27311980
Si      33.58849984      35.82285268      10.26141609
Si      34.53819896      39.11344491      11.94701062
Si      33.10773802      37.38389027      11.97087977
Si      33.32353300      36.18629408      14.08160389
Si      32.40989636      32.50718561       8.54516275
Si      32.02348031      34.04124809      10.25001076
Si      32.30123743      32.88109139      12.37324522
Si      35.75096835      34.99992798      10.41721199
Si      36.01022697      33.89132418      12.41680452
Si      35.57698115      35.42578807      14.10866382
Si      34.38346952      32.12877398      12.56546058
Si      18.20832372      36.83389778      17.77203260
Si      19.54576959      37.35333728      15.87929832
Si      19.71191907      36.49502869      19.58631192
Si      31.28523557      19.45348161       8.77769367
Si      34.63084001      18.72819004       6.82633920
Si      31.87093667      20.81622539       5.21341857
Si      35.65245683      20.73440665       7.76127374
Si      36.33499984      17.22471305       6.38207821
Si      37.92328617      18.03283155       4.87773522
Si      34.12758567      15.83855706       3.35293722
Si      33.58880189      19.31795216       4.81829585
Si      36.17162095      22.00554314       4.29029960
Si      35.11753343      20.27877643       3.28183746
Si      36.76645595      18.60581777       2.91540628
Si      25.14525605      20.45645331      26.39427074
Si      24.23490597      21.57920483      24.45081359
Si      28.31849949      20.16989080      29.53036263
Si      28.03582782      18.53554057      27.76675498
Si      23.73222360      18.73621545      27.20525590
Si      26.84604673      16.84577911      28.58697359
Si      26.52425022      15.13669567      26.73560012
Si      27.27356206      19.64970603      25.87327691
Si      26.26636556      19.03408402      22.19817004
Si      27.11918780      18.01280158      24.09970322
Si      25.61978267      16.26457582      24.89972299
Si      24.64704323      38.15542788       8.59797896
Si      26.69706285      39.23706739       8.73378278
Si      26.78407361       1.20781457       7.51202317
Si      25.65990394       3.01197467      10.76248756
Si      29.42203113       2.68273537       9.80898158
Si      27.80746764       4.19456772      10.82308942
Si      27.81420081       6.17323827       9.56353808
Si      23.05245524      39.51837623       9.56207758
Si      23.05008399       1.65982893       8.35206520
Si      22.44632715       1.16460843       6.15882697
Si      25.10956427       2.61970819       8.50117223
Si      27.22199532       5.66101117       7.38593438
Si      24.93212904       4.70915157       7.14778555
Si      26.18404104      12.10761736       9.44635974
Si      21.70897621      12.77724365       9.95876744
Si      21.84039212      14.94921037      10.81583661
Si      24.92880610      13.47665128       8.03163035
Si      25.08242402      15.67686097       8.62420225
Si      23.82931618      19.25179074       8.09347633
Si      25.28798609      12.28731774      11.63157888
Si      25.20940563      14.43889739      12.38765832
Si      28.53514886      13.93679873      13.92824837
Si      27.24389548      16.41981976       8.81144091
Si      28.39421936      15.11936016      10.42686087
Si      27.17275668      18.81690115       9.75568106
Si      27.41422414      15.27091225      12.43272751
Si      27.45704041      17.38639778      13.25869607
Si      24.03415854      15.82312850      10.91481840
Si      22.77116090      19.30738168      10.19631970
Si      23.95316964      18.02887968      11.71004815
Si      26.30865392      18.84457788      11.81789193
Si      37.76602863       2.81631961      24.55274234
Si       1.31309912       1.33161690      27.10796677
Si       1.58572560       2.70825636      25.15770961
Si       1.94964923       1.38313165      23.24901833
Si      39.44717203       5.47663205      26.77511242
Si       3.54572766       4.07067087      25.61560711
Si       3.89524979       5.52049481      23.71231617
Si       1.68912041       8.19004906      25.32640078
Si      39.62958923       4.08078711      24.95501490
Si       0.12409036       5.58316614      22.99064105
Si      38.21228068       6.94300619      22.71119961
Si       2.00457865       6.80449452      23.40984203
Si      27.08794773       1.36031842      12.33243879
Si      22.73908750      37.30118026       9.40000635
Si      22.74855386       0.67744382      12.40598242
Si      24.15614549      38.86735085      12.60854097
Si      24.61151633      38.05892208      10.45259774
Si      26.17069277      39.57436600      13.53084670
Si      27.72008855      37.75201269      13.75738342
Si      15.96502272       7.84537552      16.75994543
Si      25.13141147      38.62070885      25.60954909
Si      26.78748548      37.57525753      18.24097914
Si      36.98408837      28.16736219      16.52606725
Si      11.01815776      15.66633776      19.05766284
Si       2.52290918      27.86609390       2.73526119
Si       9.70236340      28.69573225       5.67983428
Si      31.17114544      37.46357618       5.67961958
Si      13.27864045      32.40817561      12.85263118
Si      10.17293319      25.36930532       3.35577957
Si       5.39856017       1.20367207       3.86577347
Si      22.94900557      11.07863066      29.11845657
Si      14.60854653      33.58991420      36.43973468
Si      29.33295567      19.71900758      22.04567315
Si      29.05442880       5.37025006      18.20236183
Si      11.85401982      22.01839194      11.70711321
Si      35.02988245      36.75370825      10.04692771
Si      28.10711681      34.51703517      12.20744460
Si      19.37765595       4.19107899      16.12417988
Si      19.91180499      35.17446350      16.12199461
Si      32.50342051       5.75862978      36.96500452
Si      38.46974033       5.18980400       6.55314678
Si      30.03494319       9.18446028      32.24286824
Si      37.56747195      36.09992309      15.29595597
Si      17.92205259      17.79091539      24.62330108
Si      23.40165444      15.51897102       6.93494843
Si       7.84766021      18.20154093       8.46002978
Si       7.79321647      39.66391384       8.52084250
Si      19.45409081      26.74789913      38.59516441
Si      39.99326400      33.20395309      38.42772381
Si      10.55162065      10.46262554      11.60168798
Si      33.83514114      37.74542662      26.39137302
Si      28.89988731       7.42934559       1.51810662
Si      21.89867116       1.18413632      19.00587111
Si      34.50046725      31.54258720      34.22127286
Si       5.63403014      25.09725748      23.06995233
Si      16.99228020      30.33046442      26.99886458
Si      33.73471329      18.80326369      19.02687574
Si       1.96430202       0.46999632      14.74451811
Si      36.45842394      38.05225686       8.18169895
Si      37.27740850       6.91049424      30.08685187
Si       6.57449763      26.97520196      17.63817559
Si      12.74752410       9.91930685      18.84281473
Si      34.17899161       3.35352692       2.85864118
Si      24.58440775      10.00646419       0.54768591
Si      37.31617983      21.08726726      33.45617669
Si      10.24635183      39.48476484       5.01731595
Si      16.78177945      38.53642217       7.93732105
Si      10.63462891      31.01352883      10.87055870
Si      13.35233258      21.87132018      19.48818264
Si      11.77828256      29.31709960      31.83395923
Si      20.74001357       0.60455271       8.50656046
Si      31.68671170      12.83701734      27.28727851
Si       3.52312287      30.65759605      19.78759987
Si      24.63955827      12.50383996      20.13839345
Si      33.16035656      26.11821683      31.05467825
Si      17.84148529       7.44509669      10.85171687
Si       4.13178404      13.50066229      25.95671103
Si       7.70384129      30.08290140      10.69126677
Si      35.39887714       5.33844100      30.17646117
Si      35.57078784      20.51687198      23.75110952
Si      33.05392650      28.22962748      39.56573860
Si      28.90861664      24.99868750      33.09433664
Si       8.57829377       8.68187153       5.53695086
Si      15.47322970      11.43432104      29.79217483
Si      18.40475198      15.20243564      31.01480028
Si      13.05928340       2.59567542       9.34776971
Si      32.44082716      25.64877610       7.94654435
Si       9.46431120       1.50898560      33.25146836
Si      14.15717653      18.21131712      14.48500083
Si       1.49985508      13.85223342      25.34619985
Si      23.05006238      17.58947761      14.52379530
Si      32.29986924      36.26674824      27.20475578
Si       3.56639660      34.42038387      11.33757634
Si      13.39775286      21.55594778      25.22308850
Si      29.79901164      33.90591391      34.01877925
Si      23.57432847       1.75019929      36.87106225
Si      29.73813520      23.75245775      13.74819544
Si      14.75724200      20.15689253       4.94031224
Si       3.74105967      36.83098642      13.42210230
Si      29.45525485      17.84150167       1.48756701
Si      37.93732761       1.81141753       5.74937561
Si      27.55063110      26.49465352      15.34602586
Si      21.76461569      29.51578494       9.14687670
Si      30.82887492       5.72965101       7.34236684
Si       0.45445918       9.00153220      11.99757802
Si       6.05762342      12.83630245      18.76103433
Si      36.14928413      38.47277787       4.25200123
Si      34.50711950      14.79403469       5.58271168
Si       6.29640517      33.08720025      21.99170451
Si       7.72589241      38.96236394      36.94241290
Si       9.64309927       5.94992359      28.87132099
Si      13.83231011       4.41259072      18.62441705
Si       6.91176307      29.71526529      26.27553465
Si       2.50106116      30.08895945      15.87707937
Si      26.47426264      34.55618673      11.85919314
Si       4.85150339      31.89875303       3.86631083
Si      22.28784852      36.91954585      12.61723121
Si      27.63400302      19.47498574      20.45830361
Si       3.06943452       4.83966098      33.51333131
Si      25.79272992       2.23912895      39.24374874
Si      28.86427734      29.12892831      10.45076479
Si      32.96592128       4.30273713      34.93503543
Si       4.57128549      14.15553176       2.21811202
Si      26.56850561      15.44213844      20.44760738
Si       6.47701666      39.39490413      33.54645165
Si      20.03237156      18.14861136      16.30043929
Si      15.69880987      26.35813240       6.20625492
Si      27.70362237      22.37607722       5.04006599
Si      28.40800904      15.64634672      20.13074035
Si      12.59880964      28.72955929      26.52169630
Si      10.54951430      39.53509761      33.90720518
Si       3.32122568      11.18513482      27.21186737
Si      16.15906137       1.36160452      36.21297146
Si      14.22645691      24.57531262      14.67738551
Si       1.84786192      30.64418298       8.73371046
Si       1.85322641      26.42782892       4.46168266
Si      23.94627280      25.58866257      39.72127753
Si       7.05820105      25.09886222      12.62273694
Si       9.47167329      19.43685551      30.52613376
Si      35.35137725      33.63416814      19.85478804
Si      26.87820654      14.64575811      31.05861767
Si      22.03295452      13.35061166      15.26363445
Si      15.29350783       8.69348548      11.18653958
Si      26.61816715      23.18300021      16.08970814
Si      12.36183987      37.93303655      36.46579848
Si      35.00486012       2.19361832      33.30911345
Si      25.91003518      13.37194906      13.87197618
Si      32.41847204      12.66167709      34.27155194
Si      32.49860939      24.61114898      39.23616877
Si      29.94969486       0.36438521       6.01653046
Si      30.52868478      29.03336332      15.24214515
Si      21.75960424      32.63971063       8.73560113
Si      25.55980830      36.65106218       6.68139635
Si       7.69688015      14.96951442      33.62041235
Si       3.54766079      38.32955334      16.03187855
Si      17.73875642      28.86728123      39.50161521
Si      33.39751501       0.29699017      36.60930860
Si       0.18898743      20.77887560      12.89143511
Si      28.74477682      24.80842198      25.50480257
Si      13.66846947      36.09649806      31.60622703
Si      21.48122915      25.47362814      36.77017516
Si      32.88525923      27.15697208      28.12406966
Si      29.55691739      30.44378414      20.06139170
Si      25.28229108      30.44673330      23.90399588
Si       6.93501021      18.33466896      13.58961189
Si       7.43299458      25.58761107      32.31356026
Si       5.28275826      15.84851069      24.31638721
Si      36.67581068      32.96733404      18.03212313
Si      12.21238614      31.93513268      30.68674679
Si       5.14964546       2.95946558      17.38032330
Si      12.30807278      22.74560303      30.39828165
Si       5.19084313      34.81118585       6.20833442
Si      27.06895812      26.90539264      12.08863321
Si      30.04705118       4.78707509      10.01643423
Si       8.50677442      18.02796434      20.44569901
Si       1.51658190       7.29286665      36.49166493
Si       1.73901038      25.18449535      39.08655301
Si      28.21702758       4.92101365      27.01976340
Si      13.77244758       2.98089760      32.66129899
Si      12.56031369      31.73682362       7.25327640
Si      30.79957150       4.03349783      35.96463984
Si      12.72067444      13.69483497      28.15901926
Si       9.83719285      23.67415424      11.25604662
Si      18.16263739       7.84293315      25.28972340
Si      30.46462103       8.80623527      16.23601243
Si      16.68864221      36.02432645      35.82189645
Si      24.88464452       4.67971225       9.25141676
Si      36.46957687      18.76449760      20.49610918
Si      32.59208660      27.37575670      10.59373064
Si       6.27969063      28.69646313       8.67326177
Si      21.90103626       8.15050318      22.48658796
Si       1.55853357       5.30734686      18.94404999
Si      23.89873416       6.59946529      21.86124977
Si       9.64879921      25.15612409      23.41181052
Si      10.81756036      19.79883824      27.97765739
Si      30.16568080      13.04919867       8.25776622
Si      25.15940021       5.63477294      36.15469409
Si       1.68229085      22.62739895      11.85007872
Si      31.60096357      32.71067032      19.66918799
Si      25.13541230      18.32342306      26.05357013
Si       5.87879144      25.78577948      30.41258804
Si      11.46092953      29.80608697       1.35818308
Si      31.99913146      21.71621161      22.29489357
Si      32.70778683      21.50183626      37.26029433
Si      13.98868184      10.05213192      14.81589306
Si       3.26596444       6.24284576       3.50340276
Si      34.84068885      22.70333043      25.96929324
Si       9.42479416      37.73072046      37.66481326
Si       7.63425910      14.42331914      24.59442124
Si       8.31039767      29.11126802      24.81066551
Si      24.46798591       6.49368952      10.68190750
Si      25.48032069      39.57208565      29.21804721
Si      28.40969831      20.06386683      12.80609750
Si      23.75677666      18.10154766      21.03600340
Si      12.53677546       4.13231417      16.07509649
Si       0.28760056      27.54109908      16.15686118
Si      39.53308807       2.65788529      38.33863413
Si      20.55113204      36.04781344      11.17392416
Si      27.87194304       1.12725282      24.76585784
Si      37.08997948      12.87673510      19.86034295
Si      15.64040129      25.58816780      17.44891966
Si       4.28011439      15.48336899      38.44788461
Si      21.85972139      21.58705867      18.71345954
Si      26.23576931      23.56823600      33.13159335
Si       0.72952309      36.34049712      12.16513537
Si       2.38555204      11.81928487      35.72853353
Si      11.90014295      36.08829599       7.12124592
Si      28.67554966       6.77013044      34.80595422
Si      38.11750312      36.92969101      30.71967955
Si      14.09103252      16.34867950      35.63428331
Si       8.75408601      24.29506015       4.21302548
Si      17.68831696      35.03386641      39.45858105
Si      38.11579838      10.44781517      33.40856254
Si       2.08438032      21.44390680      28.50427068
Si      11.35043988      36.82237114      17.55678037
Si       3.83829541      27.47650617      11.12465870
Si       9.86090190       9.70906398      15.84409565
Si      17.54300604       0.43530567      21.95400776
Si      12.39618420      30.05656713      38.53849698
Si      13.77819227       3.74283743       2.51359683
Si      13.08976158      38.41472725      10.80402793
Si       3.60433511       3.19861060       9.01585921
Si      17.63139929       9.40134013      14.96264954
Si      35.50726794      21.50734716      31.18491553
Si      39.88021239      31.32235868      12.79663630
Si      19.38485991       1.38488882      37.12788529
Si      25.88108271      19.36542240      28.89892189
Si       4.40934280      31.78448151      24.35844943
Si      19.22294501       1.52166243      22.78371769
Si      26.44361778      22.10684367      26.21022793
Si      17.10486317       4.36987803       7.61448966
Si       2.96788737      21.37533418      13.71097580
Si       9.03666292      38.05291865      11.74883732
Si      26.81944182      27.78909343      26.08595034
Si      17.88906827      12.12858323      39.44822292
3068
Lattice="40.0 0.0 0.0 0.0 40.0 0.0 0.0 0.0 40.0" Properties=species:S:1:pos:R:3 relative_density=0.96 cell_dim_angstroms="_JSON [40.0, 40.0, 40.0]" n_grains=239 grain_size=8.0 crystalline_fraction=1.0 grain_radius=8.440649961279794 pbc="T T T"
Si       7.82747537       9.03989634       5.33261862
Si       9.51445559       6.47320027       3.17279006
Si      11.32974297       3.88022920       1.08136434
Si       7.54961918       4.31302698       0.70688374
Si       7.48016361       6.93295255       4.35087559
Si      11.11858276       1.83609207      39.97898568
Si       9.35374315       1.74307380      38.47451740
Si      10.74921002       0.08236203       1.69374139
Si       7.34447832       2.27777898      39.74907504
Si       9.33340993       4.40514742       2.21034560
Si      10.84031309       2.80369006       5.22849700
Si       9.04840691       2.69018044       3.90117484
Si       8.80301692       0.76814840       2.78751279
Si      12.21343028      27.83321487      20.53155421
Si      11.58998459      25.94412871      21.81039265
Si      11.62036660      26.62705533      24.12769042
Si       7.93816647      27.78077243      23.84849683
Si      11.23368289      31.34511837      19.45621953
Si      15.11290175      29.69096787      17.40985835
Si      14.40683335      28.45348875      21.09474747
Si      14.98255147      30.34503650      19.77129731
Si      14.43647334      29.11509823      23.30819009
Si      13.49932992      32.02855423      19.93828214
Si      10.62021455      29.37093168      20.83111001
Si      10.14999506      28.40859774      24.39167977
Si      10.77335636      30.27784516      23.03062526
Si       9.95668728      29.04466289      26.61831328
Si      12.85123581      30.82648825      23.64915538
Si       7.14553056       1.45811530      19.42061986
Si       7.05963768       2.72518196      21.54405131
Si       4.86709433       3.44298413      21.81153046
Si       6.41086247      39.50189475      23.41318964
Si       4.24780317       0.19454388      23.85699496
Si       4.01247685       1.45280023      25.80434117
Si       5.75188881      39.55399387      19.74814007
Si       3.58671493       0.20447567      20.14265761
Si       2.84808717      38.36482055      23.96898995
Si       3.47873391       1.57183132      22.13128915
Si      13.50264375      19.37964712      10.16098127
Si      13.72865384      18.36679555      13.73606921
Si      11.59930987      18.12624531       9.92434653
Si       9.70161728      19.55886567      10.55678786
Si      11.89604970      21.40125527      13.02109518
Si       9.67258298      21.30405501       9.10317447
Si      11.77113211      23.30615946      11.38526258
Si      10.00536551      24.74335015      12.09737605
Si      11.66742304      16.97646155      13.69932570
Si      11.92654964      15.26334097      15.04573179
Si       9.99226653      18.29137453      14.13620514
Si       9.60049768      14.95933813      11.29113900
Si       7.64083153      16.32860997      11.78016925
Si       5.83019837      19.62104583      10.87705513
Si       8.01745635      17.09488284      13.89514794
Si       6.25800533      18.36310600      14.56552585
Si      10.09537808      19.07492255      16.37495642
Si       9.87890085      20.17567921      12.65259090
Si       7.87410062      23.42071507      11.83451917
Si       8.08380217      21.53505002      13.25963826
Si       6.03272914      20.31613555      13.03460040
Si      18.49662994       4.51358486      22.38046295
Si      18.69323589       6.68001482      21.44132806
Si      22.44007504       6.73032310      22.28352629
Si      19.70745672       5.83913467      25.81016995
Si      19.84386606       7.94533053      24.89920058
Si      20.33270816       7.90925553      22.59212552
Si      20.49792198       9.98364915      21.57850981
Si      26.18132800      20.31711491      28.35405884
Si      24.09689480      20.72770770      27.07742756
Si      24.42007082      21.91338446      25.08809047
Si      27.57279956      23.66902817      26.90551938
Si      23.99565701      25.21745398      26.92434654
Si      22.66381425      22.11868876      23.93738910
Si      21.99765553      25.44967786      25.69198083
Si      22.38411309      26.66063714      23.81818376
Si      25.59053265      23.90104685      25.65906156
Si      26.05815538      24.98527474      23.61798427
Si      23.97535983      25.40382360      22.41457121
Si      26.91967594      27.13998748      24.22453292
Si      27.23863812      28.47015664      22.27497283
Si       4.81833412      24.10088596      33.54904775
Si       3.17354333      22.54970900      34.65790862
Si       2.53237396      23.59234267      36.75688041
Si       4.24509997      20.52417531      34.93137240
Si      35.32464071       8.98744069      35.21640966
Si      35.94844442       5.32602231      35.75630747
Si      36.63100477       5.79520361      37.92753677
Si      34.87135594       5.74661309      39.53296104
Si      35.79297014       6.35328811       1.69936656
Si      33.84606483       6.33228017       3.24425715
Si      34.34859430       6.86844832      35.20481790
Si      32.45939434       6.77087876      36.76123911
Si      30.84232918       8.34288295      35.98347106
Si      33.24375266       7.29349746      38.85785120
Si      32.28468768       7.89943291       2.45041179
Si      31.44913315       7.31740737       0.31682959
Si      36.18154522      35.08223707      16.12833556
Si      37.18485641      37.45151869      19.71429039
Si      38.09495646      36.01428278      16.17152080
Si      39.73429410      34.62688045      17.37682450
Si      35.24848641      34.41655860      18.14643376
Si      33.18860751      33.37141440      17.99022689
Si      36.81486042      32.96929982      19.27726131
Si      35.67403719      34.45284664      22.72145123
Si      35.93871305      32.38296363      21.40744426
Si      37.39171091      30.83269706      22.46576798
Si      36.39167756      33.00941614      14.80557734
Si      39.90539816      32.61310883      15.97338585
Si      37.89032435      31.57328303      15.82027733
Si      36.96947395      31.04038993      17.98646786
Si      38.76664904      34.07783198      19.42122799
Si       0.48381170      32.58065242      20.51088816
Si      39.55066573      31.93365217      22.68181405
Si       0.69663319      30.63318713      19.13414043
Si      36.94107433      19.52174705      19.14204752
Si      39.89833562      21.79583041      19.35420726
Si       0.95029479      20.43043948      21.14614939
Si      39.03069549      16.42800432      20.14461651
Si      37.85350848      21.56613773      16.22038649
Si      35.61362706      18.02281371      17.83122516
Si      39.72911606      22.52581959      14.96287124
Si      38.76431196      20.32757295      18.03731220
Si       0.88640976      17.14412453      18.93107159
Si       0.00847107      18.51453681      17.13708446
Si      38.68955602      17.22005752      15.86342852
Si       1.83938985      19.27176112      16.01250407
Si       5.04246108      21.20769220       4.04631761
Si       3.73049867      25.37649512       2.67458232
Si       4.47619745      23.78424277       1.22034792
Si       1.65019219      21.38762166       2.30017675
Si       6.09017634      22.28605016       2.20787540
Si       6.67251917      20.75701498       0.71297735
Si      15.70154359      31.07282832      25.89490619
Si      17.00323593      34.11245160      28.63951382
Si      18.54740462      33.29399618      24.49607712
Si      17.17793650      35.26278198      25.05403606
Si      15.66515116      34.76712045      26.73602370
Si      14.31843106      36.61864255      27.19540627
Si      19.65499600      35.59613774      31.09704804
Si      15.53475512      33.78207905      30.45708343
Si      14.09024246      35.54015699      30.97269162
Si      18.32337575      36.06868676      29.24932670
Si      16.92980764      38.02326675      29.56739774
Si      15.52174386      37.57050855      31.38422322
Si      18.45755257      39.86700251      30.22405442
Si      27.86417892      19.99408260      24.10719216
Si      26.25946243      17.43232246      21.65531260
Si      30.34951341      16.22114846      20.44246064
Si      28.17331741      18.87505043      22.21934874
Si      28.49554063      20.32578501      20.23355289
Si      17.41092560      14.58777926      14.11511705
Si      14.05692384      12.09361166      12.44486689
Si      14.13490130      14.50294441      16.14779214
Si      15.23124372      11.41004844      14.27269964
Si      16.36278927      15.29933158      16.06087850
Si      17.63378085      14.65572743      17.90086538
Si      21.94739073      11.56695826      13.97055846
Si      17.47506275      12.18190638      14.05263134
Si      18.63007091      11.47966145      16.03247325
Si      20.76922072      14.71942556      15.92542523
Si      19.75924775      15.52319723      17.74722224
Si      20.87826859      12.20458477      15.84907228
Si      14.06074509      12.18298419      16.21606116
Si      15.33020543      11.37653111      18.12368357
Si      13.16399962      15.26165863      18.11826412
Si      16.60928446      15.37302465      19.86946114
Si      14.38971831      14.62540000      20.03888957
Si      14.40394071      12.21039904      19.91334650
Si      18.77258921       9.06399812      15.94899326
Si      17.68481770      12.26832786      17.99188700
Si      21.04228798      12.37497248      19.73823768
Si      18.86775513      11.51851685      19.75819211
Si      29.78780707       9.72668861      37.06669268
Si      30.68006352      10.96871741      38.89468903
Si      32.23379873      11.57344879      34.79377653
Si      33.06865623      12.73806609      36.55548230
Si      29.26889682      12.89486421      39.29371341
Si      31.75437837      14.83019421      36.85764132
Si      30.32875799      14.00780968       1.16223918
Si      34.16350529       9.49536592      38.17416565
Si      30.59897317       9.64896493       0.81797484
Si      35.71534773      10.12654225      34.12477413
Si      35.32505826      13.37889133      36.07237780
Si      32.89265666      11.30511145      38.60382620
Si      32.55149952      14.71986284       0.54487335
Si      33.81648714      12.69267347       0.34679220
Si      18.89686264       7.56239581      36.10687187
Si      17.65203042      10.84375958      37.77590238
Si      21.05045635       8.37550311      36.57790207
Si      19.85143047      11.66467022      38.27619905
Si      17.55779233       9.47876543      35.77275595
Si      18.30967710      10.88918498      33.99253116
Si      19.30287091      14.71218910      35.95935125
Si       8.45028847      21.72149432      30.53925147
Si       9.23103441      23.06883672      32.32615113
Si       9.75910318      18.53691600      32.45231332
Si      10.43708928      19.87399662      34.23868150
Si       7.61866907      23.34833170      34.04901603
Si      14.58298977      20.55556944      32.89811450
Si      11.33313621      21.95050488      33.47653934
Si       8.80684565      11.95470855       4.91207085
Si      12.53062581      11.58704626       4.09604861
Si      12.91879558      15.23880766       4.29795582
Si      12.96912826      17.35944841       3.06742661
Si      13.34922526      19.16580491       4.45643795
Si      10.91520321      11.70543554       5.73212654
Si      11.34786352      13.44201827       7.31597643
Si       9.74812865      13.40240459       8.99012265
Si      13.59352104      13.09589768       8.24052412
Si      13.83892040      14.98933860       9.61662552
Si      11.23126070      15.46749523       6.00395416
Si      11.66140801      19.28750982       6.20256643
Si      11.66853587      17.26380121       7.42909300
Si      10.10214173      17.42387291       9.10570998
Si      13.90327961      17.05127682       8.41656630
Si      12.41353672      15.09745544      11.30475032
Si      15.39882239      16.14717216      25.13888445
Si      17.13366350      16.32726998      23.60471329
Si      17.50257642      14.42030035      22.48947903
Si      19.24764954      14.61373583      20.78189005
Si      16.32216231      12.47212314      25.64571264
Si      17.28258404       8.84347326      25.97182833
Si      13.47459645      15.47324464      24.05986659
Si      15.41592343      13.83378726      21.46603430
Si      13.73270607      13.50193882      22.98283072
Si      14.47901574      11.84154586      24.50479958
Si      18.14156554      12.67401278      24.12738018
Si      18.41011340      10.65684250      22.92484900
Si      16.46151641       9.99930460      21.80092408
Si       4.98832158      32.42534845      32.22050391
Si       5.49946279      35.84673216      33.75314336
Si       8.14992201      33.30283203      34.20937630
Si       7.33798537      31.95311311      32.44852238
Si       7.78731697      35.45339374      33.89207318
Si       8.91169362      36.14706335      31.98326388
Si       1.24049995      34.43715777      33.62471294
Si       2.29789419      35.13497756      31.65015579
Si       4.18725044      31.28799608      30.37291201
Si       5.29916609      32.00158139      28.32684537
Si       4.54135032      34.74316099      31.79990451
Si       8.11229353      34.95913894      30.14089366
Si       5.87884704      35.42895452      30.00142588
Si       9.07842075      35.82492114      28.11475175
Si       5.08844874      34.20488490      28.06210228
Si       7.64334200      31.56427196      28.63994889
Si      14.38782881       1.80188212      33.62086778
Si      15.51047467       2.31660093      38.03190549
Si      16.15642659       0.40282707      36.78428980
Si      12.49308500      39.49739953      36.14192284
Si      14.63115708      38.87925282      36.86388292
Si      18.17806926       2.55818979      34.16301689
Si      19.27730802       3.14089918      38.53374047
Si      19.87298755       1.25619166      37.39831098
Si      16.44520256       0.92081124      34.42284899
Si      15.44478964      37.37820358      33.51583436
Si      17.09503226      38.91076202      33.28238342
Si       6.82348717       9.83465880      26.80041313
Si       6.95690055       7.64006733      22.93834508
Si       8.29636543       9.59098656      23.45063276
Si       7.31862740      11.49079686      22.73905423
Si       8.51118271       5.84755318      26.13007575
Si       9.87302554       7.75484646      26.47688611
Si       8.71407300       9.57372736      25.72040323
Si       9.03926205      13.43976463      25.45954994
Si      10.06347848      11.49589067      26.10580774
Si      33.43071782      32.51493412       4.60673052
Si      34.78399180      31.94332063       6.56627036
Si      24.01158559      28.82182739      23.08061770
Si      23.19780288      26.18940351      20.51043850
Si      22.81421248      29.79675593      19.62131089
Si      21.91032109      28.86867403      23.95060577
Si      20.42634118      30.40092969      22.66668721
Si      23.70156922      32.54905310      22.23552525
Si      23.85759992      32.02151819      19.91452440
Si      21.41121496      32.47342420      22.97422760
Si      20.21536835      34.14557648      21.57371817
Si      20.95613012      26.11091556      21.42491313
Si      19.64752063      27.78228419      20.07472447
Si      19.81326112      27.08907451      17.68973083
Si      18.61484342      28.67827660      16.60306150
Si      18.41552028      30.54735855      23.34534090
Si      17.46605621      28.25187550      23.05615689
Si      17.03469510      31.92328582      22.21638691
Si      17.61733350      27.66014249      20.69533676
Si      16.25581088      29.33256301      19.45875786
Si      20.68194034      29.89756599      20.38436140
Si      20.26423062      33.51065993      19.47691026
Si      19.35475883      31.44421511      19.06716209
Si      19.52067349      30.85149593      16.69530049
Si      17.25490989      31.40159076      19.85006839
Si      18.02054300      34.10078176      22.43023916
Si      16.40920575      28.66355458      17.24106476
Si       2.29795031      36.56604868      16.00744558
Si       5.93040729      37.31918774      17.01785831
Si       5.20697870      39.26317046      17.94070442
Si       4.82575906      33.73385474      16.28474215
Si       3.10574211      31.95307183      16.57036125
Si       6.64020854      32.98098691      17.66102432
Si       4.22076714      35.64567630      17.20793172
Si      14.82539812       7.29408753      35.07525685
Si      13.42458064       8.29346272      31.61734648
Si      17.25682355       8.13912002      32.04150163
Si      17.60264668       9.43928629      30.23420386
Si      15.19348428       8.57076208      33.06387815
Si       0.04595207      20.73114645       7.83196561
Si       0.39585121      23.03215807       8.31011268
Si       2.01133369      23.89756711       6.78100760
Si       1.96905435      19.47931077       8.26570774
Si       3.68383604      20.32635194       6.68151274
Si      39.35489328      20.49365079       5.74008451
Si       1.10081471      21.33748540       4.23529371
Si       1.40312116      23.43821563       4.51676181
Si       2.95409707      19.93775033       4.50636658
Si       3.10290060      21.96917999      10.95304914
Si       4.82304058      22.65137931       9.39797560
Si       6.46295518      19.37810550       9.25541740
Si       6.77042787      21.59749136       9.73014533
Si       3.99467225      22.56691075       7.14204846
Si      38.29846719      14.19629739      28.63031915
Si      34.96932597      15.60296816      29.67677173
Si      37.79080938      18.64223628      28.05766240
Si      38.14112255      17.61469298      30.21835650
Si       1.47056960      16.17145090      29.22566546
Si       0.33004370      17.57552275      30.91517344
Si      33.98981731      15.95950896      33.48180088
Si      37.36185355      15.53216614      30.33283446
Si      36.57413581      12.41027937      32.40897540
Si      37.41627958      14.61345506      32.25329306
Si      39.70372376      14.37679571      32.89372953
Si      36.26812676      15.92865792      33.88382176
Si      14.10986615      18.94428521       7.43169823
Si      15.64444669      15.92321281       9.30960225
Si      15.06685226      17.13447643       4.05483797
Si      14.80400932      14.30355499       7.56131379
Si      16.54161721      14.11289516       5.95911236
Si      18.09443645      11.28392527       8.03540082
Si      15.86609779      12.62474008       4.26539569
Si      15.98661308      15.46313554       0.70519871
Si      17.64080141      12.50444008       2.62310311
Si      16.10845573      18.02748294       8.28404724
Si      17.73692588      17.76927732       6.69478488
Si      15.54529912      19.33914712       3.03888761
Si      18.16392689      19.90248756       5.90140588
Si      17.49845353      15.03548249      10.29159120
Si      18.50282904      13.34606881       6.96081983
Si      19.25719984      14.85093418       8.60143154
Si      20.18868132      13.13893212       5.46075899
Si      19.68708620      16.82856848       7.68935102
Si      21.27931839      14.00136494       9.59176059
Si      17.00191389      16.32500918       5.08699938
Si      17.89778493      14.57566861       1.73908737
Si      18.75419096      16.13091052       3.37078143
Si      19.69814874      14.34865337       0.08245727
Si      19.06727577      18.20753255       2.61520122
Si      20.61067837      15.16732794       4.42809813
Si      25.20177215      27.47149693      33.32931264
Si      23.73329628      27.53972486      34.97886948
Si      24.36410528      26.33772641      31.44255776
Si      26.06798269      23.21647052      32.74466778
Si      23.96605213      24.19457280      32.17053647
Si      35.37638177      17.60191428      21.54390212
Si      36.03499486      18.10598911      26.04011240
Si      37.48667024      20.07673142      26.00477114
Si      37.28383696      17.09064924      22.61162332
Si      38.71933722      19.01656998      22.52096017
Si      39.46936952      19.50799311      26.87061798
Si       0.49557134      17.80564000      25.65199373
Si       0.83996177      18.42684114      23.53102383
Si      37.61259260      20.69837982      23.68384098
Si      39.04686290      22.56551104      23.73231205
Si       1.12412585      22.23119592      24.54864574
Si      20.81904062      36.99343457      24.13147609
Si      22.79925550      37.44511719      22.78616067
Si      25.34013811      31.50265966      24.56447144
Si      24.99924406      35.26537585      25.23462174
Si      22.90872402      35.73416537      21.03155410
Si      25.11865316      33.61497857      23.51854660
Si      24.67146581      36.18115283      19.85394782
Si      26.97715236      34.05937784      22.22340051
Si      24.50700268      39.10816446      25.70245628
Si      22.53194249      39.45838714      21.72422963
Si      26.69309830      35.22800112      26.43019844
Si      26.54816808      37.04104862      28.27957955
Si      28.69333470      35.77351098      25.16578205
Si      26.47653588      39.05535087      27.03580280
Si      28.36254652      39.45457042      25.69160564
Si      24.71638612      37.37040754      24.09747747
Si      26.75814931      36.09031642      21.13141243
Si      26.57169051      37.76004693      22.79478239
Si      26.49471830      39.88625842      21.62914566
Si      28.52655077      37.78933677      24.10047752
Si      28.93254888      34.03501071      23.68837900
Si      25.56193900      20.20829334      13.60328061
Si      27.07028979      17.61310904      15.97010995
Si      25.99785009      18.76041284      11.75388146
Si      27.00106007      21.18351137      17.10233863
Si      25.95257764      22.44881537      12.88954274
Si      27.96247734      22.77628278      11.90690922
Si      29.33044410      23.82216180      15.38537591
Si      27.29034121      19.79678572      15.25568749
Si      29.89635792      18.68931495      12.54822104
Si      29.40778525      20.17290338      14.34816899
Si      28.36820704      21.25177510      10.08381341
Si      34.52077180      31.14718254      21.80919034
Si      36.90335697      30.87338706      25.76438884
Si      35.10939942      29.85894395      26.96934804
Si      35.29637687      29.16545424      22.57631139
Si      33.71019569      28.06012192      23.88170212
Si      34.10637798      32.55365806      23.71747034
Si      32.50498844      31.56779532      25.00056531
Si      32.67866520      30.84296156      20.50349958
Si      31.73570519      27.91006115      22.61146868
Si      31.01876977      29.81287406      21.80112441
Si      29.98335488      26.88417826      23.89941956
Si      30.55745023      31.25395025      23.60052662
Si      28.76991557      30.16770320      25.00013963
Si      33.14528174      29.43567996      25.72955257
Si      31.61473797      28.54660755      27.04722695
Si      30.92871544      29.98694756      29.00457661
Si      29.72216030      28.25226650      25.81344188
Si      28.27821221      31.75237427      26.92417773
Si      21.55011313       3.83820592      19.64171564
Si      21.26669776       5.26039079      23.25524458
Si      19.70689558       2.32932315      20.12134423
Si      19.42257348       3.89671544      23.60324755
Si      20.21886673       0.36605447      21.01920751
Si      23.05610051       2.69544253      18.23189646
Si      23.64484711       0.58721693      19.15069442
Si      22.65958394       4.16106618      21.65043603
Si      21.53219833       0.75135067      22.96507133
Si      23.33534693       2.06028493      22.77911449
Si      24.95315594       0.96720357      21.24186964
Si      21.88412461      39.39757578      19.47515594
Si       3.19324349      28.15322669      11.44594620
Si       0.98543131      24.91005961      11.21451636
Si       4.16659144      25.04158373      13.66147789
Si       2.81879960      23.60557805      12.12413400
Si       1.98710850      26.74787373      10.06961750
Si      39.04189581      28.33259319      36.77544670
Si      38.11391984      30.26317062      35.67061787
Si      36.25043525      30.77945772      37.03600851
Si      36.85783867      31.55193953      39.13360720
Si      34.00234681      34.09405439      39.27623819
Si      34.03636045      34.94368896       3.70559345
Si      35.81332323      31.63569326       4.41808851
Si      32.09376353      33.98098625       4.12360157
Si      37.64328728      34.42699974       2.61220568
Si      33.86784372      36.82210814       2.21009046
Si      33.08541114      35.79526729       0.10198156
Si      37.51136768      36.20586673       0.93446518
Si      35.61676356      33.39812354       3.12427406
Si      34.89791313      32.64150500       0.87877649
Si      30.94781786      34.73402171       0.48833804
Si      37.05801925      25.21366660      33.23462640
Si      37.07389763      22.97317817      33.81927017
Si       0.86697652      22.89627261      33.27343760
Si      37.43176192      22.80682661      36.15754087
Si       1.12568765      22.60531876      35.62967752
Si      38.62438991      22.26442531      30.42520202
Si      34.98129857      22.13220582      32.97734167
Si      36.68908882      21.27726444      29.74935385
Si       0.35219342      18.91055175      29.68707026
Si      38.84629456      21.94060642      32.68527915
Si      38.86519647      19.67903908      33.20990849
Si      36.83663872      18.69742287      32.48279355
Si       0.69650105      18.71266990      31.95047250
Si      37.17427515      13.00552848       7.18069886
Si      37.69753807      16.68189257       6.69202447
Si       0.32184785      14.14596424       5.63313648
Si      36.17886207      15.11159520       6.80415335
Si      35.09048453      14.88549058       4.66694437
Si      38.82152793      12.58027976       5.65923048
Si      37.88409283      12.40153299       3.53441705
Si      39.44393232      16.45615726       5.26763923
Si      38.41163014      16.10803058       3.08295310
Si      36.82408335      18.86891298       6.17215423
Si      34.10491750      16.94646949       4.06285633
Si      35.72678755      18.72391852       4.13864227
Si      37.32129168      18.21771101       2.60630135
Si       0.04030769      15.69513556       1.45675351
Si      36.92301367      14.50683454       3.01495511
Si      35.74368570      14.31900946       0.84813699
Si      13.82832601       4.49280820      26.29753037
Si      14.34433719       6.02364787      24.47165885
Si      16.36736184       7.09065765      24.78378771
Si      15.23272421       1.66193323      28.38376274
Si      13.75157157       5.90096717      28.31085818
Si      15.73164826       7.01588222      28.70276586
Si      15.56261890       2.97338058      26.53346011
Si      18.09489049       5.65805439      25.10042539
Si      17.65756719       4.12613514      26.89505502
Si      19.40988778       2.65998877      27.22177878
Si      30.27486472      22.34736245      29.34801689
Si      28.95002834      22.39184065      27.51482010
Si      32.48442880      24.16188100      31.75366470
Si      33.62935943      26.21131814      32.21518533
Si      31.30306249      24.33493711      29.91327248
Si      29.65692394      26.05475408      30.00354533
Si      28.28846730      25.55144498      31.85804683
Si      30.99345897      28.06534141      30.68195514
Si      24.89488480      23.31852928       1.83827178
Si      25.23252314      23.30019741      38.05604684
Si      23.86239247      22.54299737      39.91734930
Si      25.32128831      25.62122702      38.17182698
Si      23.04565944      26.63033043      37.97622517
Si      28.09802550      25.53130709       4.23883131
Si      26.03690473      26.39272330       3.95085845
Si      23.59473587      22.52978248       3.61196957
Si      24.51371466      25.64986924       5.76492686
Si      22.53162876      26.52594862       5.42754572
Si      24.97698632      25.60911371       1.83504886
Si      21.76994672      25.83281702      39.71205751
Si      22.69529798      26.55978648       1.70312009
Si      21.54336233      25.74226124       3.46136640
Si      22.87930784      28.75661779       1.65143956
Si       3.01657349      33.89157337      38.21411037
Si       2.34105799      33.30015280      34.56785915
Si       1.71676515      29.77311156      36.92268533
Si       3.83634229      30.46189157      36.67982451
Si       5.11557969      29.94124905      38.57720962
Si       4.61986468      29.52655913      34.76226178
Si       6.82327366      30.23397314      34.42240598
Si       3.83976890      32.80099739      36.34898456
Si       5.96890350      33.67400516      35.93684393
Si       7.31328496      33.08410452      37.99542097
Si      16.54527479      12.44407201      36.97136656
Si      18.83271327      15.88020083      38.66056425
Si      15.82326224      13.67619223      38.89929311
Si      17.65432721      13.95218518      35.51717197
Si      14.60552346      11.71973205      35.92956947
Si      13.14090255      13.35163612      35.29716965
Si      15.46802922      16.82073271      36.84779610
Si      23.56659074      23.03684319      18.95114039
Si      21.57442100      22.79752976      15.68574423
Si      19.76915037      23.07779239      19.05389903
Si      21.68121193      23.83200260      19.88568106
Si      19.87643277      23.86111841      16.77896082
Si      19.96486269      26.12988386      16.53065058
Si      25.40283632      22.60666025      15.57346762
Si      21.47870248      23.37292044      13.37443979
Si      23.42508768      22.35948263      12.29043286
Si      21.71076872      25.73147618      13.15612002
Si      25.46786344      25.40635004      13.03312744
Si      23.63523617      23.47664489      16.68082007
Si      19.74300630      26.75526900      14.25218552
Si      38.36600414      38.71828410      21.41000636
Si      39.04222175      37.12045470      19.84300922
Si      39.69000098      34.56487999      22.92789223
Si       2.52158675      36.78739119      21.65916518
Si       0.62012914      35.64781812      20.87882623
Si      21.90217058      34.78454427      29.38362836
Si      22.18293765      36.86865916      26.22071846
Si      22.91684395      33.01889804      26.09634401
Si      19.80983865      34.65936221      24.36216997
Si      21.16721317      36.73985468      28.16170590
Si       4.92310232       2.53826111       7.64401331
Si       5.80025932       2.93451342       9.88348995
Si       6.41596548       5.88001448       6.41530939
Si       7.37659791       6.22473777       8.64074872
Si       8.65551289       2.54490971       6.41372787
Si       9.32878284       3.01650293       8.52854859
Si       6.27541773       0.86852970      11.00547860
Si       7.10350206       1.24942810      13.19312746
Si       9.80271179       1.00905821       9.72675285
Si      10.66930459       1.35697973      11.74265041
Si       9.27740151       7.63301188       8.53899187
Si      10.13169109       7.96288584      10.78595456
Si       7.73804749       4.15152213       9.77941092
Si       8.45991877       4.52128166      11.93061983
Si       9.00630032       2.47204411      12.99651545
Si      10.49971839       5.95578994      11.85840615
Si       9.75986944       2.89842261      15.22106946
Si      11.26032868       6.31905658      14.08655740
Si       5.53686756      36.29897151      39.74300856
Si       5.11402797      31.46621659       2.13628998
Si       2.02996400      37.14287820       0.97373469
Si       3.75309027      35.52615307       0.92746223
Si       4.53039533      35.01640816       3.06405471
Si       2.62263895      34.28275494       4.30400793
Si       7.87522901      34.21604547       1.92038548
Si       6.94263255      29.76003124       2.03986987
Si       6.39931643      38.25154178       0.51904120
Si       5.21964172      36.89727207       4.06650552
Si       7.04532204      37.79761613       2.92298730
Si       5.85383083      36.55132492       6.39729373
Si       8.84550018      36.05731018       2.87191756
Si       9.50157123      35.70071843       5.01609885
Si       6.09337412      33.37712821       3.09603456
Si       6.66198909      32.96253575       5.19889876
Si       8.41779565      31.29177121       5.25104611
Si       7.54826143      34.71000280       6.30274171
Si       2.53804668       8.13864309       2.24997850
Si       6.03438525       9.20512084       3.68832715
Si       3.54979118       6.87537291       0.55113664
Si       3.90011006       8.21984263      38.70329211
Si       7.35637682       9.34010849       0.15909663
Si       5.03038023       7.04672823      36.86572787
Si       5.25177640       8.51016532      35.13912174
Si       3.80844017      10.04038895       2.82048939
Si       4.24566737      11.38280008       1.03736563
Si       7.26705293      11.06764130       4.31464791
Si       5.34506569      13.29979905       1.58532094
Si       5.75518528      14.67610310      39.72140005
Si       5.19232003      10.21915860      39.30315176
Si       6.70907073      10.34052742      35.78173399
Si       5.49149736      11.49591850      37.35354873
Si       6.91484607      13.44194361      38.00681268
Si      24.93778353       3.80654584      39.74295068
Si      26.93549049       5.19095398      39.55056764
Si      28.69555371       3.75831162      39.35214100
Si      25.01054953       2.38125696       1.46976180
Si      26.99372740       0.88326298       1.14471243
Si      24.60531458       2.77077823      37.69655096
Si      26.40679602       1.26303340      37.31475709
Si      26.74278691      39.66711041      39.16780641
Si      28.62121555      38.37667121      38.73920520
Si      28.93586342       2.21935818       1.03026035
Si      30.48321873      39.62664221      38.66126586
Si      30.83106283       0.76902117       0.66757084
Si      13.49216289      10.29646250      20.02410809
Si      12.86329619      13.93379905      21.07438891
Si      10.58705288       7.83472534      20.05750074
Si      12.90043874      10.89231930      17.73066930
Si      11.99441466       9.08857319      16.70974933
Si      11.45253667      12.66491939      17.98030335
Si       9.91215454       8.35014585      17.70564245
Si       8.71181224       7.09128972      21.06603505
Si       7.15126523       8.84838006      21.17275178
Si      11.45457758       9.47847928      21.14188370
Si      11.01202652      13.16091756      22.37927986
Si       9.96210137      11.32265870      21.19122998
Si       9.49483675      11.93421682      18.93961113
Si      35.20084440       1.89790487      32.43489945
Si      34.23563799      39.16170762      29.96176280
Si      33.09314207      39.05455966      33.65934057
Si      34.84595128       5.60539879      28.49723738
Si      34.69970462       1.47223691      30.28073673
Si      33.83887656       3.01533229      25.99646118
Si      32.68094616       2.77766063      29.67746871
Si      34.31859100       5.21150523      26.33064484
Si      33.40176486       1.32550109      33.87926278
Si      31.48329784       2.48911578      33.32233741
Si      35.61681551       4.26901113      32.64562336
Si      33.01463974       5.06063246      29.93072546
Si      32.39035109      38.74887055      31.39125206
Si      30.50182530      39.77236421      30.82559049
Si      32.13079340       2.26175635      27.35250307
Si      31.69664567      39.96322003      27.07944104
Si      30.08567544       3.51600956      26.96804737
Si      29.89214405      39.45475744      28.65157137
Si      27.98099321       0.60733305      28.15762788
Si      28.73658036      39.16862394      32.19865493
Si      30.72523172       2.12021827      31.11235200
Si      29.49001246       5.68576380      30.91755760
Si      28.98630782       3.36410652      30.55095598
Si      28.45306923       2.87595283      28.33673845
Si      27.15991656       2.83785763      31.92540717
Si      30.70513038       5.84930271      27.14304792
Si      10.84410181       6.14463932       0.35021390
Si       7.37906762       5.54657556      39.21990776
Si       9.96888659       7.08485612      36.04462192
Si       9.14740675       8.67821481      37.87244072
Si       8.90352470       7.03814265      39.89445089
Si       8.06696739       8.46975819       1.58976539
Si       9.69258270       9.99379925       2.02971754
Si      13.08697280      36.90310574      18.77060255
Si       7.53378082      38.57048599      22.04819301
Si      14.32713354      38.18894642      20.34417048
Si      10.76290417      37.20384593      19.33883377
Si      10.50822929       0.25152274      17.19530199
Si      10.09589910      39.41742862      19.39816394
Si       7.87430714      39.46668367      19.93036370
Si       1.16462722       9.42039943       7.77944538
Si       5.02230635       8.77036062       7.31451390
Si       2.95081111      11.02986728       4.80562953
Si       3.25169995       9.09269968       8.93742245
Si       3.83177430      10.90049523      10.31206601
Si       1.30998879      11.15419821       6.37660827
Si       1.71939892      13.22852240       7.87260697
Si       0.09538739      13.34978384       9.37256741
Si       5.07316455      10.68249918       5.94260474
Si       5.48515201      12.56162267       7.31001485
Si       7.56495473      12.35621125       8.43461201
Si       8.05719196      14.20437608       9.77726079
Si       1.75792578      15.04597859       6.48884410
Si       3.58743654      14.75544036       4.86142521
Si       3.82293906      12.92241744       8.83435298
Si       4.25926795      14.74605113      10.26540892
Si      32.10710388      20.03980991      16.99057895
Si      35.09669937      22.16365278      17.06551312
Si      34.07077839      17.03087202      15.48939511
Si      31.30766159      24.46841215      17.13971917
Si      31.81512204      23.23825595      15.37368452
Si      30.08160525      22.72550276      14.14290904
Si      30.70368554      21.60916531      12.08219722
Si      36.43185179      23.71306875      15.71699389
Si      33.19300251      21.53374922      15.71944598
Si      35.33334658      18.54120336      14.14840780
Si      33.97706134      20.47717910      13.73707576
Si      32.02468054      19.90441662      12.37581994
Si      36.73547249      24.05838623      21.58560445
Si      34.56950493      27.04231864      20.79676979
Si      35.07401788      22.79650928      22.10397814
Si      33.32506815      24.20967900      22.98013777
Si      32.69743139      25.75260434      21.35207223
Si       0.19486039       0.92168218      29.90261896
Si      37.06646176       2.41917772      28.73456321
Si      38.01005756       1.52337041      30.59351028
Si      38.11793383       4.41004294      28.06115516
Si      38.08902877       5.86211284      30.08232044
Si       3.65127652       2.46785613      29.16908007
Si       1.28990140       2.96628687      29.41620577
Si      11.31121499      35.07877883       3.23722237
Si       9.58810968      34.26297432       1.72557908
Si      10.95396756      30.72275959       2.17691984
Si       9.00147093      30.06298991       3.38706932
Si      12.44388390      32.92052931      39.26657371
Si       9.14170737      36.01369436       0.25598903
Si      10.89424710      36.52709082      39.01964192
Si       7.30369158      35.10798486      38.71587521
Si      10.11570234      33.79775211      36.38473289
Si      11.81241728      28.72740908       1.13991915
Si      13.56051984      29.38812240      39.79134846
Si      10.03699532      28.04113520      39.55870631
Si      13.17394072      31.01857764      38.24479617
Si      10.43997489      32.31989586       0.69542167
Si       8.74618964      31.46703056      39.25044350
Si       9.60879589      29.58646982      37.93319876
Si      36.91536422      22.53747624       0.97836491
Si      36.90223793      20.08390105       1.37696772
Si      35.23058658      22.06469424      37.55805082
Si      33.45027620      22.54366817      36.29416066
Si      33.76914187      21.56455514      34.16575248
Si      35.25595693      19.63189126      37.93935799
Si      35.49549776      18.66585428      35.76850333
Si      35.42104735      16.26376048      36.12881731
Si      33.77558785      19.11720717      34.37306778
Si      13.98965211       4.36790685      13.99537328
Si      15.60190024       3.74738364      12.30734088
Si      16.74292112       5.52380602      11.58562855
Si      18.28753667       3.09064646      14.98277357
Si      19.52336141       5.02774747      14.18632356
Si      19.84271916       3.21896378      10.80947395
Si      18.32421296       4.87174890       9.91634085
Si      19.38097745       6.88926711       9.08456122
Si      15.29089356       5.31816095      15.68059588
Si      16.38768880       7.30266076      14.88872946
Si      12.48014540       5.85639023      13.08705703
Si      15.26443409       7.00232255      10.61954115
Si      14.81952808       8.72111541      14.12151023
Si      20.62605482       6.09241914      16.00145955
Si      17.78733824       6.45992715      13.27482141
Si      20.55007210       7.88772768      10.85618289
Si      19.00850525       8.39866534      12.44457251
Si      21.63729208       9.61511418       9.88117308
Si      17.43927665       9.87610691      11.57617703
Si      20.17866848       9.45293922      14.40142744
Si      18.61014843      11.84803034      10.78642022
Si      20.03766688      11.20760199       9.07117022
Si      26.99364265      39.02261721      29.64919107
Si      25.29974684      39.37138577      28.12737533
Si      23.41033582       0.15467190      29.33611021
Si      21.62203312       0.43343832      27.62169857
Si      19.67650179       1.27974055      28.72520660
Si      24.42882024      38.08107794      32.37811203
Si      23.73542203      36.46187142      33.86651660
Si      24.82534734       0.16237145      33.45964099
Si      22.95698718       0.93051340      34.57365392
Si      22.71504037      38.38975762      30.88814835
Si      20.78867731      39.29555355      31.87854039
Si      21.23536507       1.32325188      33.03570090
Si       5.09107987      34.63923599      24.31766793
Si       3.82613687      36.58416649      23.23921531
Si       4.29812046      32.22489877      21.56031035
Si       1.90097448      32.60016975      24.41545469
Si       2.80290459      31.08496851      23.02829152
Si       1.09924593      30.11653378      21.63425610
Si       3.21690360      33.75324282      20.30138509
Si       1.53999470      32.87512396      19.03733622
Si      30.96561227       9.38459567       7.53814810
Si      28.80891911       9.73271068       4.37981869
Si      29.18959127      11.87399630       4.39990779
Si      30.99625865      12.48166438       3.13581449
Si      30.65472865       8.72312504       5.50127482
Si      32.49915235       9.25806433       4.09448900
Si      34.23477735       5.89344577       5.08709508
Si      32.86823034       8.38842511       8.55160764
Si      35.13091604      11.15807601       7.27808510
Si      34.86574374       8.93023989       7.23074346
Si      36.66261078       7.99018869       8.21793392
Si      34.48940494       8.17133441       4.93529060
Si      32.92738331      11.48089381       4.11299444
Si      34.66699995      12.13302279       2.83009061
Si      35.60162882      37.47231947      11.19695316
Si      38.85735906      35.51499284      11.23817680
Si      36.12525106      34.48039295      13.50255747
Si      37.75900644      33.80184890      12.34847444
Si      36.84841309      32.24395219      10.68045074
Si      37.47673269      36.60622594       9.84141493
Si       2.82904309      27.75017093      16.89160986
Si       1.75835187      25.70788820      16.58092357
Si      39.47286496      25.64744489      17.17089172
Si       2.48692693      28.18464490      19.16320959
Si       0.22581910      28.38873405      19.85749249
Si      39.08911974      30.03543043      18.49141440
Si       0.13235041      24.70562853      20.75944356
Si       0.04732772      28.87893376      22.02859873
Si      37.78154796      29.03135670      22.57559228
Si      39.98756867      25.36092087      22.94401039
Si      39.13607848      26.21310704      19.38905463
Si      36.85948866      26.40777358      20.04830833
Si      33.54632347      28.05497916      19.27970019
Si      36.81722080      26.89015018      22.30320356
Si       1.46192162      34.54478291      17.20946867
Si       1.59396087      36.34621094      18.64349423
Si      39.84186032      37.94230480      18.21731151
Si       9.66938225      24.33616723      22.63565134
Si       8.67895796      26.05945449      21.27986871
Si      10.03981831      26.19370777      19.23025771
Si       7.52445972      23.63740925      17.65977035
Si       9.50408008      22.35371207      21.44945466
Si      10.37914162      20.64597407      22.84507588
Si      10.70859141      22.46329120      19.42067763
Si      13.08237003      25.07864384      21.10835282
Si      13.45284929      26.93319167      17.71851917
Si       7.43182594      21.70229025      16.47534755
Si      10.45677055      20.43728175      18.39189488
Si       9.84706687      24.20813018      18.05345787
Si      11.10154700      24.26251815      16.13161894
Si      39.04157478       8.71475306      18.74854855
Si       3.14982187       9.05545223      20.44919430
Si       3.78991859      11.01944103      19.17826139
Si      39.47575221      10.19925608      20.51351613
Si       0.16396428      12.22003755      19.08018377
Si       1.45687448      15.72196631      19.62693915
Si       0.86280708       7.98268221      17.31064840
Si       1.58071907       9.83754674      16.22954778
Si       5.77247503      10.37606797      17.91204631
Si       3.42398420       9.50409989      14.85946490
Si       2.00575762      11.72158494      17.75846729
Si       2.74444130      13.62253562      16.71128953
Si      32.43701437      21.67555800      22.95539230
Si      33.15633629      17.75681757      20.73546500
Si      31.30778017      19.23995241      20.23691471
Si      33.74035010      21.94812949      19.35512836
Si      31.28866842      25.38132040      22.84073092
Si      32.56610608      25.71424291      19.16420645
Si      30.83719359      18.89656391      18.05819549
Si      32.01459377      21.45299738      20.57846617
Si      30.12138226      22.77645919      20.13154759
Si      30.66061908      25.07563223      20.52228745
Si      29.43169833      22.47434436      17.90777297
Si      15.28385829      39.03100094       7.57810268
Si      17.79521172       0.55195702       5.09313034
Si      19.43459466      39.40872035       6.17792771
Si      19.72987343      37.36260530       5.19901836
Si      14.04849219       0.44130597       4.22220045
Si      13.62936198      35.66074219       6.63856333
Si      12.06663581      39.26093666       4.39793984
Si      12.38281325      37.14434695       3.29068085
Si      18.31552845       0.95911811       2.91552615
Si      16.66081203       2.16790743       1.88605621
Si      18.64667593      38.91245831       1.90761391
Si      14.68114877       0.84209518       2.05382810
Si      14.90849381      38.65864030       0.96931350
Si      15.74850459      39.39194361       5.15633369
Si      17.85045718      36.09661899       5.38986768
Si      16.11437403      37.17404409       4.28696174
Si      14.12243867      35.97388576       4.39587925
Si       7.36623384      35.64381131      36.05658609
Si       6.21999996      37.26407953      35.02263537
Si       3.19237587      36.66823645      37.50187384
Si       7.17246723      37.39173143      39.31858995
Si       6.71040222      39.40168956      36.19096807
Si       3.84020988      38.56892463      38.60734654
Si       3.32601607      34.87972089      34.00440272
Si       1.04864803      36.06286817      37.57026535
Si      39.78925785      37.94198885      36.70160460
Si       3.82842785      36.80663515      35.11555361
Si       2.63070674      38.62638764      34.18614311
Si       0.43465300      38.15262411      34.36338682
Si      17.62014888      17.94276316      28.26153735
Si      17.21647101      20.08865755      31.40908422
Si      19.44275384      20.02986031      31.81929960
Si      16.79212273      19.92585596      29.05053406
Si      20.79509106      15.80115602      27.74616481
Si      23.78279238      19.65887262      30.27444021
Si      17.19330774      17.78708984      25.93411145
Si      20.01296274      17.81262698      28.62044538
Si      20.19156811      21.71127746      28.38690664
Si      21.02334560      19.64862364      27.50749217
Si      23.42469764      19.58117486      27.91381300
Si       1.12712527       7.84394189      28.59512145
Si       1.94405309       4.22082295      27.24966849
Si       5.31304351       6.97522626      27.89479623
Si       5.24076282       5.52143759      25.91108667
Si       6.12221126       3.42033017      26.49354064
Si       2.08011931       7.27614989      25.01083649
Si      38.51510005       6.14096986      26.20336656
Si      36.21215779       5.99270464      25.63494697
Si      39.73028604       7.08929573      24.40769660
Si       6.31422235       6.53336770      24.25756572
Si       3.06933310       5.16742829      25.41150820
Si       2.68024431       4.00463895      23.59601815
Si      12.18597420      31.00747468       8.35281390
Si      11.25296066      29.85140754       4.81428798
Si      11.02379306      33.55894385       5.72879503
Si      12.43234465      33.21599729       7.45433545
Si      14.63821593      33.66959523       6.79301664
Si      13.59644405      30.64764268      10.26347623
Si      15.78480846      30.95334920       9.43873496
Si      13.82609916      26.92798188       9.37940870
Si      11.83993901      28.34763596       3.00479962
Si      15.12629094      26.10265716       4.97988821
Si      12.67549638      29.53840081       6.63620214
Si      15.18175528      31.94633554       5.06671500
Si      15.01808870      29.81095672       5.91686254
Si      16.35901623      29.49088543       7.80441821
Si      27.73599243       5.70289357      10.64265573
Si      25.44490288       4.78815300       7.64030933
Si      30.87235524       7.99392917      10.04793873
Si      33.89753990       6.50989943       8.06216406
Si      31.72782422       7.27328331      12.09574649
Si      29.42128753       6.27002964       9.16983985
Si      32.99539575       5.31306705      11.74308341
Si      30.77512095       4.35767343       8.87425856
Si      34.86708009       5.80642931      10.27786297
Si      32.61231192       4.73579493       7.26745369
Si      33.87213432       2.85971374       7.03272849
Si      26.47051150       4.12873274       9.87068098
Si      27.74641572       2.03055686       9.54996277
Si      31.70775543       3.51736795      10.86905425
Si      29.91229494       3.09739630      12.29118969
Si      28.62395722       1.45098364      11.62698351
Si      26.37977346       0.41910307       8.69207938
Si      29.47142526       2.58021798       7.98122257
Si      32.47702147       1.10825105       6.10809903
Si      30.72557736       0.70064593       7.62888271
Si      31.74527323      39.92629746       9.69254388
Si      32.45778892      14.21578720      30.60499729
Si      36.83532783      10.87085749      30.11031814
Si      30.98822033      12.75570536      27.38602565
Si      29.57401702      11.49429679      24.13980360
Si      35.34722427       9.63181470      27.00281362
Si      31.42822736      11.31825933      25.54958541
Si      33.91903538       8.10778621      23.53122642
Si      33.46677970      11.83632943      24.47090469
Si      35.73102015       7.98183757      25.18620934
Si      30.93408203      14.98503359      26.41724519
Si      32.86282572      12.68211054      28.82700022
Si      34.67207548      13.15028172      27.73170849
Si      35.30350237      11.63295770      26.06132453
Si      34.78779848      15.35138270      26.94266427
Si      33.87785059      10.21301252      22.60457950
Si      13.87502668       1.36388853      13.06582139
Si      16.67292519       2.11187498      15.55295878
Si      17.67714924      39.08572240      12.40239131
Si      20.60170437       1.14394933      11.34090788
Si      19.25141906       0.55992679      13.15970912
Si      20.43071436      39.75754670      14.97814022
Si       1.83092291       1.20355849       8.89109367
Si       3.10819635       0.71638713      10.79193771
Si       2.24787773      39.11345166      11.99792619
Si       2.05904126      37.07283996      10.65891725
Si       0.11216979       1.70377769      14.06747486
Si       3.29739216      38.46737235      13.91733524
Si       3.59547625       0.43536697      15.20677403
Si       1.39053896       1.08761711      15.99311662
Si      37.69261646       4.44793764      11.44502434
Si      37.81452922       2.22881847      14.58172153
Si       0.06046381      39.62841479      12.67993131
Si      38.99520916      37.75544083      13.77403457
Si      25.35062768       1.02318235      17.56085106
Si      23.76918611       0.18234023      15.98026098
Si      22.63323190       1.96111708      15.05830095
Si      25.34382312       2.39857972      12.38248838
Si      22.31253539       0.06053642      11.78777916
Si      21.05814468       1.11547615      13.41058895
Si      23.84324337       1.43408006      10.75477988
Si      22.58293089       3.33086877       9.80102883
Si      26.74461555       2.57275982      16.51445393
Si      25.51901496       4.26081387      15.70279477
Si      21.43430326       2.97395808      16.76192231
Si      24.29826939       5.36292552      17.34461584
Si      29.52252850       2.93851804      13.90321498
Si      26.86070847       3.82865666      11.43270516
Si      28.31466206       4.74846379      12.88395073
Si      25.58612143       5.67685900      10.38794774
Si      27.09412123       5.88789667      14.73563105
Si      25.89352645       7.62363674      13.71283396
Si      24.14041283       3.50859239      13.88090740
Si      21.47296294       4.35671518      11.43371625
Si      22.98064383       5.30391922      13.07288422
Si      21.86878811       6.38164995      14.80469380
Si      24.53370592       6.96540897      12.05218102
Si      23.27752252       8.48802706      11.13612669
Si      24.12191060       4.82485162       8.89821159
Si       7.34545095      15.34602822      13.77603917
Si      10.34802795      13.67353272      12.04884972
Si       5.92489118      13.96624621      12.68540877
Si       5.35486534      12.08462678      13.86683692
Si       9.14438207      14.26661104      14.14054192
Si       8.80637791      12.18008676      15.35388666
Si       7.79566356      12.71987586      17.53807087
Si       7.47866280      10.82839776      18.55247218
Si       8.74392648      12.39882875      10.85481590
Si       8.41434202      10.45194202      12.00602397
Si       6.85114441       9.04196599      10.74160529
Si      12.34640587      12.63512014      12.44151707
Si      10.99649746      11.13594579      15.71920504
Si      11.85724002      10.70775092      13.62219345
Si      10.46190537       9.24136945      12.34719618
Si       9.90762243       7.25486094      13.59141681
Si       7.42603567      10.88155428      14.18447499
Si       7.01570155       8.90216154      15.30816014
Si       8.94726326       7.78095771      15.68813670
Si       8.53007482       5.85528150      16.73234527
Si      22.51415795      15.86060010      29.47149072
Si      20.25354377      13.95714530      32.09490348
Si      23.86964522      16.53360328      31.23545369
Si      23.26759622      18.47737827      32.15601394
Si      21.12498768      16.59637202      34.55289387
Si      18.76299200      14.93220660      28.49950659
Si      17.24781831      15.79200311      33.70129260
Si      20.26028987      15.51724929      30.17478797
Si      20.96229867      18.28065684      32.88463451
Si      19.57065968      17.67308734      31.19305254
Si      17.35223960      17.47624292      31.94713174
Si      18.75407246      16.42292341      35.31494643
Si      21.19132507      17.42188564       9.96769726
Si      18.81118239      21.31639455       6.93652542
Si      23.13012270      20.20506478      11.86390974
Si      20.46120073      21.69364076       8.67867598
Si      20.83082802      23.93682394       8.81737657
Si      22.48723338      24.31041878      10.55377231
Si      22.75490483      26.63603947      10.78710535
Si      24.38298990      29.92981838      35.30031096
Si      25.85877623      28.24553450      36.14104014
Si      27.50536064      27.96891438      34.48280115
Si      29.66470770      30.45411813      36.41058531
Si      28.64727560      30.02728141      34.39691342
Si      29.59860495      29.16223938      30.76337766
Si      17.92655777      25.27924163      20.86200322
Si      14.70691095      26.75363108      22.33457348
Si      16.97888010      23.16959165      20.55359022
Si      17.43269894      22.15453109      22.80744816
Si      14.23899297      23.48846671      24.21831667
Si      13.24095213      17.86412139      22.38456496
Si      14.07878051      20.02826804      22.42060262
Si      16.41662134      19.95870513      22.78767804
Si      13.20046967      21.30894792      24.24171649
Si      16.90124361      18.63163580      24.61831173
Si      13.75569508      20.19705603      26.20257243
Si      12.69962173      17.99022149      26.16777991
Si      17.03741232      26.56538500      22.68477625
Si      13.42410707      24.67866140      26.19176052
Si      14.28394825      26.66006174      26.21330023
Si      16.58118415      23.24813172      24.66807517
Si      15.94082212      19.96690114      26.48752789
Si      17.02595471      22.04060386      26.65258861
Si      26.02610490       2.70922410      34.61264356
Si      29.62148501       1.42163027      37.10126786
Si      31.24423545       3.03304233      36.21154122
Si      26.94168499       4.10181248      36.41566245
Si      28.56133044       5.52762406      35.37038719
Si      29.41773241       6.90625204      37.08173154
Si      27.88826697       1.33208680      33.65817341
Si      29.42977338       2.89189906      32.64717324
Si      34.53686767       3.13289100      34.27018272
Si      27.58453322       6.84979983      33.74290435
Si      26.65517997       5.42869676      32.06891189
Si      30.19228750       4.31698907      34.43028489
Si      31.91078435       5.61383136      33.52070375
Si      30.85823083       7.07285803      31.88189771
Si      33.65835902      16.34424149      38.94123047
Si      33.35989609      16.22733700      36.84563235
Si      35.35278168      18.63497545       2.58929819
Si      33.06698524      18.73454987       1.98971843
Si      31.86822897      17.01159220       3.15481720
Si      32.83123423      18.47631525      39.75483009
Si      30.53240399      18.74946366      39.07789549
Si      23.14988999       5.78281319      28.91123785
Si      21.82538849       2.14203700      28.94099259
Si      24.99658821       3.10986441      30.95112420
Si      26.27387496       6.70332103      30.72579487
Si      25.74120225       0.89305118      31.16054337
Si      23.82735552       3.39622192      28.94187052
Si      25.00966510       2.76598547      27.13398138
Si      26.93879224       4.33095099      27.15136644
Si      25.59782512       0.61564588      27.24665699
Si      39.31240903       9.58813509      15.59325957
Si       0.01971786       9.81675769      13.33167926
Si       2.20018666      12.87492784      14.50722768
Si       1.90880821       8.57314842      12.87212142
Si       2.63736962       8.91781102      10.70316508
Si      38.70508868      13.60763668      13.33042100
Si      38.31528086       9.28839702      11.88382891
Si      36.43097253      10.63508216      12.40851267
Si      39.00631963       9.51476120       9.66975195
Si      36.82387379      12.72962079      12.05965163
Si      37.67360198      13.22298770       9.64556946
Si       0.60331494      12.14725021      12.87085646
Si       1.31796089      12.50774783      10.69378303
Si      39.68943963      11.89505861       9.24470081
Si       0.92836300       8.30204392       9.23952062
Si      36.39571706      19.88161465      11.76899679
Si       0.22893962      21.83010387      11.17895631
Si      39.44117962      24.03545502      10.43413467
Si      37.09776710      21.49532633      13.31744855
Si      37.16177182      20.32414373       9.59416123
Si      36.20593776      18.87688017       8.12457978
Si      36.33811623      22.45925625       9.08748473
Si      36.31090560      21.34215231       5.30283093
Si      39.48677055      22.85038240       6.81548981
Si      37.24001296      22.96472264       6.88103135
Si      36.29867007      24.97404140       6.05912120
Si      33.87231458      22.56877955       9.00748051
Si      37.18688567      24.00278401      10.51384354
Si      36.40370859      26.26442480      10.03991266
Si       8.36588161      11.66895969      36.07084734
Si       9.90284567      13.17873038      35.23636384
Si      11.35900966      11.90705158      33.86733164
Si      10.91564332       8.94140706      36.18434012
Si      10.15054716      10.66004460      32.14199497
Si       8.73748290       9.25640123      33.14530968
Si       9.99525375       7.77540974      34.51805325
Si      12.62002816      10.42230958      35.26888241
Si       0.68670551       5.28206868       9.40085474
Si       4.70821416       7.02045249      10.22004882
Si       5.04735109       6.14140518      12.40361327
Si       2.46685854       3.98554583       9.47030171
Si       2.85441205       3.05563937      11.63502160
Si       4.87989952       1.92151610      11.68154595
Si       7.25859933       4.06421726      14.55298686
Si       5.26998244       1.03256236      13.80956044
Si       0.93975852       6.98927084      10.80439868
Si       1.33667027       6.20315130      13.10563988
Si      37.48104809       6.30515950      13.75729336
Si       1.58386339       8.05128461      14.43090682
Si      39.43402507       5.01745276      13.78495444
Si      39.82083278       4.27867704      15.88106956
Si       3.29642461       4.89534008      13.18759505
Si       5.62130790       2.84237790      15.33021199
Si       3.56256498       4.21008194      15.31027467
Si       3.89863489       5.90275852      16.63365361
Si       1.67435388       2.87853525      15.96871164
Si      24.08741159      16.89077114      39.91389929
Si      25.52098372      18.27197650      38.45701016
Si      22.88851842      17.88923339      35.70825507
Si      24.00064316      19.38060431      36.93814059
Si      24.33738452      16.49209547      34.44199107
Si      25.40822583      20.74990037      35.58122431
Si      25.63379426      17.79357382      33.09091986
Si      26.57631365      19.79474108      39.68688752
Si      26.92771253      16.89046328      37.17515312
Si      26.80552917      19.28801994      34.40044507
Si      28.29276868      18.21349630      35.86604330
Si      29.79559391      16.85024424      34.79280301
Si      29.06541627      15.45237774      15.30360726
Si      31.03143137      15.55473448      18.49965381
Si      30.50634687      17.08639660      14.29796716
Si      32.40999820      15.88153809      13.25977837
Si      32.59373217      17.12508065      17.69656859
Si      29.95527416      11.26020435      19.25985243
Si      30.72738810      12.55023121      21.11486284
Si      31.83788053      10.06175943      18.31305158
Si      32.25685045      14.22823099      20.14457424
Si      30.30000438      14.04763165      16.78925439
Si      32.10381510      13.09520344      15.91849817
Si      33.59596538      14.68165621      14.90089290
Si      33.15439202      11.63572973      17.29923393
Si      32.88860878       8.92667263      19.92465819
Si      30.90956078       8.79205663      16.52221326
Si      32.67347906       7.58279351      15.56743159
Si      21.22325803      39.67328386      38.93799357
Si      19.54805782      34.70114368      38.66271654
Si      21.08413726      38.37742842       0.66392387
Si      22.51498858      36.48398949       0.33054914
Si      22.12735849      36.84896283      36.47913318
Si      20.32311654      31.67127895      36.15400976
Si      23.37771654       0.58543589      38.61057043
Si      24.71401941      37.17054062       0.03284307
Si      24.87142420      38.70032261      38.18682465
Si      24.15843082      37.50670927      36.34091912
Si      21.84888397      35.33776682      38.36502284
Si      23.19753527      33.56924604      37.99175225
Si      22.47841624      32.36743253      36.10797508
Si      25.47440882      34.25548907      37.79265101
Si      34.39360632      20.17490241       6.38464132
Si      33.38387919      18.14020159       6.70441202
Si      31.16975125      18.49505522       7.44088117
Si      34.54792964      18.28810182      10.38057623
Si      32.38109874      18.59986041      10.98942433
Si      31.18524375      19.75538175       9.43347271
Si      31.25972365      16.48039760      11.46596328
Si      30.03985150      15.06002842       5.75790490
Si      28.82778529      16.29886594       4.12374590
Si      26.85875015      13.38448174       6.84896877
Si      30.11585913      16.31506281       7.89833443
Si      27.87996959      18.09039288      10.55399034
Si      27.80355087      16.71102375       8.49338411
Si      26.79204424      17.90272406       6.87302534
Si      26.78907281      14.71467901       8.83498213
Si      25.72693725      14.67433360       5.26662334
Si      37.82313752       6.41252535       5.39561212
Si      36.59638086       8.20777141       4.52146321
Si      33.88334198       8.64389655       1.68094120
Si      39.28742541       6.44190367      38.58480579
Si      37.98919941       7.64629378       0.18309127
Si      36.76795741       9.16493318      39.22543778
Si      36.65902389      11.33624763       2.33278329
Si      35.37425565      10.36973029       0.57907106
Si       9.99601236      23.20091837      38.03937022
Si       9.28166126      23.23954129       1.73814581
Si      12.46923382      24.82482827       0.53634441
Si      10.82414972      24.97825595       2.10735324
Si      10.47556049      27.06766813      38.15701796
Si       9.73780465      27.06222535       1.88442745
Si       7.85992814      25.47521919      35.84111019
Si       8.26655486      23.44581267      39.63013375
Si       8.75046849      27.32155012      39.86988941
Si       7.02502140      25.56843421      39.42507579
Si       6.20704501      25.72126097      37.31594971
Si       9.61497488      33.65921208      28.02821135
Si      10.36886798      34.10606400      25.87416940
Si       9.02028868      32.90886268      24.41598566
Si      11.90760509      32.81406753      21.86155316
Si      12.79325572      31.05180682      26.06882836
Si       9.19015417      30.55765077      24.76990844
Si       6.71568793      33.50709006      24.50389933
Si       6.53034915      35.83680560      24.24729828
Si       7.19589058      36.33782391      22.01423424
Si       9.68912167      33.36579406      22.17597174
Si       8.50091426      32.16755809      20.59450348
Si       7.13451962       0.04593191      38.14988043
Si       3.38544009       0.06411339      36.90581483
Si       3.08279722       3.74836558      38.22174185
Si       1.24597696      39.72340703      37.44980798
Si       0.61404750       0.85432048      39.23367634
Si      39.90662818      39.98166504      35.59739640
Si       0.78210700       3.17931789      38.71555473
Si      39.46741438       3.74070919      36.93644506
Si       3.28191093       6.02521878      37.56784418
Si       1.83448585       6.38658355      35.79244625
Si       3.77002146       2.43802411      36.35801704
Si       2.29684138       2.92908421      34.46557416
Si       0.11943562       2.45279683      35.03290905
Si       2.52317716       5.09590913      33.83313669
Si      39.67926812       5.94641007      36.39883345
Si      34.69281194       2.41380205      36.52293975
Si      32.02157704      39.87416783      37.14218103
Si      36.17647055       1.23293736      38.01032845
Si      35.92203294       1.83982230       0.21027258
Si      33.36223169      38.50878086      38.56949315
Si      33.31712137      39.43222165       0.68896968
Si      37.01712593      38.48840246       1.42230514
Si      37.58870241       0.71186683       1.46291048
Si      34.82079732      38.12497818       2.21712722
Si      37.30365007       1.38309223       3.72641004
Si      34.54212881      38.75811147       4.34245927
Si      32.52374165       2.07001926      37.25348452
Si      32.39477379       2.79647218      39.60275671
Si      36.57642339       4.27083908       0.32567551
Si      36.34841728       4.95587306       2.65944347
Si      31.13646454      38.90442304       1.51930757
Si      33.86500764       1.56073534       0.82259542
Si      35.08291463       1.10906129       4.64905894
Si      33.51639073       2.30881966       3.07095381
Si      34.09128652       4.58033917       3.27571801
Si      37.75190072       3.84064074       3.84671327
Si      38.10145646       4.66845486      17.39533585
Si      37.25841237       1.96137689      19.95074499
Si      35.28655860       5.24353877      19.85979386
Si      36.82201397       8.53153211      20.95717893
Si      34.53476433       4.67001366      22.01948756
Si      37.33253063       4.26966557      19.64807418
Si      35.88018493       5.77032361      23.45981057
Si      38.90250690       5.36249835      21.16855523
Si      35.93654605       8.06418338      23.10846229
Si       1.81053160       4.68099356      18.73897159
Si      38.27618947       6.84529316      17.04760682
Si      38.95129019       7.57992127      20.68323882
Si       1.92685749       7.00842172      18.39698346
Si      39.42485837       0.97778528      19.89485556
Si       0.94071994       1.98430485      21.25363963
Si      38.10727127       4.99169123      23.31514382
Si       0.94642449       4.25364733      20.96341940
Si       2.37773233       5.34398153      22.41463458
Si      21.73469447      29.42173549      35.23093495
Si      21.40677769      28.62396046      31.40787616
Si      21.79796226      27.15339716      35.77241471
Si      20.65708144      25.88543267      34.04664561
Si      22.76592735      22.69400021      34.47079742
Si      22.29005902      22.14006487      30.61506204
Si      20.51416070      23.62980153      34.34605061
Si      19.25486874      22.42974832      32.72324467
Si      18.24742091      29.08884861      33.75933265
Si      18.40534466      26.65302649      34.01827312
Si      21.45319010      26.21326461      31.90916117
Si      21.08126437      25.57962935      28.16332909
Si      20.06501044      25.18625180      30.26657690
Si      20.16042885      22.92397762      30.73601297
Si      17.83326165      26.02275917      30.28203994
Si      20.01369076      35.06156822       3.64600014
Si      19.29304567      38.09293518       0.39339663
Si      17.52325339      36.88913868      39.10795683
Si      18.04261478      36.27704471       3.58291589
Si      16.55950125      35.24123139       2.48769222
Si      14.44382843      36.44128039       2.32309866
Si      19.13007026      33.54480912       0.22887208
Si      16.12441103      33.14339404       3.36206700
Si      17.21524536      34.83900681       0.13940820
Si      15.10850463      31.56368387       0.04526373
Si      12.47231331      26.01407090       4.49438854
Si      12.06322641      26.26293186       6.79168772
Si       8.42006103      27.09366028       6.27288553
Si       6.81974100      28.69057886       6.52306866
Si      11.42327867      24.21788751       7.74649787
Si      11.21361670      24.51214886      10.10802668
Si      10.28597249      27.82607077       7.15396931
Si      12.16878039      28.84822044      10.54298752
Si      10.08587825      28.18065271       9.40108308
Si       9.60773603      26.13610445      10.45840641
Si       9.27427844       2.15166166      30.11747194
Si      11.41100023       1.71111510      29.18947393
Si      10.92138026      35.30247801      30.52318146
Si       9.81934375      39.16236895      32.43371862
Si      12.00920373      38.91713260      31.48378193
Si      10.44508087      38.25206502      28.13371182
Si      11.11745856       0.27041340      27.51999607
Si      11.84181909      37.29605681      29.69388007
Si      10.93931576       2.74451263      33.49248414
Si      12.95486931       2.39849624      32.54388023
Si      12.29406635       3.84102819      28.29894049
Si      12.45682137       5.22026131      30.24882179
Si      13.40134354      37.99215512      33.12294183
Si      12.96509591       0.91070608      30.74469814
Si      14.97988160       0.67547060      29.78693985
Si      21.49500395      32.95593725      27.28190697
Si      21.39682427      31.13516735      28.81422465
Si      18.40435631      32.85004070      30.53760123
Si      17.78263943      30.46734079      27.60726206
Si      16.88057472      31.08576675      29.67576550
Si      16.62677772      29.36860725      31.15713824
Si      21.88805000      33.52191331      31.82624005
Si      17.58489995      33.56439131      32.62712500
Si      17.32846815      31.75640624      34.00146575
Si      20.30756245      31.65030281      30.77765028
Si      20.31321166      30.02275857      32.34407857
Si      19.47983998      30.77793644      34.42116463
Si      16.21467770      38.12500269      38.40002236
Si      15.96817905      34.68624881      35.41225027
Si      18.03041801      31.49107840      36.30757285
Si      12.75670359      37.82630521      36.42693515
Si      10.74206375      38.54686567      36.40401250
Si      12.78992077      35.52465613      37.24340968
Si       9.71261752      38.56725831      38.51173486
Si      13.05023384      38.93892561       0.21711583
Si      12.97270062      36.67857007       0.91405176
Si      14.85062571      33.56909819      33.81086556
Si      12.60664670      34.28813231      33.62910893
Si      11.41699970      34.37728169      35.73824309
Si      14.87522699      34.46341109      37.39257603
Si      14.72952956      32.50046438      38.21558557
Si      13.53231903      31.16654743      36.57591523
Si      16.25627846       4.79283656       8.27754106
Si      16.49305834       2.81625736       4.96880223
Si      18.53386902       5.53844578       7.90109574
Si      18.98071630       5.71632382       5.52535941
Si      20.00605290       3.93641297       8.75627571
Si      18.66532642       3.60387027       4.69049040
Si      20.07043345       2.05539041       5.49636967
Si      16.00353193       2.71378664       7.21920636
Si      17.41411655       1.11823954       8.16214847
Si      19.71344545       1.89074166       7.87458883
Si      17.94249613      22.95569053      13.49577924
Si      14.54102541      20.10458331      12.59237548
Si      16.35456476      20.37518974      11.17793425
Si      15.45228596      16.40507463      13.03351331
Si      17.31945169      16.64011491      11.59384164
Si      16.81150282      18.27088433      10.01076594
Si      18.35539977      21.04802088      12.39101288
Si      16.18820576      29.30738624      26.34519548
Si      18.79961647      27.20684392      23.45160506
Si      18.27001192      26.25403632      25.45505811
Si      16.03129158      27.09745040      26.22213447
Si      15.66049052      26.20691720      28.23212290
Si      20.88233983      24.04099719      22.51038306
Si      20.24382709      23.13390502      24.54415256
Si      20.33957138      20.85893381      24.34784597
Si      19.93282075      26.90379739      27.07264703
Si      21.40966666      22.75269638      28.28575538
Si      18.24630844      23.80709825      25.31803148
Si      17.65824399      20.64829504      27.11297053
Si      19.26199864      23.44663641      29.05522364
Si      36.89621545      26.67804877      16.34157735
Si       0.15887800      24.37250016      14.17187310
Si      38.19461817      25.19450288      13.12103945
Si       1.09065345      27.92421317      15.38212534
Si      39.19990323      28.74276701      14.26715964
Si      36.07504837      28.52699880      17.56328146
Si      34.27607362      29.38658991      16.47306633
Si      36.47719864      31.68910000      14.22584082
Si      39.77363168      29.32141405      12.07027317
Si      37.44413767      27.08519867      14.18946128
Si      35.59037759      28.02299341      13.18659829
Si      34.91625704      30.02614420      14.16402461
Si      36.21580049      28.58923988      10.96200664
Si      34.65366229      38.17253339       6.20623644
Si      32.96794189      34.13948718       7.12283868
Si      35.20163043      34.54353625       7.10876718
Si      29.04966898       2.04460067      17.90594987
Si      27.81170488      39.23244683      20.28917585
Si      31.14623991       0.90005821      17.64264870
Si      30.92220620      39.57054439      15.79333895
Si      27.35829503       0.40953265      18.20936134
Si      27.17509989      38.96637585      16.47103996
Si      28.40679445       1.90360583      14.16178115
Si      26.72943108       0.24952003      14.42027572
Si      26.60253890      38.85110709      12.57874281
Si      29.93253076      38.19604625      19.81749428
Si      29.82036398      36.71185402      18.12579664
Si      28.50119569      33.80088305      20.30114003
Si      33.41891598      37.19984428      17.45242463
Si      31.61921668      34.14098366      15.84965801
Si      25.57402905      37.48965253      16.66092866
Si      26.03548096      36.18814454      18.59378213
Si      28.02715408      35.16913744      18.35587683
Si      27.92720912      33.55086727      16.49806130
Si      29.17384396      37.91103551      16.04709003
Si      28.58995879      37.71345693      12.29920167
Si      29.14298450      36.46504445      14.22118382
Si      31.20921047      35.40251916      13.96207062
Si      27.39504316      34.86400296      14.66025354
Si      29.98233105      32.50319711      16.30428562
Si      13.44189292      36.20019002      21.08559633
Si      17.13274487      35.68936076      21.09480906
Si       7.71852597      36.74033400      24.44572693
Si      15.21852555      34.99192603      22.14678467
Si      14.82950269      32.80282167      21.99566833
Si      15.32068846      35.74552654      24.22685551
Si      13.08717353      32.85635679      25.40211865
Si      11.48357400      35.61364368      22.10864055
Si      11.90238831      38.56356740      24.47821024
Si      11.60055554      36.30668290      24.39248496
Si       9.62226826      35.73752366      25.52645045
Si      13.27746822      35.24255609      25.45970346
Si      32.92675553       8.35492242      12.71951452
Si      31.41798982      10.09626331      11.83899174
Si      28.91294476       9.39199694      14.53207830
Si      27.81429670       9.11676356       8.02450144
Si      29.22772468       9.53773881      12.29142206
Si      25.26858661       8.43660587      10.71772056
Si      27.77953903      11.09599151      11.30952957
Si      25.63920643       8.45281683       8.24748388
Si      31.85554087      12.19734985      12.80532357
Si      30.44730829      13.90278288      11.83061166
Si      28.14095491      11.07940241       8.90499915
Si      25.59756829      10.34430169      11.79346010
Si      25.19368032      10.24472132      14.03104048
Si      24.11346694      12.04414404      10.76545532
Si      24.06066222      13.97639895      14.12075306
Si      30.83197247      15.90190489      12.75914374
Si      28.18585608      13.18738555      12.17042967
Si      26.65208801      14.71522879      11.29256374
Si      24.56644607      14.09133458      11.76172080
Si      27.18782717      16.86039379      12.32286538
Si      22.94971208      15.70753297      10.90122814
Si      24.54982932      12.16829488       8.52919735
Si      12.37645592      33.95512846      31.11967005
Si       9.42673953      32.25475862      29.77252389
Si      12.81725210      31.49906260      28.32266178
Si      10.51496289      33.00802980      31.81599150
Si      10.69089114      31.31458790      33.18704236
Si      13.87107113      32.28667641      30.23674722
Si      14.21595507      30.53327122      31.69759003
Si      11.73246907      32.28508756      35.29055312
Si      15.24485708      31.33288480      33.73014494
Si      11.88911557      30.36273889      36.78866582
Si      10.74118618      30.52663358      28.94664672
Si      11.07937936      28.69869512      30.39545215
Si       8.66770837      30.42774899      33.85052515
Si       7.65591592      29.57141061      31.90576983
Si       8.88389159      28.64209181      35.47754956
Si       8.96181225      27.84757602      30.97625206
Si      14.19100000      29.83549238      27.40624031
Si      14.51247710      28.01061301      28.90719730
Si      12.51745453      27.08444825      29.49480736
Si      12.08348031      29.68840511      32.31088593
Si      13.35315028      28.77106405      35.84862750
Si      12.33317983      27.93166891      33.87294602
Si      10.24392661      27.04066359      34.54384811
Si      15.83020519      16.08018323      29.99928574
Si      15.66498392      15.89317435      33.85283599
Si      12.33482754      15.67856625      31.80827134
Si      16.99122258      13.07533641      31.86614128
Si      13.56332400      15.11851038      29.90291417
Si      13.79222814      12.73046819      29.77398175
Si      15.01529775      12.15065048      27.89594461
Si      15.39074155       9.89525033      27.81268947
Si      13.43772318      14.83782693      33.76062733
Si      13.68756314      12.58690178      33.56280648
Si      14.90840198      12.09510674      31.57398003
Si       1.89903309      28.46900534       4.41023179
Si       1.59066257      32.34894075       4.47828747
Si       5.33291685      28.83753475       2.58692019
Si       1.38054679      26.50098006       2.96908398
Si       2.41403266      26.84099452       0.86792449
Si       0.81261587      34.19487930       3.39533178
Si       1.16202408      30.46655837       3.05678827
Si       2.16262233      30.61567866       1.22784179
Si      20.27567468      13.50572073      24.66144863
Si      18.05446402      10.92970652      26.58566733
Si      17.02544811      10.30571538      28.57563172
Si      19.16273065      12.98160765      26.84163200
Si      17.62667424      14.53929006      27.28290217
Si      17.49287061      18.95212436      14.94640850
Si      21.13528258      20.05097030      15.16390320
Si      18.30709525      16.58448179      14.62972936
Si      22.08956848      17.51268365      12.45843793
Si      18.98037340      20.40626657      14.04760409
Si      32.61111737      14.66596725      23.23658740
Si      31.67660181      17.57758677      25.68447578
Si      31.46108540      15.76226631      21.58542069
Si      31.46040405      18.07738777      21.99407497
Si      34.85480126      15.25351116      23.40413737
Si      30.49562397      18.59506024      23.87638971
Si      29.67401184      21.46988713      26.28055106
Si      30.72904481      20.95454665      24.25571158
Si       3.93093811      18.69869546      30.63614212
Si       4.12118004      17.58497649      32.76943350
Si       1.98881004      17.42185077      33.61795247
Si       7.42901785      20.24393773      31.09634905
Si       7.39532824      19.22080126      33.21514497
Si       5.19135648      14.50415603      34.50789535
Si       8.68611934      16.14152744      35.11690902
Si       5.36627569      18.96753705      34.19169896
Si       5.43630356      17.75853473      36.31017671
Si       6.56492845      15.78310476      35.95054580
Si       7.24515549      26.27747750      25.55999638
Si       8.89459407      25.04674323      28.87134758
Si       6.38877058      28.03265056      29.02235213
Si       9.68605522      23.54358939      25.47317900
Si       7.94657340      24.47006642      26.75756579
Si       6.28299369      22.88059223      27.00304298
Si       5.39450270      22.26524778      24.88072880
Si       3.61164489      20.79749339      25.24675585
Si       7.24176574      26.05776660      30.13659425
Si       5.38215551      24.44484910      30.42863331
Si       7.02256202      21.01395906      28.19671807
Si       4.49660604      23.91031916      28.31026691
Si      31.51767393      24.17456813      13.00165747
Si      35.25338368      23.20878891      12.66693273
Si      32.52328164      21.29668298      10.87165720
Si      30.86295237      23.08847913      11.08156207
Si      31.27964814      24.55713132       9.30444869
Si      34.36631982      26.25150143      14.90842017
Si      30.08449929      26.12802634      13.23875916
Si      30.56203588      27.22774297      15.41319064
Si      30.30597476      27.54416245      11.39534885
Si      32.79932998      27.93014771      15.08885809
Si      33.04468454      29.47899721      13.26203299
Si      33.77081643      25.02133981      12.83721995
Si      33.42640303      25.41463407       9.08400222
Si      33.96965798      26.44221703      11.17237561
Si      28.62344602      30.25035361      15.53370789
Si      30.07801924      30.60621185      19.81529215
Si      28.19963995      29.43767625      19.30203223
Si      26.46234993      32.35569662      17.71214255
Si      28.42071084      28.42497491      17.08755376
Si      26.63962274      26.97414013      16.62700968
Si      26.76844569      31.29827194      15.62097411
Si      24.88925683      30.07741014      15.05515830
Si      29.04702731      29.21248586      13.36462897
Si      27.12605806      27.80662925      12.87320509
Si      27.00838575      26.11794135      14.39287907
Si      25.21040289      28.99857547      12.93752763
Si      23.31001537      27.72368835      12.47908623
Si      26.26663978      30.55461277      19.30349769
Si      24.38710200      29.03892765      18.77533998
Si      28.08779238      27.53921418      20.84690298
Si      24.03641370      27.41702820      20.32270446
Si      21.13114258      29.88188304      14.54850871
Si      24.64121892      28.34344977      16.58122333
Si      22.92421470      26.86515523      16.16672731
Si      20.91949271      28.22784657      16.14137780
Si      21.46060265      29.15299118      12.35208683
Si      25.99032803       2.16927968      25.11192364
Si      28.27766159       1.47581915      22.04053218
Si      27.72598437       2.95101162      24.05323984
Si      31.01184525       6.14501788      23.60529917
Si      27.24725675       5.13624195      23.16773659
Si      26.44522781       1.43183519      20.68698808
Si      26.13490456       3.63795879      19.90653581
Si      29.21306331       5.97823193      22.05547811
Si      29.73240674       4.60305021      20.30643031
Si      28.79113704       8.02783009      21.27087951
Si      31.66192083       5.33784340      19.19124118
Si      28.02114293       4.45673847      18.81256163
Si      27.50572168       6.57898089      17.94087916
Si      32.87205379       6.77933897      22.61988823
Si      25.57094670       5.12903706      21.75216969
Si      25.11407280       7.26239734      20.96768585
Si      27.02368308       8.07088342      19.76715727
Si      28.19312596       9.61281586      23.19819587
Si      28.99251200      13.30091293      25.21466949
Si      29.02151717      15.25831225      26.34899066
Si      27.86181131      15.33798139      28.09494696
Si      29.59470559      11.51245278      26.55900314
Si      28.25231153      11.57740685      28.45847337
Si      28.47745931      13.63643050      29.62499757
Si      12.08525724       2.49503077       6.59904015
Si      13.16053819       2.18581128      10.26490159
Si      11.29395278      39.26023809       8.35528788
Si      12.01074504       0.18007927       6.48151449
Si      12.91828133      39.80474231      10.09624576
Si      12.79356827       3.51418949       4.43015284
Si      13.74080411       3.00291806       8.28736218
Si      15.39167201      24.96237429       0.73328965
Si      18.72346890      25.49734460       3.59127195
Si      19.81687750      23.27984545       3.32741299
Si      17.46684261      25.34270300      39.93342418
Si      18.66423483      23.18704145      39.73885087
Si      20.75892703      23.48186953      38.95726423
Si      22.98462003      21.53474025       2.41632284
Si      21.76038436      21.41409417      38.64259425
Si      15.38164866      23.85557750       2.78800720
Si      16.39701902      21.85775742       2.47536161
Si      16.38650461      20.74632149       4.63796461
Si      17.35002076      21.93162322      38.15313486
Si      18.33924280      19.92718000      37.92655695
Si      15.14250631      20.50016176       1.00492672
Si      16.16597274      18.40007837       0.66226749
Si      18.67564448      22.12633900       1.76902802
Si      21.81183135      20.13693903       0.77692287
Si      19.68644340      20.02308292       1.54571911
Si      18.52758975      18.62234449      39.90602224
Si      20.57628423      20.13084805      37.22885004
Si      21.19553029      18.21611335      23.19413554
Si      23.12375269      19.33369141      22.72264603
Si      24.42776616      17.86539035      21.40750227
Si      19.80639675      17.65913058      21.28937497
Si      21.17146855      16.17253571      20.07243894
Si      26.25255105      14.41171189      21.24468243
Si      21.81571012      14.28024519      21.30543549
Si      23.19703050      17.25672980      19.49871879
Si      24.46319522      15.86348535      18.11269844
Si      25.08928504      13.97520372      19.37759978
Si      23.36237153      15.31838417      16.15581497
Si      12.08637364      10.71647976      23.13438320
Si      12.62654122       7.05073139      24.32754236
Si      14.77742881       7.66910028      25.15911880
Si      13.91953675      11.95505936      26.18349533
Si      14.44041332       8.43412013      27.38432414
Si       9.06772213       8.17951298      23.56169610
Si      11.86813859       5.18830333      25.55514073
Si      11.10578984       8.96937496      24.41441124
Si      13.02881354      10.23021693      27.53807360
Si      10.91569255       9.43543259      26.65219217
Si      12.30956796      13.76254327      26.30636839
Si       1.98104662      16.25151045      38.23099862
Si      39.95504384      18.79996296       1.33888916
Si      39.91651914      19.70896888       3.65186924
Si       2.09068046      19.50619266       0.34049481
Si       0.90690228      21.95295094      37.02996387
Si       0.73811347      22.75782218      39.09460044
Si       2.48448099      21.71286549       0.65830078
Si       3.70373537      15.33416912      39.47920347
Si       3.49861496      16.07330429       1.64288940
Si       3.93229867      18.37405399       1.76538323
Si       2.30163896      18.61230146      38.15325423
Si       4.44391401      19.27107600      37.43524686
Si      21.67045579      12.76773068      33.85872657
Si      22.78807143      12.66847877      30.21547628
Si      24.24142559      15.22209736      32.62400831
Si      23.55612747      14.05319145      34.47345239
Si      24.65255448      13.81838006      30.78021926
Si      19.95032325      10.26214761      31.58446438
Si      21.08261535      11.50916376      35.69136391
Si      20.43530642       8.90699355      29.71132415
Si      21.96295034      11.43841254      32.19272422
Si      25.74486576      10.92755248      33.19339779
Si      23.78214805       9.87491506      32.56633975
Si      22.91366909       8.52281750      34.44415090
Si      24.13851457       8.43856636      30.88478636
Si       0.12557209      17.67818660      33.28909369
Si       0.33278351      16.89866623      38.72017000
Si      38.72731071      16.26800421      34.43076739
Si      37.52122108      17.48037705      35.94566320
Si      37.30776268      14.42916763      38.25882967
Si      38.82357339      15.49949439      39.75911064
Si       0.47118405      19.91413087      36.32783694
Si      39.05625623      18.47130644      37.38192882
Si      37.80684726      19.72724471      39.02794804
Si      39.17082930      20.79579816       0.58780404
Si      39.46224160      23.88593297      38.26239336
Si      25.76807606      13.46061966      16.34812531
Si      28.26728466      12.80777861      19.97279910
Si      25.78144965      12.64739800      20.12457211
Si      24.99554710      12.00116752      17.99394345
Si      28.09355454      13.57587125      16.24896913
Si      28.89740045      11.41611364      15.90566211
Si      28.18000657       9.94961133      17.49271625
Si      28.98793535       7.91756934      17.03272505
Si      25.03865187       9.14044258      15.39590293
Si      20.54967318      26.30371814       9.63766451
Si      17.13982930      27.88259099      10.78734304
Si      20.24714414      24.57623349      11.31572180
Si      18.96067912      22.67207781      10.15051250
Si      18.38871784      27.10878900       8.96815702
Si      17.38998445      25.40818456       7.95028151
Si      18.54141117      24.57770181       6.09313899
Si      16.71984251      26.10150681      12.26122121
Si      15.67892125      24.43901666      11.32412266
Si      15.26454178      26.24437703       7.22569974
Si      14.00011735      24.55514993       6.12367348
Si      13.55352756      25.16841494      10.42392097
Si      12.33755767      23.46757779       9.33840480
Si      16.93467759      23.58436509       9.36411534
Si      16.96880955      21.10581085       6.47293010
Si      15.74999905      21.85952814       8.29730971
Si      15.35996464      20.05886092       9.75654323
Si      13.64039008      22.68624615       7.61670089
Si      11.53431485       6.01114639      33.02843978
Si      12.45231310       3.86750545      33.72573480
Si      15.03435659       5.92968528      35.66548901
Si      11.36280058       3.15706363      35.57437318
Si      15.78458757       5.01829998      32.03332962
Si      14.63290329       4.31794124      34.00542728
Si       2.94359570      30.15257665      17.19320468
Si       6.67969595      30.95395939      17.82755744
Si       5.08843403      27.69770827      19.39108213
Si       6.10453436      30.74129554      21.72922216
Si       8.08236362      32.66366279      18.15802505
Si       5.18113263      26.27516024      21.13232410
Si       6.07443339      29.29521562      23.51159544
Si       6.73551305      29.43768900      19.86284933
Si      29.77620771      28.27392826       5.18724007
Si      32.30716709      29.72569398       2.61971691
Si      30.37118762      26.23112772       4.57533503
Si      30.79411668      32.65567512       5.85029191
Si      29.39731951      31.91809447       4.11919707
Si      32.52559274      31.17602176       0.89123028
Si      29.75799278      33.39411735       2.24373744
Si      28.30822810      32.83616686       0.41373352
Si      30.07658105      29.79586762       3.38415444
Si      28.94790149      36.92188649       7.94141553
Si      31.82901066      37.98343957       4.76687440
Si      29.83211595      36.86145275       4.20655621
Si      29.20481625      34.60068534       7.99723876
Si      30.16767948      34.64541739       4.21485680
Si      27.89875404       0.03278999       5.89115276
Si      27.40372515      37.50331820       9.59429618
Si      25.27305835      36.44338051       8.99694439
Si      29.11527747      37.62404607       2.14373070
Si      26.98826609      36.63271372       1.59223391
Si      28.27465633      37.54695966       5.72155312
Si      26.36115948      34.19947467       5.39956377
Si      26.15832805      36.57032676       5.24494792
Si      24.67034785      15.33600466       1.60324304
Si      26.81140709      14.42772790       1.53275634
Si      26.57926197      12.12492743       1.51055264
Si      26.22513775      11.84024761      37.74678259
Si      28.30644101      10.92064962      37.65299676
Si      23.43045404      14.72697453      39.70808720
Si      21.20518530      15.75403717      39.75206952
Si      23.14857261      12.47640439      39.79829426
Si      23.57471953      14.82376920       3.64778992
Si      25.42720000      11.43472322       3.70998890
Si      24.94541362      11.11115018      35.80688827
Si      24.66787327       8.64159099      36.03830705
Si      21.78655796      11.68886950      38.03326356
Si      21.57810412       9.18602221      38.09136956
Si      25.23413424      11.31645233      39.79720976
Si      23.50612709       8.42605269      37.72926168
Si      27.86544211       8.25546964      37.04258291
Si      24.54366387       6.40626413      37.16652260
Si      25.62022398       8.71057716       3.25604626
Si      28.94889394      10.32479432       0.92051407
Si      23.03415407       4.93596645       0.35662935
Si      25.53318560       8.61419114       0.95898018
Si      26.52347784       6.40383977      38.03627445
Si      26.59937810       6.57436501       0.28792033
Si      28.79404857       6.55727102       1.14134674
Si      25.38753739       4.85000329       1.10881201
Si      23.26897376       4.53026409      38.00422655
Si       1.55522604      39.98744671       4.12191881
Si       3.15158208      39.49472528       0.66345693
Si       0.56107788       2.25710801       1.21672563
Si       6.35714403      38.64038892       6.44176321
Si       3.55439182      39.39451628       2.92149332
Si       5.22865426       0.80427424       3.47106094
Si      39.04805951       2.83855737       4.55789805
Si       1.21899450       4.10142971       7.50191805
Si       1.04260027       2.16151470       3.48765318
Si       2.71312376       3.67639498       4.00910039
Si       0.20316097       6.48589225       4.58308407
Si       3.70214661       1.44823823       6.97963152
Si       5.56929927       0.79937845       5.86797406
Si       3.14134926       3.53004914       6.32440359
Si       0.42865309       6.42696164       6.85822172
Si       2.59234823       1.53552502      39.99142280
Si       4.17651192       3.06853398       0.38912054
Si       7.16551862       0.20453697       2.29828793
Si       6.81258626       0.28270335       0.00653226
Si      39.76107568       4.47068896       0.54170589
Si       2.18466222       5.89012613       3.24372721
Si       1.70251125       6.08815850       1.14311576
Si       3.79953728       7.45619245       3.97216243
Si       3.66443160       5.27710004      39.90189708
Si       4.72942952       3.04211378       2.85610393
Si       6.80145643       4.50074737       5.67776049
Si       6.36053978       4.57408703       3.20620066
Si       5.64174578       6.82640076       2.72805860
Si       4.25738079       7.38473216       6.24343650
Si      37.11335310       8.74189329      30.53226193
Si      33.28226634       9.40216595      30.97453689
Si      33.99495724      12.02214857      33.89999348
Si      33.65424703       9.63461774      33.47114007
Si      31.69519195       9.06896961      34.55737892
Si      31.23481162      10.37835424      27.95719322
Si      30.47113265       7.77227282      25.17783265
Si      34.68499507       7.47859964      27.16721297
Si      32.99173879       7.07359245      30.60595661
Si      32.64081184       6.83582551      28.24546824
Si      30.81160346       8.03946209      27.62795851
Si      28.92634528       7.23241554      28.63442812
Si      31.55128936      10.63636530      30.36422849
Si      29.83579347      10.27073768      33.73342009
Si      29.39890360       9.90556946      31.42243569
Si      29.11091742       7.66069998      31.02425089
Si       5.19316466       0.96076509      17.68354784
Si       0.81669626       0.89649703      18.43502847
Si       3.74293664       2.77109380      16.82008701
Si       3.67930938       4.40758352      18.46031650
Si       7.22515331       1.89757833      17.98242047
Si       7.04586221       3.48340359      19.56189191
Si       5.74682029       5.18530389      18.89164601
Si       5.54901025       6.94937839      20.56808814
Si       2.66370537       3.37266140      20.51551495
Si      19.49062816      36.21884279      33.19163891
Si      16.33812448      36.79266728      35.32645036
Si      19.62920858      38.37584030      36.50502452
Si      18.83758057      38.60935645      38.55425004
Si      18.71329584      36.43500229      35.39520998
Si      19.23436389      34.62508350      36.70513410
Si      33.47432305      36.93848556       7.39446568
Si      33.45319238      37.11090986      11.37966469
Si      32.21582403      39.13823620       7.41043470
Si      33.87741569      33.75409460       9.46869175
Si      33.87730569      33.94583985      13.23780457
Si      33.31496857      32.68458957      11.34139742
Si      31.00409778      32.26938747      11.38680145
Si      32.76709955      35.89089990       9.41179025
Si      30.51910640      35.50739213       9.23151367
Si      29.86464398      34.27135631      11.30082094
Si       2.44452893       7.86323989      21.43202741
Si       2.36150908       9.90841390      22.73361894
Si      39.15918060       8.80559159      24.42222032
Si       0.31967282       8.36028746      26.43476219
Si       5.74982217       6.70064720      22.88844242
Si       5.88894252       8.64196506      24.23597581
Si       3.71920878       9.05441460      29.18760197
Si       3.66651079      11.45242078      21.52780956
Si       5.83861615      10.91378158      20.99493221
Si       3.61394023       9.24224946      24.68405082
Si       3.63896201      11.26010324      26.07609572
Si       4.87487466      12.96518602      24.82840875
Si      17.72120099      24.84043935      14.58068570
Si      18.15415983      24.01695692      16.78197606
Si      16.21595481      23.69241396      17.97039735
Si      15.98738918      19.97103183      16.45739289
Si      17.87438640      20.69992958      19.83495822
Si      16.52375441      19.11477672      18.67679297
Si      14.61236530      18.73638247      19.82199750
Si      14.34459231      23.00748031      14.64748882
Si      16.54178513      26.86102701      14.79956791
Si      15.06280173      25.62220889      18.05467743
Si      14.50968701      26.43282503      16.06333575
Si      13.26693425      24.96101346      14.89218939
Si      14.65408203      18.49808901      15.39542713
Si      12.69650769      18.01530625      16.59958232
Si      14.91251280      22.09416459      16.78381639
Si      13.36003287      20.81114742      20.21366439
Si      12.96474917      21.59315777      17.97659627
Si      11.54826583      20.08507290      16.82501962
Si      13.21683537      17.28692795      18.81349712
Si      28.59383478      24.70276648      27.81834813
Si      26.47158509      29.49504878      23.69890959
Si      27.19992938      28.41813538      25.72471868
Si      25.75323361      26.81462190      26.33913978
Si      28.47396139      28.79742202      29.39640932
Si      27.03890322      27.29555447      30.06110154
Si      26.60947359      25.82448558      28.30150111
Si      24.94956290      24.08958022      29.08753387
Si      11.39159658      19.65174897       3.50529567
Si       9.44556620      19.54611035       2.31520321
Si       8.37248390      17.44210362       2.26958488
Si       6.39520067      18.65309042       5.29728903
Si       7.69769531      18.20308540       8.85929266
Si       5.89950104      18.29897144       7.64743381
Si       6.52017084      17.58836743       1.07863182
Si       5.70895106      15.36866365       1.04878163
Si       4.46170529      18.72194607       3.93321825
Si       3.46315164      16.44140671       4.23626254
Si       7.84163117      17.14229948       4.61652630
Si       8.43940256      13.21138173       3.96326390
Si       6.85171959      14.90715483       4.75435533
Si       4.96492422      14.88808390       3.25286454
Si      17.71314648      39.95327549      20.82743370
Si      19.83260406       1.92042518      24.46005420
Si      18.24890459       1.80654884      26.07696549
Si      18.67291216      38.70060785      22.72395606
Si      17.13952067      38.47678216      24.38168945
Si      15.62696197       1.83850813      23.37977703
Si      15.24592232      37.26499872      23.46372004
Si      16.49344397       0.58477924      25.07213745
Si      15.62206444      39.04619529      28.58355247
Si      14.79122533       0.37383861      26.72378273
Si      12.95098096      39.14324150      25.90073648
Si      22.12583436      21.02366733       5.30482362
Si      20.96049492      17.71264601       8.17807031
Si      21.72791864      17.23801233       5.96862659
Si      22.88257867      17.76614300       9.51558672
Si      23.22497356      18.96467186       5.23552533
Si      25.02136418      18.99091207       6.71331849
Si      21.85919584      25.23071652       6.85121963
Si      23.63529565      25.27594593       8.17068563
Si      21.44078564      21.39212258       7.53195820
Si      23.31619372      21.49840602       8.86319700
Si      24.41050670      19.49039572       8.92292069
Si      24.69917510      23.13873764       8.15259193
Si      26.67548124      23.24723268       9.58938238
Si      21.07222644      21.40956602      18.25684457
Si      20.37388664      20.73637775      20.36420775
Si      19.06226273      18.86413686      20.21532103
Si      23.12725641      20.19286620      15.07249396
Si      22.85890803      16.45218045      13.97768634
Si      22.33658150      19.53545682      17.23827645
Si      21.04387921      17.64486064      17.10943570
Si      30.92874028       3.09360260       5.22006397
Si      27.08630733       2.78556295       5.53954728
Si      24.95839225       3.49471022       4.77274864
Si      24.89889686       5.82396254       4.69161359
Si      28.79173027       3.74208996       4.23229610
Si      28.93002875       6.95379731       6.28984532
Si      28.62095508       6.04499369       4.16818903
Si      30.33440023       6.79521608       2.74119399
Si      25.05328845       6.84613680       6.82687732
Si      16.08761127      37.86864261      17.14634768
Si      14.92906310      34.92557862      14.98250598
Si      14.63366268      37.26453288      18.86253445
Si      16.23481467       0.38302519      17.29570584
Si      14.39586935       1.32468848      16.92538839
Si      14.11617003      34.27165934      12.88583948
Si      15.25485499      37.24661252      14.97329013
Si      13.26852229      38.37402290      14.78113470
Si      13.49849652       0.64056675      14.78461610
Si      12.26416562      37.64451006      12.60834045
Si      11.23437846       1.76009800      14.47294806
Si      33.34423770      30.67025314      36.89684424
Si      32.60015818      31.81128412      34.93874267
Si      30.67530758      33.08819463      35.19477069
Si      29.27772819      37.39248189      29.69695758
Si      26.03423551      36.86018537      31.81714830
Si      29.88359074      35.05021889      30.14068868
Si      29.34731224      37.99223492      33.49655162
Si      26.98796619      38.35558533      33.61356375
Si      26.16867897      37.45868136      35.68062388
Si      26.51733853      33.87493459      28.47992966
Si      25.77548186      33.22243856      30.66738568
Si      26.69436584      34.56305528      32.34103643
Si      26.95278422      35.21926128      36.04330805
Si      25.94280850      33.86567383      34.44504641
Si      23.53895892      34.12132434      34.51211411
Si       4.31809859      29.92604009      32.97021456
Si       0.58158912      26.69102354      30.73229135
Si       1.09921127      30.57330477      31.09031586
Si       0.10215021      30.70843099      29.07756779
Si       3.36473018      27.91028110      34.01925604
Si       1.04443600      28.19534674      34.18522849
Si       0.22534886      26.45978717      35.20896435
Si      37.84550984      26.76767672      35.58859458
Si       0.65900368      32.40365194      32.39668710
Si       0.77512438      30.15196062      35.67524748
Si      39.96985404      28.47125698      32.06544717
Si      36.81888338      29.24122495      30.35037508
Si      37.71388506      28.90439496      32.41216675
Si      36.89385496      26.94514028      33.54437726
Si      37.72465119      26.53134887      37.94078051
Si      38.24649146      23.73062282       3.98366000
Si      37.05806914      25.53751127       0.06387891
Si      38.08045050      26.79301172       1.75691755
Si      34.93591327      29.21500956       1.87662492
Si      35.10554462      26.01309551       4.21672041
Si      37.37142797      25.91968343       3.93479618
Si      34.39326203      28.21164790       3.96727431
Si      39.91991619      26.40462770      37.74249848
Si       0.45839018      26.74106120       1.48709601
Si       1.10751073      27.62456144      39.45369098
Si      37.43411940      29.08434398       1.70250907
Si      38.28310025      30.24317898       3.30121065
Si      39.19933552      14.77269987       8.23991346
Si       0.45314149      18.43064485       7.33490963
Si      37.17290703      18.01393683       9.44567983
Si       1.22411867      16.19283449       7.83441789
Si       2.51833506      16.27188102       9.84489068
Si      37.96235513      15.76043282      10.08092505
Si      39.27189040      15.91575716      12.07255124
Si      39.21960164      19.28881195       9.09177640
Si       0.31922621      19.45052740      11.12518680
Si       4.34334711      17.81509124       9.61453740
Si       5.61920592      17.86216251      11.54046388
Si       3.60427455      20.85371282      12.81413281
Si      38.00924331      16.80605258      13.83599550
Si      37.31088164      18.94915709      13.38628287
Si      39.14312148      20.16771469      12.84308947
Si       1.15235450      17.24627763      11.66177595
Si       3.08567644      15.07190880      14.30363876
Si       2.54028720      17.37447429      13.76901967
Si       4.35819354      18.53061015      13.33826222
Si      21.08997221       9.62539609      26.69092988
Si      24.13004723      14.77828560      29.50482806
Si      21.79840727      13.37442294      26.86284407
Si      24.54788366      10.99660471      25.68716441
Si      23.62066782      12.99375096      25.41325008
Si      22.94110554      13.31887218      23.20963862
Si       2.74675742      24.27558431      31.41361005
Si       1.86979517      20.84322716      30.09611780
Si       2.39250908      20.29710144      26.25906278
Si       2.67877299      19.26784303      28.38741768
Si       3.35588174      22.88685438      29.85930993
Si       5.57181603      22.03741438      30.24835739
Si      37.93320886      23.91691648      24.02159874
Si      37.12745275      28.38255582      24.89082180
Si      35.46769692      26.76175248      24.82796711
Si      34.57357904      26.81551227      22.68767531
Si      36.20373937      24.67420716      25.39565690
Si      34.46087266      23.15135907      25.38685142
Si      12.28665479      39.10550614      11.87713912
Si      11.96150548      37.46731834      10.13132562
Si       9.67253505      37.18122443       9.75713824
Si      11.13609434      38.25225224      13.89799501
Si       8.78263223      37.89994297      13.43814402
Si       8.83713976      39.25170721       9.00001279
Si       7.77115100      39.97316751      12.82236158
Si       6.47145846      38.82066170       8.76804232
Si       5.54727238      39.47797302      12.22826196
Si       7.74960877      37.15569151      15.33712055
Si       8.61799249      36.36215011      11.68781909
Si       5.40601380      37.95674700      10.62419099
Si       6.39412223      35.98263253      11.25920657
Si      36.02623370      20.26687641      27.97964027
Si      37.02236325      23.77918230      29.15872187
Si      37.89713910      22.66968044      25.65317077
Si      37.43414797      24.40798296      26.96451272
Si      39.09366373      26.07851826      26.83361389
Si      24.70646829      29.32345224      11.06516163
Si      28.51928080      29.43406275      10.38806813
Si      26.46135732      26.42175925       9.10507404
Si      26.51092374      30.78483708      10.62364470
Si      26.13093746      31.96770188       8.56974298
Si      24.60301769      27.72623449       9.25004692
Si      24.02319471      28.95203993       7.18390068
Si      22.79094196      30.52884336      11.35305006
Si      22.34337788      31.82756826       9.29153264
Si      24.14938763      33.26520683       8.85916564
Si      22.10050981      30.33589470       7.46545906
Si      28.24986672      27.97754712       8.65108964
Si      27.80326062      29.18599947       6.64919629
Si      28.02453714      33.41276731       8.13853553
Si      26.24969767      24.96737686       7.27084763
Si      23.79653469      27.54330967       5.54418879
Si      25.77108714      30.36887475       6.85535261
Si      25.47450531      31.69837679       4.90260105
Si      27.31269922      32.99821307       4.39317773
Si       7.82492540      24.48925892      13.66834989
Si       5.12927364      26.66183154      15.27863305
Si       6.54197932      26.44229535      13.38841109
Si       7.99981233      28.21404153      13.46714070
Si      10.60049203      26.35400706      15.52138141
Si       9.40624940      27.92839617      11.38633567
Si      11.96110095      26.27220571      13.50775298
Si      13.42630577      27.81597875      13.53926964
Si       7.95114821      28.55934437      17.16267214
Si       9.24937140      28.38960346      15.33845267
Si      12.18826724      29.88144267      13.24269781
Si      10.77591543      30.17930405      15.16514130
Si       9.60019979      32.19366608      15.02455367
Si      12.12989452      30.25931289      16.97944716
Si      14.88953665      28.00230543      15.34667624
Si      17.52932756       5.51683244      20.71182749
Si      14.97734957       8.05580848      19.24820165
Si      19.08317834       6.05707790      18.86700503
Si      16.36837138       8.48564361      17.49065326
Si      13.88001663       5.26383935      21.60807941
Si      17.85281480       3.28790199      21.37049766
Si      17.45409115       1.86541720      19.40423278
Si      12.36334704       6.72754815      16.51655809
Si      15.31465183       5.75894972      19.76247612
Si      14.80438117       4.32528863      17.97646404
Si      15.38097731       2.17833677      18.69946873
Si      12.66253302       4.64049424      17.27072651
Si      12.42962277       3.15406350      15.38765520
Si      18.98370635       2.38521733      17.87320455
Si      37.53406536      31.58642113      27.49161569
Si      36.92213991      33.59779807      28.66615255
Si      35.02604258      29.49254128      29.44239303
Si      34.30453710      31.46762105      30.51314325
Si      34.52224090      33.31003036      29.13294019
Si      10.84273903      33.18972683      12.29077248
Si      14.25583279      31.52631160      13.14416917
Si       7.57349291      32.69892631      14.33428975
Si      10.75565835      35.27077765       9.04448135
Si       5.74458463      33.37370181       7.88656772
Si       9.43521107      35.80805094       7.18395274
Si      12.76359184      32.05072773      11.42307462
Si      13.99543769      33.58635452      10.24644527
Si       9.51302289      33.66929537      10.35991533
Si       8.95063087      31.79383664       9.11851707
Si       7.58520128      32.33281067       7.22505324
Si      15.36818834      23.68078220      39.12401683
Si      14.64612093      21.62781137      38.05176476
Si      17.31436066      21.90922375      35.40988378
Si      16.28529539      20.51376897      36.98916452
Si      15.57713351      18.62443702      35.76177505
Si      12.11642521      25.31118074      38.58159832
Si      13.65252159      20.18093186      39.53770099
Si      12.66819372      18.30156643      38.31804204
Si      12.94897381      22.37409150      36.37753760
Si      13.89556674      19.32321547      34.15246602
Si      12.25450854      20.44495905      35.37834605
Si      11.26733645      18.98987718      36.67814357
Si       2.46813678      16.74450882      26.96368220
Si       2.21658546      15.91678962      24.69676210
Si       1.83237568      13.61019713      24.63852162
Si      38.50715210      16.60209148      24.90920475
Si      38.17300374      14.26034337      24.95991003
Si       0.23810964      16.24506182      21.48170550
Si      39.76638871      13.99083778      21.46447737
Si       1.72998165      12.88498062      22.61757675
Si      37.93106385      13.55340929      22.61593505
Si      37.43205672      11.19418828      22.80827686
Si       0.12390082      13.77079044      28.15919411
Si       3.80338062      13.38528994      27.99603905
Si       1.90595923      12.81597983      29.19437655
Si       1.45570087      10.51546966      29.01714520
Si      36.18915688      13.82219481      26.18020607
Si      39.95473958      13.02965127      25.82333876
Si      39.53804324      10.88283453      25.98454436
Si      37.62787512      10.33265847      27.03610007
Si      37.16889793       8.09200145      27.11957192
Si      35.47504644      10.67776979      23.83056386
Si       5.54631278      25.51828512      16.44561095
Si       5.61894040      21.87978149      20.58987010
Si       5.10586273      21.59781014      16.64118675
Si       6.72184996      19.91007672      20.45486647
Si       6.27911615      19.72033174      16.80554659
Si       4.17486340      25.78323836      18.58027778
Si       2.92594160      23.88223857      18.76986059
Si       4.43161590      22.18047465      22.59417458
Si       3.23638642      24.28458337      22.52100021
Si       2.78422025      20.34376318      22.85450753
Si       3.60597443      21.63834118      14.92938826
Si       2.33339264      23.74584429      14.94891241
Si       1.27831362      23.80996403      16.97338470
Si       4.01979277      21.92139122      18.69429174
Si       3.61391309      18.10712715      19.07487667
Si       2.51180906      20.21434326      19.03684463
Si      26.32119179      20.11233989      20.71570864
Si      26.01302675      22.19668249      23.90391194
Si      23.09111753      23.31763483      20.74135694
Si      25.42031383      23.80699491      20.42494989
Si      28.28623076      24.45307935      18.09800948
Si      25.85430088      25.89891936      21.54877061
Si      26.73746030      22.14884542      21.76702424
Si      28.94457368      22.67108899      21.54191634
Si      29.36527316      24.72153003      22.41588569
Si      26.00980648      34.33758961       1.38462183
Si      22.24868205      33.72326528       0.73083373
Si      26.65454997      33.82671608      39.35569004
Si      23.28231175      30.85305943      38.31134156
Si      23.53088181      33.78375351       4.36518688
Si      27.92888990      33.95832990       2.77642237
Si      20.38665740      32.42809952       1.32853392
Si      19.80263221      33.01853504       3.49107421
Si      21.64526315      32.60357727       4.91109394
Si      24.11226304      33.06256344       2.04601466
Si      24.55951852      30.84536052       2.04131809
Si      21.43673967      29.59811535      39.02321778
Si      19.72724510       5.69820733      34.98593762
Si      18.28582121       6.29384556      31.47337060
Si      19.54942978       2.76062606      32.38305550
Si      21.38658739       4.41360116      36.16908451
Si      20.92721717       2.04609333      35.95994629
Si      23.40047549       5.11423139      35.56115607
Si      18.66412196       5.66472079      29.26844722
Si      19.89146586       2.20922976      30.14179692
Si      19.93876830       5.04428659      32.81362852
Si      22.04544907       5.55584387      31.97900957
Si      23.76593769       4.58240993      33.20094519
Si      23.76519534       7.28100276      35.81831958
Si       3.41753743      34.88361186      14.07601149
Si       2.21281122      29.54676455      14.54915646
Si       3.64705122      34.42417836      10.08745211
Si       3.22768309      33.24353939      12.24054950
Si       0.55582063      31.32214799      14.36985466
Si       0.98004918      32.33835103      12.24751811
Si       9.51634661       8.69981167       6.08779176
Si       9.76676182       6.40196781       5.89548254
Si      12.03324875       5.77002867       5.47437887
Si      12.50392736       5.62767138       9.38213762
Si      10.76491910       9.48500671       7.98776520
Si      12.95836454       8.82142994       7.50857172
Si      12.57375424       9.18280251       3.81446393
Si      13.79572870       9.92829042       5.55783741
Si      16.24216202       9.32957195       5.26255039
Si      13.69823409       6.26775707      11.09752900
Si      13.45803385       8.62810037      11.41172222
Si      14.31630673       9.57321390       9.30816833
Si      16.61713648       8.98150329       9.01349260
Si      13.30756219       6.56617557       7.30198044
Si      15.46524941       6.00798035       6.96426822
Si      16.26891853       7.06937585       4.99568131
Si      16.88970840       6.65062414       8.96065608
Si      17.35491152      10.11226891       7.04440173
Si       7.74392544      16.41520549      24.58416904
Si       3.99997394      15.56975188      23.74370711
Si       5.51663658      18.95434378      22.73843214
Si       6.23819125      14.67854749      23.96324466
Si       6.50047151      13.62996057      21.93234307
Si      11.49041830      18.58292472      23.31007934
Si      11.92799693      17.66298473      21.17708436
Si       7.69613515      17.94796191      22.78099757
Si       8.25943817      16.99286204      20.66666389
Si       9.88340040      15.32788867      24.61277398
Si       8.75273799      12.61156676      21.98615155
Si      10.38323980      16.01341303      20.76702700
Si      10.87185489      14.96174617      18.77819243
Si       4.05039632      17.32152364      21.99434730
Si       4.43788522      16.26939305      20.10045352
Si       8.18819201      18.66260018      18.92207327
Si       8.72519878      17.59521736      16.92012861
Si       4.95297750      16.93096590      16.31298528
Si       6.58751650      15.32142713      20.14322969
Si       9.29543099      13.35745177      18.26256419
Si       7.07174946      14.36250055      18.10992005
Si       7.08708901      15.89846036      16.43268605
Si      10.76387491      16.64511451      16.99986060
Si      25.32191783      38.61676491       9.47093809
Si      23.91074444      35.39371117       7.64825008
Si      23.40880877      39.71482662       8.89023132
Si      23.59446498       0.70103908       6.85823999
Si      21.99246141      36.46002310       7.21910976
Si      22.15538915      37.59823485       5.14936941
Si      21.52962050       1.84215903       6.37673683
Si      21.70372027       2.92582989       4.26130535
Si      20.29844037      39.77630644       2.59853233
Si      25.18777801       2.32609032       6.97121582
Si      23.94863422      39.17924378       5.15707600
Si      22.12052603       1.46159470       2.69512197
Si      24.14278216       0.19997058       3.19160963
Si      22.33169962       2.42198704       0.48975683
Si      24.47211046      38.71577819       1.48019791
Si      24.21191879      15.74972887      25.24750374
Si      28.04479721      16.54785323      24.18711006
Si      26.36545758      13.37812421      22.83742317
Si      24.26635250      14.14901942      23.42129309
Si      25.98333155      18.67462377      26.72971684
Si      27.54272589      20.53441958      26.31082209
Si      25.81872572      17.40237096      24.88443680
Si      25.12705905      18.78162821      23.01944571
Si      29.57529404      33.31715923      32.13718407
Si      28.68211289      35.45669346      36.08142594
Si      30.77878373      31.60224206      31.05312704
Si      25.65354546      33.27372592      36.40221259
Si      24.03221224      31.78819179      35.48156997
Si      28.13332073      32.35430289      33.78165436
Si      26.63553083      31.01075424      32.71435393
Si      36.90300395      28.80038833      35.40404172
Si      37.08196311      31.26330373      32.48682846
Si      38.27196738      33.09905244      31.49455140
Si      34.83767096      32.05949301      33.05851526
Si      26.69277530      30.41599503       0.67855599
Si      28.07053423      27.26269497       2.32531908
Si      30.81750275      29.15851208      39.52944264
Si      28.89797956      28.01369909      38.76642184
Si      25.94100972      31.26757675      38.76977429
Si      27.32964659      28.10751069       0.43096764
Si      25.36843644      26.99718185      39.77478018
Si      24.64278074      27.88561022      37.65542895
Si      26.03005865      12.01774999      21.69418296
Si      26.29346867      10.53847215      19.80840777
Si      24.19719495       9.75199433      19.09345011
Si      24.97677388      10.76993307      23.52012485
Si      22.93954946      10.09863139      22.70483072
Si      22.86878027      11.77571386      18.55497959
Si      21.53479505      11.91591762      22.11034534
Si      24.37306445       8.41268572      17.20136143
Si      22.37431538       7.73315599      16.53649320
Si      23.27169521       8.58706099      20.80522371
Si      21.02364215       7.94299226      20.20391254
Si      21.28166545       6.44351512      18.28280279
Si      28.16356803      24.25670805       8.41386118
Si      27.81957983      21.39251199       5.75687218
Si      24.44366385      16.49148558       2.91880479
Si      27.73493833      18.42105300       3.34532181
Si      25.44411746      21.61223227       5.60924752
Si      25.37273654      18.53577113       3.24826578
Si      24.66015647      20.20083400       1.53599950
Si      30.95043380      20.34160542       3.84506691
Si      31.84244228      21.79121762       7.89134567
Si      28.75868645      23.49842619       6.17175885
Si      31.18994234      23.36139501       6.26634874
Si      31.87298395      22.40629904       4.11025904
Si      28.40591934      17.57074941       1.17413146
Si      28.61589338      20.59750489       3.75030406
Si      27.91299723      21.95741314       1.96011760
Si      28.92889136      24.03945806       2.45752903
Si      28.79211641      21.23201492      39.88344731
Si      28.90762054      15.91075548      38.54678175
Si      27.35049356      14.83544632      35.23267938
Si      22.26796068      16.07190793      37.24745101
Si      25.41607811      14.58717790      34.06968179
Si      28.34506405      12.86118868      35.41522465
Si      25.45476941      14.19576697      38.57187381
Si      23.31603112      13.84991178      37.28332063
Si      36.85463337      37.85237349      16.08526964
Si      34.91570584       0.50804441      11.73821462
Si      36.57687083       1.21559468      18.21139974
Si      36.41905616       0.27271781      16.00896428
Si      33.98467778       0.32307429      15.57573400
Si      33.96251419       5.97976658      13.91441174
Si      34.55774360       3.71668676      13.82008642
Si      34.18455279       2.70761525      11.67760627
Si      33.33989479       2.67929725      15.49513839
Si      31.05601553       2.61284977      14.95363484
Si      33.03648569       5.71730920      17.41604741
Si      36.62477224      37.00221991      14.16043669
Si      34.28057407      37.16279480      13.53149552
Si      33.79451316      33.65680449      15.20870574
Si      33.06967292      36.02671287      15.13741419
Si      33.74043056      39.40975264      13.51434575
Si      30.76021939       1.76959577      12.90271886
Si      31.28774820      39.49846996      12.88078887
Si       2.78992479      38.96822014      26.95076763
Si       0.81254483      37.88201815      26.58749826
Si       0.11866931       0.10411366      23.44031555
Si       0.96254996      35.97937016      25.08349571
Si      38.98102028       1.25682088      27.03357191
Si      37.99379810       0.64692550      29.03007957
Si      38.69055555       1.77600039      22.47461728
Si      37.40322175       2.71407115      25.93063328
Si      35.42465243       1.73505181      25.48432465
Si      39.27208926      39.43243459      25.63131237
Si      37.49346507      36.61478939      23.60958981
Si      37.22103169      38.34801630      25.26368924
Si      36.26826130      37.72475514      27.21323479
Si      33.00970840      35.73110723      18.42019248
Si      31.96586076      33.81686276      21.66226201
Si      35.04509463      36.29751837      19.44712814
Si      34.74991719      38.43502904      20.66266717
Si      34.07904249      34.38502420      22.55078769
Si      33.82119666      36.40508643      23.75910149
Si      36.81433017      38.93849884      21.62681384
Si      35.96391483      37.02118466      24.81220313
Si      31.41110675      35.53352277      20.01371519
Si      31.04335883      37.39352075      21.31485490
Si      34.03551727       0.04683148      19.01855048
Si      33.77282636       2.06857353      20.16674182
Si      30.09922090       1.10565012      20.85853029
Si      33.19272688       3.80639948      18.81303762
Si      30.35347142      33.58388103      23.28355841
Si      30.09764955      35.55152474      24.46968150
Si      31.90225428      38.24722201      26.61568805
Si      29.46231906      37.17141781      22.89127983
Si      29.19376985      39.28145905      24.11392831
Si      33.03294474      38.11125940      22.22817931
Si      34.86619831       0.67838280      24.39102877
Si      32.81407079       0.18140298      23.45862516
Si      32.03637678       1.73081275      21.94265689
Si      31.19651636      39.79050349      25.11966139
Si      31.82787605       3.78898541      23.18171733
Si      35.84646894       2.61785478      21.28487987
Si      34.03618716       4.49592180      24.20505535
Si      24.61963326      36.94150449      12.02948937
Si      26.48394537      33.65400204      13.04878186
Si      24.67480693      34.63518008      12.02044502
Si      22.76258038      33.72277381      13.00800540
Si      24.59751373      37.62966066      14.28986610
Si      22.64599689      36.80416063      15.25949530
Si      24.44055177      33.66455042      16.30291359
Si      22.69250846      31.48582511      12.99150023
Si      22.52335448      37.63009846      17.53583644
Si      24.35722679      34.47938821      18.53492500
Si      22.63849007      34.51259291      15.21349717
Si      20.77077586      33.72756430      16.25792119
Si      11.28405811       3.14436575      37.88615100
Si      12.52763352       4.98399692      37.19308362
Si      14.39046987       5.32659869      38.76832022
Si      14.34388548       1.52779728      39.60746904
Si      13.44318706       1.93945800       1.58908039
Si      17.32500087       3.73262062       0.39694481
Si      11.90848764       7.56232838       0.72936216
Si      13.15184408       9.50649046       0.04908218
Si      11.08073340       8.15718471       2.94665403
Si      13.39080183       5.76341605       0.77421520
Si      16.48428392       4.23085680       2.43091284
Si      15.05110929       6.07890587       2.47001105
Si      16.35486020       7.92139098       1.74014692
Si       7.94067872      12.71068833      29.03932958
Si      12.11410825      11.28899781      28.98542547
Si       5.74585832      12.71162566      30.04079074
Si       4.31511917      11.97175263      28.56782956
Si       5.74895999      11.15289148      32.04430464
Si      11.29342110       6.88107175      28.74854517
Si       7.55500315       6.09366358      28.12933581
Si       8.44150437      10.46198318      28.51194576
Si       8.53102908       9.07215698      30.34832015
Si       6.41990190       9.06845631      31.30823572
Si       9.10053902       7.02061073      29.77039441
Si       7.46976845      12.07862382      33.56935479
Si      21.01679346      29.23456130      27.21554270
Si      24.64072799      27.31888707      28.96490717
Si      24.83704523      28.51468403      26.94980649
Si      22.77360073      28.50440458      25.82255653
Si       7.65222642      39.45899197      25.98944186
Si       4.80079064      39.52509701      28.46957254
Si       1.93730898      39.55455779      31.15521113
Si       3.97470682      37.38522337      27.76898273
Si       4.87386267       1.83304681      31.78072234
Si       7.09834564      39.70748516      28.33652589
Si       7.80652585       1.75988686      29.12147638
Si       8.27563838      37.93616250      29.58002655
Si       1.40876200      39.67484367      33.34947361
Si       4.28063178      39.71654384      30.84230650
Si       5.25529098      38.03608839      32.01181864
Si       7.60896113      38.18597135      31.82213680
Si       8.41256505      19.92048795      35.98160306
Si       6.54382154      21.80061488      38.72468689
Si       9.38331754      18.44355252      37.64057846
Si       8.04147825      16.60437890      38.06507279
Si       6.25687633      20.50746909      36.55415972
Si       5.93280912      17.33429340      38.77331746
Si      36.97373586      34.47518114       0.60573407
Si      38.40510388      33.93234261      37.15451846
Si      38.96493726      37.23974444      38.81360920
Si      39.38860735      32.29575731      35.53234133
Si      38.03153830      32.82476053      39.05230359
Si       1.35029982      33.89215085       0.39066032
Si      39.88316487      32.05283166       0.00198697
Si       0.97790967      30.57493473      38.50734884
Si       4.98460777       4.93917815      29.06090494
Si       2.66044529       5.28297870      29.57339446
Si       3.09499286       2.87458534      32.54245284
Si      39.94465485       1.10357914      33.98854502
Si       2.36040707       6.96395095      31.04769169
Si       0.14284882       7.27869208      31.63342384
Si       0.46433235       4.96549896      34.51866836
Si      39.62884584       3.57180392      31.05587149
Si      38.65946602       1.62487676      32.00915720
Si      39.23769562       5.34478843      32.57184340
Si      36.98869575       5.64587937      33.02579905
Si      38.87650592       7.81382647      29.56521489
Si      12.42270978      36.87582995       8.40909165
Si      14.01388868      35.09006256       8.91893939
Si      15.34758377      35.92074253      10.76289333
Si      14.95829235      39.41319918       9.54342380
Si      13.77231351      39.99932333      11.45158185
Si      17.86767998      37.14700425       8.30076823
Si      16.65117417      37.74211040      10.11473144
Si       8.32721198       0.62224300      36.74781156
Si       8.91619255       5.29003544      34.15557307
Si       8.15160745       2.73569527      37.70278141
Si       6.51105237       3.92171055      36.69526861
Si       6.93090764       8.62773674      33.96623419
Si       8.66572161       0.73733605      34.47841831
Si       6.96301604       2.11008245      33.43867510
Si       9.29191874       5.42571643      31.66085012
Si       7.48957179       6.66491229      30.66577306
Si       7.44271807       2.10743525      31.10572003
Si       6.91239210       4.20728695      34.40430888
Si       5.12107251       5.40287499      33.34429978
Si       5.57688723       5.45162699      31.10725759
Si      16.69248322      32.82777391      13.07047639
Si      15.73654259      33.76895819      11.06892794
Si      17.37137443      34.40596709       9.53225462
Si      19.63954169      35.39480987      12.56976298
Si      18.02995730      31.06006008      12.62510466
Si      18.77187473      32.62957066       9.09159751
Si      19.68777857      31.67907715      11.02642695
Si      20.55358814      33.16553173       7.52251069
Si      22.80920875      34.03144964      10.50844260
Si      18.74741021      36.15750077      10.47004754
Si      19.49698741      37.44889529       7.06941800
Si      20.31080735      36.76025734       9.06174416
Si      21.55921779      38.49508437      10.03111973
Si      21.71717437      34.97121934       8.50548599
Si      19.44797878      34.01753635       5.52161338
Si      19.71049417      11.15237245       0.02726214
Si      20.31039126      11.08545335       2.40970117
Si      23.10273529       8.61591031       1.42875920
Si      21.95974526      12.67145781       2.67259017
Si      22.73946951      12.72891137       4.96367051
Si      18.93388821       7.46045809       0.09204287
Si      19.58377076       7.28908541       2.48461679
Si      18.55179362      11.57750509       3.65461448
Si      16.89488148       9.94245944       3.31725627
Si      19.00642410      11.61985845       5.88038865
Si      17.71307719       7.82814807       3.83946497
Si      18.33401309       7.77726635       6.15894803
Si      21.53399104       4.76884565      39.37022359
Si      22.36441312       4.78876985       1.77458165
Si      20.52336653       5.29525026       2.94024578
Si      21.06267526       5.07555250       5.32909749
Si      21.22835752       9.04392880       2.86155001
Si      23.51570871      10.55015779       5.38235218
Si      21.83955287       8.97526513       5.06784139
Si      24.15891697      10.58251388       7.78298569
Si      20.05116253       9.42509918       6.56264641
Si      22.72805499       6.82951539       5.64413028
Si      20.72553652       9.35335465       8.66003721
Si      23.33785453       6.86189964       7.89997717
Si      22.19642968      10.98069086       9.06724215
Si      25.74532327      31.23419661      28.53303075
Si      24.94422158      30.66444600      30.86916529
Si      24.42359401      28.37493570      30.87684981
Si      14.27893656      32.01565904       3.05158770
Si      14.31682276      30.42174014       1.48144873
Si      16.45429641      29.93840334       0.97449159
Si      16.55643087      27.28196416       3.68563648
Si      13.27970715      26.81139781       0.74914445
Si      16.56133908      28.23664995      39.26002925
Si      16.58146332      25.63156945       2.08960493
Si      18.81735106      27.71925057      38.74692188
Si      17.51136707      30.87019035       4.60398801
Si      17.59495065      26.55853068       5.62437711
Si      17.62804386      28.20614586       7.19088604
Si      19.92104088      26.05595778       5.18351848
Si      18.70740494      30.12212480       6.41740599
Si      20.89043878      29.62441933       5.90359698
Si      17.64556567      29.16815786       2.83190361
Si      19.92444929      26.95746157       0.80055248
Si      19.94168469      28.65466720       2.23913364
Si      20.77715782      30.67484677       1.54925547
Si      20.83367166      27.95039773       4.32571072
Si      19.86833547      29.68835625      37.98618494
Si       1.32030802      35.83795669       4.53265597
Si      38.45151434      33.37574775       4.14931014
Si       0.20479103      36.99691184       6.10186490
Si      37.86738235      36.77399616       5.57109259
Si       0.89341033      36.60352558       2.33062547
Si      37.42020509      37.64758130       3.29104351
Si      39.92135410      34.15821874       8.26395871
Si      37.55520890      33.98077093       7.83136956
Si      37.13944270      34.72713627       5.66148573
Si       5.79734511      28.74561960       8.96853594
Si       5.91259627      28.39499986      12.83459441
Si       3.19804000      30.53624960      11.22737366
Si       5.77236997      29.49688833      14.82718631
Si       5.43574075      29.84594786      11.06843750
Si       6.73921142      31.77252221      11.12373897
Si      33.35213654      28.88086379      37.88342285
Si      32.10605608      31.25210609      32.59553695
Si      31.93365459      29.70009604      34.48302127
Si      32.56423517      26.07850752      35.45163230
Si      32.64298168      27.61548793      33.55785387
Si      34.83492791      27.79299520      32.91143336
Si      36.19709514      26.89055462      36.34106626
Si       4.23739085      13.26619029      31.25355735
Si       6.16417311      13.95765600      32.54118604
Si       6.69865170      16.20637508      32.03722914
Si       5.13879573      15.76731388      28.48838367
Si       3.43150274      17.16262378      29.14212446
Si       8.82516639      14.88553182      29.10764138
Si       8.77933805      16.70716147      33.12066998
Si      10.51799501      15.24562750      32.47443296
Si      10.93599330      15.48665960      30.22886962
Si      11.41522383      17.66131267      29.71861516
Si       5.52110824      16.05719255      26.30093266
Si       7.26766429      14.56208511      25.67800471
Si       6.17191347      18.04643301      25.72357900
Si       9.23341699      15.00427563      26.72025108
Si       9.80772900      17.32217168      26.10002388
Si       7.07705196      16.30405697      29.62809060
Si       6.00270031      20.03305980      29.72465662
Si       7.74690979      18.50894436      29.09405848
Si       9.79863421      19.08115362      30.34153117
Si       8.12949086      18.76707068      26.86002871
Si      15.55072209      25.02763524      35.86616449
Si      11.79663541      24.64832139      35.64839410
Si      13.27703117      26.55150498      38.66565961
Si      15.30751289      26.86466963      37.40991723
Si      11.39583051      26.35046174      37.17510672
Si      15.14898334      28.88151130      35.99050754
Si      17.56219571      25.41119876      34.74192536
Si      17.81630617      23.42972756      33.24009302
Si      16.10503912      23.18377441      31.86946132
Si      13.75193456      24.81413950      34.60641909
Si      13.67651432      26.76066667      33.16874229
Si      15.55031472      27.14724875      31.92514421
Si      17.03471838      29.16892249      34.89611371
Si       9.02380011       0.50548931      25.60959087
Si      12.78281518       0.42058663      21.60839501
Si      11.40378048       0.74282942      25.85857626
Si      12.12198111       2.59692700      24.66427455
Si       8.66670437       0.11330037      23.23585070
Si       9.30994302       2.19164365      22.07872258
Si      13.13655081       2.03987615      18.23674542
Si       8.94212319       1.75038497      19.74412548
Si       9.69629494       3.68482005      18.66604783
Si       7.80875405       2.50049959      26.25509682
Si       8.65741829       4.20400730      25.07634007
Si       8.24181431       4.06639956      22.82320313
Si      11.74495276       2.36688518      22.41828936
Si      12.41091893       4.21195605      21.09804696
Si      11.94968872       4.09379212      18.89716645
Si      34.20383944      18.91555467      31.48983119
Si      33.75455661      19.17078639      29.23119068
Si      30.31253052      19.35679426      32.21037103
Si      29.90824173      19.55788907      30.02341273
Si      26.18230833      19.99637115      30.77049989
Si      31.37165354      16.08834137      29.22899843
Si      31.49806952      18.38427464      28.79559801
Si      34.38853092      16.38713877      13.00780846
Si      36.29098885      15.70713437      14.27298171
Si      35.75712937      13.78223910      15.61859407
Si      37.95292002      15.11859052      18.39751457
Si      34.31809934      16.08028654      18.48870220
Si      36.19919275      15.49556796      19.75301202
Si      35.70149877      13.60128757      20.96594941
Si      39.37884023      12.77980112      15.64868945
Si      35.32977064      11.98897717      14.23160740
Si      34.76318819       9.99693625      15.61091925
Si      34.23012848       8.27362658      14.04538725
Si      39.97450848      14.51666357      19.76197459
Si      37.63323310      13.20446863      16.99217439
Si      35.16762196      11.80705323      19.66519576
Si      37.04881027      11.38286618      18.36151389
Si      34.62064204       9.92243873      20.97440356
Si      36.51260528       9.57579535      16.82010871
Si      36.17900530       7.68587889      18.10532724
Si      34.14440805       8.09930329      19.48794163
Si      29.38424701      24.50683425      38.31920030
Si      28.84786396      25.60056269      34.21340877
Si      30.42187046      24.05300374      34.72613255
Si      25.99396342      23.48594270      35.47300067
Si      27.55042777      21.86227694      36.06895998
Si      28.61018007      23.22269254       0.26760743
Si      26.73038744      20.81612891      38.00664890
Si      28.71439455      21.46550733      32.41641415
Si      32.33847189      20.94766885      33.38986438
Si      29.61629527      22.88191714      36.67295445
Si      31.13852933      21.19722888      37.14619156
Si      31.51849634      19.66278424      35.48999857
Si       5.35681685      12.42798767      33.48633939
Si       3.22565680      13.74030901      32.89890712
Si       1.57138914      12.43476174      33.02469029
Si       2.79408335      14.60296130      36.50357167
Si       1.04933931      13.13895327      36.66014000
Si      39.05821136      14.26598777      36.18157526
Si      37.16616836      12.82771546      36.19882282
Si       5.09310024      11.71644083      35.57326512
Si       3.28400336      10.30550307      35.78132555
Si       1.70291713      10.56194202      31.56052226
Si       3.71286121       9.47534167      32.08985093
Si      39.93579045       9.02362012      31.63378747
Si       3.54133483       8.49802887      34.13440563
Si       1.75065122       7.11500056      34.23526722
Si       1.21577554       7.89321375      37.92749842
Si       1.28922927      11.38998265      35.22317620
Si      37.40243514      11.00950672      34.76751528
Si      39.51633298       9.99458790      35.28838646
Si      39.84496262       8.23353738      33.75117889
Si      39.22385439       9.06170160      37.43342753
Si      38.01569469       6.67012486      33.91609664
Si       0.03663947      13.73146059       2.53870271
Si       0.76711114      11.25746937      39.82747156
Si       2.00744724      13.26498025       3.64534858
Si      37.23436799      12.36965159       0.44520594
Si       0.08916535       9.42966089      38.62991262
Si      39.79996437       7.51782297       0.20629253
Si      39.27164495      11.85537883       1.43668370
Si       1.09019609       9.59434938       4.03764742
Si      38.85146788       9.97052550       3.03814281
Si       0.58730973       7.89488312       5.54085329
Si      37.44511466      10.53948534       4.62066211
Si      39.10511322       8.28195254       7.26966913
Si      17.95310504      31.77117418      14.34684249
Si      19.84550628      36.77224674      13.33400120
Si      17.50111210      35.20187725      15.95466248
Si      17.27429079      34.43158801      17.99184255
Si      18.16725518      35.82841397      19.67200696
Si      19.75792767      35.71304511      15.49211120
Si      20.58081898      37.26185691      16.98010433
Si      19.26607860      39.31370194      16.95194303
Si      20.45401954      36.30001087      19.09033398
Si      33.84540676       9.69970166      11.48336833
Si      34.00386002      11.47088077       9.94989037
Si      32.22781527      12.93623219      10.32760207
Si      32.10377544      14.71533720       8.73099466
Si      35.89442009      12.70442665      10.02735721
Si      36.09267943      14.32758323       8.49007978
Si      34.29226550      15.92360020       8.94284702
Si      29.87905980      10.92040928       8.05207347
Si      29.96076479      12.70770971       6.45955480
Si      31.95711913      13.71320450       6.54744603
Si      32.00161593      15.45248975       4.89038444
Si      15.00589619      12.55796193       0.93938254
Si      12.92860881      13.67502037       1.33422413
Si      11.17520260      11.01473186      38.93519936
Si      11.34588417      10.34241227       2.70811699
Si      11.72316516      12.66061255       3.04436743
Si      12.63759893      14.26835512      37.50200833
Si      13.20238159      15.89936712       1.55814255
Si      14.16777034      16.98108137      39.92673142
Si      12.93578978      16.59469394      37.93291449
Si      10.94895016      17.72037419      38.26299124
Si      11.36630803      14.09318621      35.58402384
Si      11.55270623      13.37930882      39.34860340
Si       8.37558732      13.43779842       1.52638570
Si       9.50621917      14.41091819      39.61437762
Si       9.83492518      16.72005039       0.07240494
Si      30.18644375      36.44599941      29.00985544
Si      31.65207374      35.41660812      27.40549145
Si      32.33850034      32.42321544      29.76029538
Si      30.13340690      33.91977800      26.01283228
Si      33.86478079      38.55194291      27.41921545
Si      33.28711863      34.16412685      28.32997889
Si      34.63388355      33.19863093      26.71938933
Si      35.49854004      34.79845350      25.31578115
Si      30.05893284      23.93762423      39.82352840
Si      32.47652593      26.73420066       1.29921230
Si      30.13054023      25.01112113       3.56945713
Si      32.42432762      25.61993854       3.50017757
Si      33.85513383      23.78081915       3.80491353
Si      32.60480724      25.64431679      37.55949560
Si      34.69669290      26.46550075      37.24828958
Si      36.21193435      24.62992233      37.68678377
Si      32.11653023      24.90060772      39.75400259
Si      33.50743396      22.18335269       2.26186064
Si      33.78913668      23.14510866       0.05134644
Si      35.97047843      23.92092411      39.68352031
Si      30.35929280      18.05759629      33.33701811
Si      26.92239739      18.12911641      31.91931252
Si      28.17810460      17.09960721      33.50463713
Si      28.26853789      14.88151027      33.36045141
Si      31.32338745      15.26876160      30.95449436
Si      31.99275443      14.87446322      34.68712007
Si      29.80298497      13.94761638      35.04451214
Si      32.67025027      14.29150988      32.60070886
Si      29.90133822      11.62455742      34.63418425
Si      27.58070489      17.49575665      29.72696843
Si      29.11789809      14.33447925      31.22752253
Si      27.70210366      10.84074189      35.00685035
Si      33.14997768      29.94461282       5.53388468
Si      33.72974394      30.58872062       9.36706730
Si      35.76376046      26.87183040       7.41409228
Si      33.39537903      26.97245726       7.91953463
Si      32.39757902      25.61910111       6.31647048
Si      30.06634736      25.60979700       6.68495557
Si      33.30858813      29.57356672      11.39969630
Si      30.87650147      29.74268808      12.03515325
Si      32.65868155      29.19516270       7.62877113
Si      29.56017468      31.34873502       7.85881428
Si      30.25637791      29.08810761       8.10489040
Si      29.62466415      24.86719541       8.75676580
Si      25.86309726      10.29503102      27.79500706
Si      27.31529060       7.13478595      28.92231095
Si      27.15661432       8.62410307      27.10034664
Si      26.23057506       7.25114260      25.38289009
Si      23.70475234       9.64611556      28.45794674
Si      22.60248853       8.48921856      26.64465389
Si      20.42760581       7.78564235      27.35639844
Si      23.87450994       6.58029088      26.14210135
Si      22.86489491       5.47437114      24.36076741
Si      20.70288241       4.74222818      25.02144708
Si      31.93485676      34.71844389      36.39633305
Si      29.48752446      36.19058067      38.97123039
Si      32.42058480      36.92687568      32.56708881
Si      34.18081673      36.84315483      34.29554880
Si      36.23248097      37.12194936      33.19443620
Si      37.91812835      36.98718043      34.84095085
Si      30.06714243      38.53842037      35.22669261
Si      31.67439405      36.25560174      37.93594350
Si      33.84533489      38.68497292      35.65006243
Si      35.59054424      38.51188055      37.34994421
Si      34.03387749      34.86174333      35.27436988
Si      35.76354410      34.81651531      36.97394884
Si      35.44492906      36.49893441      38.55392354
Si      37.62687090      38.84276128      36.41733863
Si       0.28479890      27.74688738       6.24707139
Si      39.33515329      28.85953779       9.77788876
Si      38.18571916      27.39561656       5.79048983
Si      37.03936737      28.47932121       9.21462098
Si       0.45403931      29.54961162       7.88462877
Si      39.53526332      31.47700228       7.02169189
Si       2.02864111      38.10193321       8.00310113
Si      35.52723930      38.62524579       9.84255213
Si      37.38019974       2.33081951      11.30979059
Si      38.12477895       3.26385332       9.26090843
Si      34.53072692       0.67203989       9.52391534
Si      35.24358024       1.58560758       7.51385209
Si      37.94784648      38.78952542       9.86021719
Si       0.83207910       0.06179198       7.83550707
Si      38.66921122      39.92011510       7.84753816
Si      37.97144849      38.47358251       5.98707109
Si      37.68376912       1.97331155       7.61848763
Si      36.97274955       5.51150723       9.10135790
Si       0.04448963      35.16716394      31.08395544
Si       1.54709457      35.10484684      27.59669464
Si       1.50265667      32.70752965      27.74323980
Si      39.43597102      31.85033101      26.90732150
Si      39.77725772      38.23781805      28.80630836
Si      38.32833725      36.03219137      32.41588104
Si      38.34288652      38.43161682      32.25814499
Si      37.89987709      38.98901202      30.05044627
Si      36.02920327      38.34251104      29.35875531
Si      39.67465774      35.92133907      28.88019252
Si      37.62163792      35.19939873      28.06056428
Si      37.36575997      35.67544071      25.73899366
Si       1.32062532      30.46290498      23.98473323
Si       7.38030791      29.33695452      26.49289753
Si       3.42926000      29.51734016      24.15120581
Si       3.73896195      28.39078340      26.27236787
Si       2.40937404      26.30318319      22.57667262
Si       2.64687068      25.17092569      24.60855475
Si       6.02908391      27.59230078      26.48366713
Si      39.52619800      28.51842306      24.08685380
Si      39.96465500      27.48309733      26.17929548
Si       3.20560517      29.68982766      28.06605762
Si      39.55291436      28.85747992      28.00581493
Si       2.23101799      26.56496427      26.33090495
Si       2.44430269      25.49201297      28.49234237
Si       7.77569569      25.01402335      32.99498265
Si      10.27438752      24.36029184      26.79168611
Si       8.99922756      25.30349849      30.99450476
Si      10.44023900      23.61822407      30.49990289
Si      14.51235418      25.60715062      30.77165630
Si      11.78771492      24.16214549      28.52054389
Si      15.83496328      23.91482362      30.21578857
Si      13.09103742      22.15123361      28.11104519
Si      11.82159317      23.21344070      32.31738568
Si      14.59519120      21.89992337      29.95871853
Si      13.44308190      21.44262783      31.91103358
Si      11.87363050      20.36735499      27.72659585
Si       3.44613737      29.56277447       9.28179801
Si       1.66036954      33.62643894       8.55222125
Si       3.31244234      34.63448072       7.02588902
Si       2.44251250      30.09593248       7.08291484
Si       3.97853422      30.99518672       5.64856355
Si       5.68118978      29.44273440       5.18935133
Si       3.97886982      25.69362150       7.25454462
Si       6.52458415      27.56435113       4.09069901
Si       3.08518641      26.61686084       5.29662868
Si       7.22644503      25.34888134      10.33143633
Si       7.11258162      23.83783345       8.59059740
Si       9.09677394      22.85966966       8.06363461
Si       6.09934966      24.94874812       6.80886759
Si      35.07447648      22.91559782      30.82653979
Si      34.94047290      24.88073966      29.56496229
Si      32.25525894      23.36948912      27.28191710
Si      31.71936362      22.99177912      25.04039112
Si      34.31004465      24.55780259      27.47852851
Si      34.28010441      26.42235583      26.12321869
Si      13.80515714       6.75441618      37.32005191
Si      17.12001073       3.93276674      38.22346479
Si      17.09984320       6.07303152      38.90741028
Si      15.83504609       7.47001798      37.41558857
Si      15.91999292       9.69671191      38.22550881
Si      14.97689383       9.82180466       0.41270133
Si       9.36727804      20.43506305       6.65160644
Si       9.80436855      21.83754829       4.76513525
Si      11.63369142      23.15355234       5.12245577
Si      12.02461701      24.65949178       3.31341567
Si       7.81413170      23.41470206       4.41760600
Si       8.15608649      24.62868053       2.67853065
Si      10.08839928      38.67122254      15.51635264
Si      11.63900379      36.88575554      15.61018926
Si       8.74218370      34.53649833      15.78938103
Si      10.84587550      35.27875829      16.82255154
Si      12.65415202      32.76660909      14.90971429
Si      12.31408826      33.44355081      16.94844261
Si      14.34259605      34.20592060      17.99452016
Si       5.87444251       2.07785670      24.47900800
Si      22.69722194       2.39997036      11.85605077
Si      16.26344967      27.55130616       1.80948734
Si       8.68917795      19.99695464      24.68901003
Si      35.02366828      39.95889795      34.58679463
Si      13.09129772      28.20213227       7.85635233
Si       4.61158718      22.84753313      12.29449810
Si      33.11706430      18.06239158      12.63342192
Si      10.78102904      15.33482679       2.71416645
Si      20.66995707       9.77234707      33.74941038
Si      38.87966924      30.59800126      25.64372036
Si       5.11799765       5.17233262      38.06543393
Si      15.60830117      11.58853630      33.98037080
Si      35.86159433      14.55110273      31.41825772
Si       5.69305577      20.92314917      18.47079879
Si      28.10584146      37.29579539      19.47241857
Si      29.94279910      30.37662272      17.15961262
Si      25.60236743       9.86434079      38.53528199
Si      18.99706130       8.92622643      38.10813899
Si      39.54658952      13.96298204      38.48609110
Si      26.59365241      36.82928676      24.68310592
Si      22.83540986      36.86188294      29.98281636
Si      20.88664251      20.32344135      10.58213801
Si      11.26709162      30.82845361      26.79818918
Si       7.65942175      14.33828132      12.18132129
Si      32.76686801       1.08999990      39.34518024
Si      24.74461153      34.69957149      29.39561067
Si      39.29226878      20.10033511      30.95141398
Si      21.02846536      39.05814408      25.46398429
Si       4.32549993      26.54942518      23.41448919
Si      28.25775493      24.01652966      24.30650615
Si      12.72812565      29.11955539      29.90309342
Si      31.14425601      36.67723806      11.56813994
Si       9.87893615       4.60136815      21.63473928
Si      18.30059791      20.50952946      16.72323511
Si      22.84508312       3.13337967       6.45378310
Si      25.26520597      24.55901265       4.06689096
Si      28.51314385      30.87197010       1.90685026
Si      20.85927178      10.19097623      18.80608903
Si      37.58614356      28.41814197      15.72087959
Si      15.85803628       4.86344601      25.68804200
Si       9.15971633      26.96468284      27.21569827
Si      21.30561013      13.65743394      38.68897698
Si      28.22394554      32.25624618      29.49368305
Si       2.07756553      13.54358574      20.40674057
Si       2.73200988      20.94775232      31.47889124
Si      14.75531835      36.61204700       7.75984289
Si       8.07769983      38.56691748       7.00784160
Si      21.78261637      14.95496223       8.03399743
Si       1.45080409      34.32562484      21.76972766
Si      11.33652493      17.86828354      15.41937681
Si      27.46923905      32.18536767      36.76313938
Si      22.31625093       3.54797503      24.80379050
Si      30.18964775       9.04527674      23.21092001
Si       7.09881721       3.08657258      12.17476518
Si      30.07138260       7.04250183      18.85016278
Si      23.44302502       6.98098897      18.40736267
Si      38.03578699      11.54415211      12.35211858
Si      39.31529262      26.47778841      15.08922041
Si       4.35475522      26.25729161      38.05356140
Si      30.84444455       6.75412517      14.89037121
Si       3.11366504      12.69733791      35.19076837
Si      18.85293110      27.47513752      31.64307586
Si      29.27443805      16.58336928      30.27279673
Si      33.10791048      15.80754081      26.11010709
Si      36.03032534      30.60313659      23.38931658
Si      10.43310617      19.39844659       8.04663559
Si      32.02879198      27.82702172      39.70506743
Si       4.20627415      23.30963146       3.70297057
Si      33.65041000      35.25177329      10.75010482
Si      31.25653433       4.45820003      29.33445506
Si      36.35146480       2.84158117       8.93271830
Si      16.63287711       1.90826632      11.09507549
Si      20.64584580       7.76827730      39.36797821
Si      36.21115953      31.07293126      29.28357763
Si       4.49384560      31.48951611      39.57851336
Si      39.59735462      16.83577119      36.66896016
Si      11.33702255      35.07438200      32.44218028
Si       3.59774785      28.81134494      39.52222336
Si       8.62726031      10.02996414      35.07558851
Si       9.89609487      33.10575060      18.73955185
Si      24.17805824      20.58469031      23.29460904
Si      14.97112190      18.84885265      37.59780399
Si      16.70715546      25.18779267      38.02277282
Si      33.70351465      25.73219501      39.41770065
Si      14.54427205      38.15095325       3.14867533
Si      33.97504941      10.86211276      28.69787991
Si      23.34043462      23.55165342       6.74849735
Si      25.33353244      22.78894990      18.32760329
Si       3.57387021       8.87471815      27.02704394
Si      24.47462320      36.61732019      28.70663804
Si      35.11509867      24.82571909      34.76559343
Si       1.79079226      11.62203855      26.36782014
Si      15.71015863       8.09097339      30.29309038
Si      38.41723589      34.18230532      26.03503757
Si       7.46228525      27.99092817      18.91758157
Si      16.64393438       1.64384912      29.54241562
Si       1.34035146      27.75451417      12.55073873
Si      10.13501070      16.44396190      12.63949175
Si      24.79550836      16.82165455      13.21225218
Si      39.90068146      11.33191440      17.51128945
Si      16.56542350      19.84009560      13.20338362
Si      27.37703211       8.24555655      24.38037662
Si       8.43781246      19.31005425       0.22907097
Si      21.84661200      38.64785683       3.39065894
Si      24.61509243      29.23506045       0.20352146
Si      13.98313471      22.25408875      34.58745026
Si      17.10060835      37.25810620      12.33153499
Si      32.69018064      23.85547816      20.06821241
Si       5.92613251       4.82527136      16.16521735
Si       8.28153649      26.80065883       4.27420165
Si      13.39658993      24.21617649      37.86759921
Si      17.48986559      32.53984263       2.37461150
Si      14.26802325      24.98981696       3.74230316
Si       1.71073265      20.47216998      32.82395255
Si      24.71528019      15.63449514      21.49674703
Si      14.00822780      29.18879238       3.90038739
Si       0.89684460      14.02694302      34.42194237
Si      14.06006972      38.53621872       5.26160764
Si      36.88940860      39.73748057      11.47292775
Si      24.01998230       7.73650551       4.92669551
Si      15.21743479       7.19160278      32.23339259
Si      11.34548553       9.26544822      39.14153258
Si      34.46818785       3.43783463      27.87181669
Si      36.27151162      21.69329107      20.91589598
Si       4.09717969      27.03737205      12.37335643
Si      16.87412253      17.25501243       2.81440748
Si      14.10417527       9.47279097      35.31351749
Si      14.13345363      21.98550969       2.81701157
Si      25.85146786       7.31170264      17.67536155
Si      16.72982357      39.51881673       3.44421805
Si      16.60295424      13.50868441      16.07071188
Si       2.11922567      28.21999444      32.47408047
Si       6.04232164       1.65399191       1.72712695
Si      33.12951663      38.10276830      19.97901500
Si       8.21455735      33.66440372      26.65286720
Si      32.48336534      32.70429404      14.03650319
Si      32.68668816      30.39930114      15.18458297
Si      14.42500791       0.15455221      35.44563162
Si      27.65394634      17.11204488      17.83592283
Si      24.00040841      25.90510614      14.19413298
Si       8.01027857      30.61904016      36.14163170
Si      33.12034453      16.53012536      23.86060760
Si      33.04150014      25.51671427      17.51056736
Si      12.59982571      16.79415531      11.68611330
Si      19.78905369      18.47126947      24.80095185
Si      18.50636907      14.78517538      24.70994950
Si      24.99763182      35.17132500      14.01961475
Si      20.27396208      30.04309791      10.37016349
Si       8.63601987      37.85494171      17.24342246
Si      25.75200524      11.17764368       9.44852788
Si      25.10731968      14.30428161      35.94487656
Si      35.09513694      16.81750445      24.36216485
Si      36.76221148      38.39806099       7.37395581
Si      12.14004824      21.31417151       0.52474540
Si      12.73973260       8.22583775      26.81788335
Si      12.07785522      25.63589330      30.86655733
Si      17.43803427      38.08340784      19.92163168
Si      34.24901763      35.38059401       8.55783735
Si      17.35686736      22.44584019      30.97791023
Si      32.64468244      19.39666637      32.36727962
Si      20.82863182      13.29535759      29.88344988
Si       1.98373733      27.80309852      30.20868045
Si      22.46405175      11.42471382      24.64082900
Si      14.31584960      14.13223773       2.36521535
Si       6.80088505      27.64557626      10.03895348
Si      24.41523337      34.13195193       0.20063133
Si      15.18598845      10.91960007      10.50198618
Si       6.80484157      38.72815899      14.45977701
Si      29.21202602      19.05618827      37.74022188
Si      14.71574061      13.79293127       5.75529472
Si      34.55192670      31.34493018      28.35902243
Si      13.64818530      18.51811383       0.44719123
Si       5.98135197      34.12935425       1.41504949
Si       6.05753426      26.47408932      23.35785205
Si      24.81586950      19.72087954      17.34855437
Si       9.13074470      14.13258727       6.53259166
Si      16.10446666      35.49821481      17.46318806
Si      23.68266470      24.98215878      35.95239319
Si       2.34689244       0.96392280      32.30507745
Si      31.72709705       4.72113867      35.66308243
Si      22.72366137       9.50535016      15.04529546
Si      28.54819028      35.31327027      31.54642148
Si      21.80758901      27.81615102      28.18836163
Si       3.22774435      24.35588140      39.88283753
3068
Lattice="40.0 0.0 0.0 0.0 40.0 0.0 0.0 0.0 40.0" Properties=species:S:1:pos:R:3 relative_density=0.96 cell_dim_angstroms="_JSON [40.0, 40.0, 40.0]" n_grains=239 grain_size=8.0 crystalline_fraction=1.0 grain_radius=8.440649961279794 pbc="T T T"
Si       7.58144455       9.07884502       5.25252746
Si       9.44760424       6.47716281       3.23967193
Si      11.47995336       3.85280470       1.16628249
Si       7.44072587       4.43413731       0.99721515
Si       7.42295403       6.91104536       4.35460184
Si      11.37517834       1.78787310      40.04520491
Si       9.58924372       1.42513420      38.56221486
Si      10.92591089       0.03768803       1.55027808
Si       7.32006246       2.46399863      39.71983692
Si       9.44343576       4.35532664       2.22638940
Si      10.72312947       2.88555076       5.06452710
Si       8.68407194       2.88048650       3.89274025
Si       9.16575756       0.79852380       2.91135968
Si      12.23399541      27.77675008      20.51823639
Si      11.38612760      26.05245182      21.87410178
Si      11.64473040      26.60519410      24.14525002
Si       7.98898797      27.90049505      23.88026380
Si      11.24794052      31.24159910      19.48411250
Si      14.81216004      29.93536804      17.45447465
Si      14.40221218      28.52405907      21.03862083
Si      14.72461659      30.52022112      19.83786983
Si      14.44922261      29.10423751      23.31713460
Si      13.26066775      32.35555355      19.97241589
Si      10.57622667      29.41905992      20.80984145
Si      10.21989844      28.46301969      24.36719079
Si      10.71663506      30.30015178      22.98567947
Si       9.79621819      28.97314660      26.62345725
Si      12.91358296      30.86117312      23.60946105
Si       6.92146078       1.31821499      19.61172611
Si       6.97603632       2.53098850      21.62694458
Si       4.82461157       3.46800721      21.78631123
Si       6.41787908      39.61970031      23.61403187
Si       4.16328992       0.23839575      23.86774633
Si       4.01823918       1.49169822      25.85231095
Si       5.67455676      39.38838693      20.11307135
Si       3.48289091       0.23975152      20.15492360
Si       2.76972888      38.34861976      23.99869160
Si       3.44328405       1.58775793      22.08150305
Si      13.41634216      19.61373952      10.52255754
Si      13.62827349      18.34194611      13.49161825
Si      11.61691317      18.20280200       9.97799776
Si       9.62126194      19.32559708      10.51354200
Si      12.01252069      21.38764147      13.10205569
Si       9.75991887      21.24289277       9.15897393
Si      11.83077163      23.17370114      11.58309588
Si      10.07870993      24.63366844      12.15664588
Si      12.00552218      16.64480979      13.59511007
Si      11.93680217      15.00543391      15.27891706
Si       9.80276403      18.64258630      13.86152425
Si       9.51857723      15.22657249      10.78871280
Si       7.72313848      16.46455153      11.66895921
Si       5.59067901      19.81578728      11.11552626
Si       7.95313592      17.19153480      13.89351341
Si       6.10992619      18.38561210      14.72316577
Si       9.68614869      19.33170756      16.33089136
Si       9.89689761      20.55637784      12.49853716
Si       7.86335198      23.37019256      11.71994131
Si       7.93243897      21.59821516      13.26552361
Si       5.96490402      20.31255859      13.38304483
Si      18.30649361       4.98501097      22.47136695
Si      18.77302134       6.99109713      21.33747150
Si      22.58116847       6.81479818      22.25536316
Si      19.54983273       6.17818972      26.27369438
Si      19.82342177       8.08504354      24.92440405
Si      20.50549609       7.83283011      22.68771401
Si      20.30722630       9.77941080      21.38312651
Si      26.26712474      20.35599196      28.40493356
Si      24.33024729      20.94150760      27.20733904
Si      24.23965187      22.13276150      25.18275583
Si      27.37774258      23.67951652      26.66797916
Si      24.00637789      25.46080964      26.98771550
Si      22.40174768      22.10533345      23.71644078
Si      22.00399349      25.41597224      25.75485433
Si      22.40840425      26.60848359      23.76867437
Si      25.35804018      24.16392674      25.56741326
Si      26.09075220      24.93080817      23.46953847
Si      23.96770222      25.34235475      22.54551609
Si      26.87046375      27.04249237      24.14946680
Si      27.18567049      28.37898709      22.24035782
Si       4.83499024      24.11579059      33.53804539
Si       3.26600513      22.70548221      34.57714030
Si       2.65503801      23.67311151      36.85003624
Si       4.15798922      20.58703737      35.07403723
Si      35.29834135       8.83906066      35.49218349
Si      35.98878698       5.27944031      35.75046811
Si      36.63574755       5.80006119      37.95065621
Si      34.89873631       5.70879017      39.53334012
Si      35.60707076       6.82036142       1.48094695
Si      33.95842182       6.70539811       3.15430787
Si      34.26779766       6.75669219      35.12895165
Si      32.66145992       6.81705535      36.84538561
Si      30.73983211       7.89469302      36.02331137
Si      33.35130028       7.40222015      39.01593849
Si      32.11300054       7.95232627       2.39869236
Si      31.36338585       7.29772767       0.26789646
Si      36.00933030      35.32171575      16.19333501
Si      36.86785986      37.66226649      19.62830476
Si      38.22766805      36.09422366      16.07999013
Si      39.47843450      34.58466422      17.37893561
Si      35.20664927      34.38817499      18.19714504
Si      33.16843746      33.23915801      17.95911536
Si      36.77916480      32.97946473      19.23348031
Si      36.15359386      34.48881084      22.78661330
Si      35.96661558      32.59345020      21.40661157
Si      37.62613968      31.09834856      22.14293314
Si      36.44238994      33.28134248      15.10712857
Si      39.94595210      32.70302251      16.04805503
Si      37.88043904      31.59064041      15.88432282
Si      36.84090734      31.03098218      17.91825529
Si      38.81856221      34.09726970      19.58290835
Si       0.36727192      32.49581243      20.64860212
Si      39.68983127      31.98346298      22.84141836
Si       0.89617169      30.68809257      19.23873767
Si      36.86761770      19.47974848      19.16772491
Si      39.94283456      21.85188760      19.40591280
Si       0.95029479      20.43043948      21.14614939
Si      38.84025335      16.54816420      19.97056337
Si      37.82884115      21.57728997      16.20355686
Si      35.59932318      17.99516122      17.85705341
Si      39.70296138      22.36955333      15.02434592
Si      38.71367387      20.39196677      18.03180434
Si       0.72937432      17.47546530      18.92099055
Si      -0.00157067      18.68818260      17.04348153
Si      38.60980183      17.10474253      15.99721737
Si       1.97331622      19.31912948      15.93352710
Si       5.03779144      21.18087233       4.06586637
Si       3.66790095      25.43548503       2.72754581
Si       4.56981988      23.74481451       1.36423409
Si       1.47810197      21.25294138       2.27436645
Si       6.15711216      22.30160283       2.32760923
Si       6.65958133      20.67525737       0.70496421
Si      15.59799689      31.42423303      25.79782994
Si      16.98241153      34.13303216      28.60920980
Si      18.39013855      33.10516256      24.57919449
Si      17.46705446      35.17151761      25.21838879
Si      15.71504330      34.78753587      26.73943356
Si      14.38373939      36.65358929      27.26490516
Si      19.71797391      35.52810891      30.99466298
Si      15.56534522      33.80329462      30.45700908
Si      14.13627569      35.59820916      30.97349662
Si      18.32162648      35.98643768      29.15874227
Si      17.18440617      37.97825652      29.67823336
Si      15.42264986      37.55627585      31.17776446
Si      18.42457492      39.90139990      30.22047766
Si      27.85865726      20.03222579      24.13198600
Si      26.51597301      17.34418444      21.77378812
Si      29.99051305      16.39383234      20.26077784
Si      28.25000789      18.89580202      22.11102950
Si      28.54521817      20.30680231      20.25320542
Si      17.34897115      14.54968943      14.18486970
Si      14.55077294      12.07675299      12.40710797
Si      14.24785137      14.52809772      15.96626056
Si      15.35949795      11.28042294      14.46646434
Si      16.34351954      15.59210254      16.03742424
Si      17.56301638      14.61125080      17.79239052
Si      21.97037854      11.55329942      13.93026061
Si      17.49160137      12.20408061      14.10578001
Si      18.63840427      11.43319951      16.00836421
Si      20.79548729      14.69823920      15.87763877
Si      19.72344853      15.54007927      17.79400367
Si      20.85224234      12.21731614      15.88965136
Si      14.07869101      12.19595144      16.21284048
Si      15.28033853      11.33787708      18.04299954
Si      13.17099187      15.20864805      17.94270626
Si      16.73251929      15.39843623      19.84687580
Si      14.48002073      14.72257774      19.83487371
Si      14.43467739      12.37566286      19.97629315
Si      18.69686834       9.08244099      16.03081302
Si      17.64554221      12.26792488      17.96977823
Si      20.93397498      12.44494263      19.71787657
Si      18.81135949      11.43971654      19.83673654
Si      29.92764148       9.78665102      37.15936250
Si      30.65866763      11.03764438      39.01159019
Si      32.25246624      11.43434585      34.88906397
Si      32.97460848      12.77198869      36.68324545
Si      29.28318637      12.91907981      39.32545590
Si      31.64178627      14.66850458      37.07925528
Si      30.35019298      14.00125704       1.12011976
Si      34.18233979       9.43313617      38.17041989
Si      30.85978760       9.53093131       0.80592738
Si      35.87481707      10.29911456      33.74130029
Si      35.10768736      13.50459679      36.01768636
Si      32.94442681      11.38911714      38.58502474
Si      32.52895602      14.68058869       0.55271842
Si      33.79277083      12.70917056       0.33660991
Si      18.79776477       7.56262459      36.14341085
Si      17.74461011      10.72843384      37.77804154
Si      21.04208399       8.24532089      36.30887037
Si      19.79416969      11.86544222      37.97212651
Si      17.54985847       9.52045586      35.76970679
Si      18.30449584      10.87939214      34.00500193
Si      19.58017295      14.63609327      36.08574977
Si       8.63968046      21.98283210      30.39730759
Si       9.21601064      23.09802843      32.38593338
Si       9.84835748      18.60793616      32.41243007
Si      10.25537734      19.81414700      34.38910792
Si       7.63845321      23.15204313      34.12915803
Si      14.94425590      20.59012958      32.97459484
Si      11.26154954      21.81292555      33.66646536
Si       8.91563959      11.72803096       5.22560048
Si      12.83442989      11.45134211       4.25713973
Si      12.92369252      15.21676473       4.33677459
Si      12.84713350      17.46906970       3.15676048
Si      13.44661103      19.23846170       4.58584897
Si      11.16467773      11.62184989       5.90440445
Si      11.38931883      13.52620215       7.26587662
Si       9.80105535      13.36101148       8.99258164
Si      13.40932169      12.90586958       8.29785397
Si      13.68128166      14.89784041       9.51686757
Si      11.24670814      15.47970215       5.96431729
Si      11.69740149      19.27867952       6.15774446
Si      11.75579651      17.27786979       7.39158414
Si       9.91429287      17.05298643       8.83594894
Si      13.83922941      16.98253373       8.44086352
Si      12.26225954      14.74831490      11.38583854
Si      15.41578392      16.15779086      25.18612923
Si      17.11993871      16.41454273      23.58601839
Si      17.60385169      14.39754659      22.47792617
Si      19.23305048      14.61217857      20.79567996
Si      16.37930419      12.45512588      25.66206888
Si      17.28237194       8.83300409      25.99805557
Si      13.41442779      15.57827313      24.09563552
Si      15.55257585      13.63122123      21.62060677
Si      13.71081454      13.48040856      23.07507060
Si      14.67594314      11.67895403      24.23860330
Si      18.16054869      12.63504038      24.13718878
Si      18.41935886      10.64096423      22.91770511
Si      16.45470766       9.99703063      21.79701237
Si       5.03421813      32.39577918      32.23938639
Si       5.51189399      35.73325869      33.63043838
Si       8.15768877      33.20052260      34.20795789
Si       7.32193549      31.89087190      32.44258677
Si       7.83968678      35.50656945      33.87436866
Si       8.97569457      36.19819890      31.93490378
Si       0.98561064      34.56921631      33.49660965
Si       2.27368045      35.19552095      31.63233428
Si       4.19478412      31.28950807      30.34160028
Si       5.26577687      31.94314790      28.35264997
Si       4.55577631      34.65078263      31.77602783
Si       8.15808472      34.97599365      30.09953986
Si       5.85326769      35.42620812      29.97439277
Si       9.07371483      35.94066235      28.16015641
Si       5.09046762      34.27152630      28.07299526
Si       7.56873030      31.52159812      28.57255062
Si      14.68213296       1.95078525      33.60960003
Si      15.50733582       2.32024374      37.87465451
Si      16.21859535       0.38107717      36.74998642
Si      12.31436496      39.86519433      36.17903606
Si      14.53162485      38.76815596      37.03978331
Si      18.09674927       2.64503011      34.37891852
Si      19.31875804       3.17319579      38.57340668
Si      19.79095948       1.11223137      37.54394751
Si      16.57504538       0.85490836      34.47407725
Si      15.46487343      37.32106336      33.51726973
Si      17.15883563      38.93093619      33.25433232
Si       6.74334240       9.85591966      26.87718556
Si       7.23773227       7.81005070      22.81576350
Si       8.29676815       9.79854215      23.48830580
Si       6.93346355      11.59949080      22.84219014
Si       8.21637893       5.83826759      26.17563729
Si       9.80561382       7.55015586      26.42259923
Si       8.80048259       9.57718222      25.77352023
Si       8.99313629      13.49422348      25.09098041
Si       9.95606091      11.60280206      26.09345690
Si      33.59266544      32.29653428       4.62798228
Si      34.81981633      31.91710947       6.59703718
Si      24.06118202      28.82021806      23.06204549
Si      22.98052363      25.75109710      20.45055743
Si      22.76837478      29.94478679      19.71754299
Si      21.84860136      28.89083314      23.85560320
Si      20.51503202      30.43527749      22.68711832
Si      23.63239574      32.49182770      22.18129763
Si      23.86185941      32.01961476      19.88898186
Si      21.42223201      32.58499470      22.97925344
Si      20.26405691      34.15752896      21.66931895
Si      20.91075854      26.13675873      21.49805002
Si      19.73129261      27.76915515      20.28476708
Si      19.79031005      27.36035434      17.97012378
Si      18.70428537      28.75221671      16.41669556
Si      18.32053897      30.58535672      23.51852943
Si      17.28435337      28.53825541      23.00237772
Si      16.99729690      31.96374572      22.14773453
Si      17.46021002      27.57837381      20.86286262
Si      16.59015608      29.16888661      19.36573938
Si      20.51249211      29.98474412      20.37936805
Si      20.29867486      33.55692798      19.39593257
Si      19.33958091      31.45324860      18.96641584
Si      19.55368806      30.92872101      16.68416468
Si      17.17110998      31.39013411      19.87383117
Si      18.04887532      34.04522659      22.45075489
Si      16.51432471      28.33825610      17.16717353
Si       2.31601573      36.57124007      16.00947462
Si       6.02677918      37.02230289      16.94694079
Si       4.97540476      38.88443223      17.92512411
Si       4.70832304      33.80533524      16.01018086
Si       3.05088803      32.20208679      16.47187747
Si       6.24281784      33.08450903      17.63996609
Si       4.10640147      35.70276360      17.26221389
Si      14.84755268       7.25763043      34.65077235
Si      13.34269896       8.36244194      31.59809279
Si      17.13871145       8.05675484      32.31969624
Si      17.90897988       9.33522678      30.50328211
Si      15.16504772       9.03433492      33.14266036
Si       0.15527567      20.88492604       7.79267996
Si       0.62871397      23.06524117       8.53595524
Si       2.01210308      23.86476285       6.81046437
Si       2.05579697      19.59505233       8.29734287
Si       3.67425615      20.30332279       6.74513090
Si      39.18856340      20.40408436       5.70349867
Si       0.99563043      21.39597425       4.57159621
Si       1.44626525      23.70379012       4.53356237
Si       2.87955353      19.98841068       4.55430111
Si       3.11808115      21.94594604      10.78753106
Si       4.79844296      22.71813138       9.33597726
Si       6.30759798      19.76359921       8.87660310
Si       6.91010102      21.81899765       9.84763302
Si       3.96924777      22.60298233       7.13856548
Si      38.05591726      14.17204506      28.59909664
Si      34.86911294      15.77255860      29.51350196
Si      37.73308705      18.63046756      28.04710237
Si      38.04031568      17.77125670      30.21460352
Si       1.40969800      16.00708553      29.10187479
Si       0.20437087      17.07433764      30.81632761
Si      33.97639931      16.02406280      33.49985386
Si      37.26841438      15.55283498      30.33233550
Si      36.58307013      12.43080690      32.40828948
Si      37.52956273      14.58317318      32.45896732
Si      39.86554072      14.40269231      32.66586125
Si      36.29316330      15.97075179      33.90021871
Si      14.00575101      19.06385219       7.35789544
Si      15.77085571      15.95310380       9.30307100
Si      14.97587637      17.11326922       4.08872495
Si      15.02001120      14.48282771       7.62785421
Si      16.59304455      14.12379222       5.91733355
Si      17.99635095      11.69521240       8.31700298
Si      15.94241923      12.59789056       4.25139664
Si      15.91457244      15.40303838       0.65683319
Si      17.30084087      12.54885815       2.33237348
Si      15.94753033      17.96413257       8.09937268
Si      17.74699692      17.79544478       6.59832126
Si      15.43876724      19.09790468       2.91995726
Si      18.29849467      19.82914955       5.55767405
Si      17.52159865      14.81314505      10.38218476
Si      18.58699043      13.57314749       7.03192173
Si      19.36235940      14.73540434       8.92176849
Si      20.29461732      13.16941276       5.46710701
Si      19.55657689      16.61273499       7.52033249
Si      21.34389387      13.84506616       9.82050201
Si      16.96226765      16.25730227       5.00478540
Si      17.89275277      14.74424001       1.73841557
Si      18.75223412      16.03792216       3.49972660
Si      19.57024083      14.29335378       0.16026079
Si      19.03670388      18.22404672       2.68918842
Si      20.75419822      15.22972067       4.43053142
Si      25.31702048      27.47173592      33.20727052
Si      23.78768883      27.36140610      34.99042027
Si      24.38461557      26.21288039      31.45298771
Si      26.07179346      23.21544076      32.74543701
Si      23.93188315      24.03929730      32.22413526
Si      35.37372741      17.61765932      21.53240506
Si      36.10110301      18.19164472      26.19124175
Si      37.43962109      20.11552903      25.99755815
Si      37.36995956      17.08205953      22.65427585
Si      38.73897825      18.98987405      22.52585016
Si      39.54916690      19.55149990      26.87065271
Si       0.48465866      17.75008658      25.68313424
Si       0.82667220      18.44994781      23.46419498
Si      37.53862576      20.63250072      23.70545574
Si      39.20141960      22.29390848      23.63149878
Si       1.32582356      22.21387874      24.63691144
Si      20.81766608      37.02144317      24.22334368
Si      22.54922626      37.38735235      22.67501562
Si      25.24336211      31.61204262      24.66211225
Si      24.64769141      35.11851189      25.32339110
Si      22.59912268      35.58199300      21.16918984
Si      25.14801469      33.67434529      23.53594110
Si      24.57195101      36.22598769      20.06314997
Si      26.99292651      34.02670903      22.12080562
Si      24.54517996      39.17464544      25.74438983
Si      22.74183245      39.45020482      21.56253903
Si      26.58454524      35.04308033      26.65712464
Si      26.85989367      37.03977134      28.37669079
Si      28.50610447      35.79752717      25.52729825
Si      26.61858674      38.73198003      26.76181693
Si      28.59090253      39.64838351      25.86659305
Si      24.49131543      37.62115410      23.97887804
Si      26.69673586      36.10667626      21.06400205
Si      26.55438995      37.63550809      22.84487320
Si      26.56705095      39.83597313      22.02374717
Si      28.32721283      37.84472321      24.38048518
Si      28.60633103      34.17782375      23.82496317
Si      25.59649969      20.19882743      13.59534199
Si      27.01194010      17.60277626      15.81884022
Si      26.00849964      18.77639291      11.76847107
Si      26.97195978      21.21499942      17.12376316
Si      25.91669245      22.42595177      12.91133023
Si      27.99925872      22.76739522      11.87364264
Si      29.17326411      24.05728847      15.65080487
Si      27.26219447      19.86346554      15.22122543
Si      29.89350221      18.69803320      12.55878911
Si      29.41907827      20.16560879      14.33406584
Si      28.36451088      21.26603520      10.10080150
Si      34.29978789      30.97762430      21.78617968
Si      36.76816820      30.81744866      25.70225781
Si      35.20095189      29.61009875      26.97412388
Si      35.07871833      28.82132909      22.31690739
Si      33.55425819      28.22894012      24.00660922
Si      34.18281248      32.37895641      23.67221762
Si      32.38096454      31.65014314      24.99657955
Si      32.48981817      30.84097482      20.29229217
Si      31.70091624      27.77414404      22.63237388
Si      30.97792592      29.85025503      21.79676505
Si      29.86766247      27.00830365      23.89060720
Si      30.47870585      31.09356652      23.73018760
Si      28.70162104      30.17946117      24.97214680
Si      33.12465238      29.59719710      25.86995679
Si      31.55196452      28.47319339      27.20910133
Si      30.88037465      29.96535794      29.07275266
Si      29.62112134      28.21999174      25.89089398
Si      28.27821221      31.75237427      26.92417773
Si      21.50634116       3.79173629      19.64264365
Si      21.07015048       5.18287714      23.01821138
Si      19.66007931       2.39996611      20.07213447
Si      19.59160760       3.52676548      23.79336190
Si      20.25675513       0.32952205      21.01417137
Si      23.09852883       2.72399038      18.28064963
Si      23.65292526       0.60120430      19.12684866
Si      22.67641594       4.14149953      21.65229390
Si      21.44702961       0.80149115      22.98661559
Si      23.34125475       2.17625920      22.75925730
Si      24.59587156       0.86602136      21.26397377
Si      21.70435718      39.32699732      19.45556434
Si       3.04608087      28.37246174      11.23203433
Si       1.04673521      25.09703626      11.33510422
Si       4.11036031      24.82764265      13.79351699
Si       2.69667306      23.71344852      12.28011997
Si       1.96775267      26.74006566       9.92713838
Si      39.06507714      28.40602686      36.79847176
Si      38.32048608      30.44961317      35.90435856
Si      36.23874912      30.75599925      36.95448298
Si      36.62511143      31.30082217      39.20932563
Si      34.06248307      33.98159453      39.18983664
Si      34.24088514      35.02715225       3.84721929
Si      35.81862475      31.55211383       4.49896784
Si      32.12291177      34.02253772       4.01183086
Si      37.63928241      34.61284853       2.63903113
Si      33.53962066      36.56499887       2.21232662
Si      32.95041315      35.86913896       0.04469806
Si      37.69907123      36.29887872       1.00084509
Si      35.67961078      33.36671062       3.00927469
Si      34.91300384      32.62607640       0.91307412
Si      30.95767648      34.71620860       0.52434857
Si      37.11676438      24.90960125      33.00753686
Si      37.13912409      22.75902679      33.95863540
Si       0.92348284      22.94417611      33.00814150
Si      37.45008725      22.80681988      36.28919077
Si       1.04960603      22.82827516      35.35359568
Si      38.65587325      22.47320517      30.33905364
Si      35.21255610      22.15023310      32.75527782
Si      36.67272972      21.31311164      29.83420413
Si       0.34729955      18.97872813      29.44421113
Si      38.85853731      21.89211021      32.60834891
Si      38.91915529      19.62079279      33.21247097
Si      36.87133337      18.71327508      32.49528497
Si       0.81473733      19.04743587      31.94185280
Si      37.10657595      12.96067946       7.21912789
Si      37.84070307      16.78507906       6.80526813
Si       0.09909830      14.15749723       5.39227474
Si      36.15150125      15.17235597       6.52925532
Si      35.03027031      14.86785887       4.48460016
Si      38.79954168      12.23220716       5.75849119
Si      38.00263960      12.52702320       3.56570070
Si      39.52452029      16.42997252       5.20243085
Si      38.47201258      16.11980139       3.12241183
Si      37.20572712      18.95870741       6.17072137
Si      34.08427390      16.97570834       4.04579712
Si      35.62588750      18.70567989       4.44718808
Si      37.53543046      18.21723419       2.61831822
Si       0.18817073      15.79999250       1.54665370
Si      36.80370799      14.46738650       2.99295183
Si      35.76454837      14.32157849       0.88834877
Si      13.77625964       4.38056491      26.44835361
Si      14.26752182       5.77973735      24.14828206
Si      16.57336257       7.10917386      24.56414062
Si      15.06534328       1.91257960      28.35412693
Si      13.76979593       5.81410178      28.31375703
Si      15.94498898       6.56077002      28.80782913
Si      15.64014243       2.95132056      26.32400159
Si      17.98989061       5.24398182      24.78523533
Si      17.64697308       4.08123823      26.80072360
Si      19.66289317       2.98380129      27.31266839
Si      30.53251922      22.21103742      29.67988766
Si      28.94939430      22.50969821      27.96725546
Si      32.50016293      24.07369911      31.83294153
Si      33.61205468      26.12409290      32.13300803
Si      31.30807287      24.42559301      29.83656093
Si      29.60665060      26.04297047      29.97689013
Si      28.30767762      25.55649773      31.87591932
Si      31.26186240      27.84062987      30.65193048
Si      24.83983775      23.29804185       1.92101588
Si      25.21082596      23.23998467      38.08223736
Si      23.88765773      22.55789736      39.90268286
Si      25.31784409      25.58922514      38.06735925
Si      22.88075402      26.47577564      37.86826739
Si      28.12400848      25.51732802       4.26070900
Si      26.08253327      26.63824432       3.93459402
Si      23.71128435      22.73431424       3.90590226
Si      24.44417286      25.50506335       5.77944995
Si      22.33046577      26.43709708       5.36199193
Si      24.95570520      25.64390347       1.79743295
Si      21.72125730      25.70943455      39.76511269
Si      22.75289703      26.46554516       1.73855952
Si      21.25432192      25.72955562       3.39539617
Si      22.87905269      28.81329769       1.70307008
Si       2.97760079      33.93812480      38.29740749
Si       2.32671680      33.00544640      34.62889175
Si       1.93020578      29.38407429      37.03012497
Si       3.92371084      30.62150852      36.87254800
Si       5.32886340      29.78194360      38.56094928
Si       4.56803265      29.40505708      34.96604745
Si       6.65397052      30.34271939      34.41982296
Si       3.88974825      32.92129401      36.38332361
Si       6.06027200      33.69174058      35.90938841
Si       7.33994096      32.85815553      37.94520225
Si      16.61874188      12.67264731      37.08475968
Si      18.81624125      15.91237099      38.63085165
Si      15.78866556      13.72244845      39.01761353
Si      17.46897980      13.95399753      35.30615629
Si      14.75235610      11.59861289      36.14196029
Si      13.32633770      13.32447452      35.42752271
Si      15.46772935      16.65404773      36.90992942
Si      23.34852331      22.95854223      18.78844765
Si      21.75256270      22.60450227      15.51933227
Si      19.56694470      22.92650384      19.05639769
Si      21.50774305      24.05234817      19.76086687
Si      20.21214628      23.68849360      16.92726895
Si      20.05486268      25.90075572      16.14561305
Si      25.48342623      22.56543492      15.52663905
Si      21.50233686      23.38674591      13.31572719
Si      23.40607457      22.43297945      12.31745005
Si      21.74206788      25.72194312      13.17493845
Si      25.61078502      25.32469999      12.85032549
Si      23.62654390      23.59201923      16.54081737
Si      19.71028491      26.85237299      14.02297721
Si      38.86251392      38.75811751      21.43553128
Si      39.13850992      37.08322152      19.80801320
Si      39.62130132      34.56924219      22.97832244
Si       2.53917852      36.86759354      21.59688708
Si       0.72442863      35.63068939      20.75646716
Si      21.76323819      34.62452726      29.26600407
Si      22.17879538      36.87435176      26.13544032
Si      23.11557711      33.02738266      25.93088420
Si      19.97000557      34.83131558      24.34533127
Si      21.16823696      36.65926987      28.24801378
Si       5.08263847       2.75651443       7.61975988
Si       5.83127236       2.85865071       9.84683271
Si       6.30680370       6.20086100       6.56234585
Si       7.40119858       6.23112742       8.64372449
Si       8.63305474       2.52883627       6.34483717
Si       9.36151088       3.10973014       8.50410456
Si       6.49199627       0.82742295      10.83087136
Si       7.13684425       1.62429837      13.56455876
Si       9.90926640       1.15985253       9.69902932
Si      10.78747000       1.41181102      11.86570795
Si       9.26261826       7.65475933       8.44634255
Si      10.10463567       7.90697753      10.62747500
Si       7.75001129       4.21861464       9.80972077
Si       8.68200502       4.69631848      11.91579414
Si       9.16764600       2.67290685      13.01155495
Si      10.63521716       6.00447430      11.90373624
Si       9.65450368       2.98465570      15.29077761
Si      11.08331375       6.20881935      14.63072301
Si       5.48832077      36.16428383      39.71405348
Si       5.03506386      31.30430724       2.03648989
Si       2.15270348      37.28913987       0.74988484
Si       3.58783042      35.43162853       0.88953460
Si       4.52424892      35.07397202       3.01681636
Si       2.81640842      34.17815282       4.36256735
Si       7.73875967      34.21146725       2.11683313
Si       7.11918681      29.85688041       1.98972470
Si       6.10047373      38.09002437       0.91599113
Si       5.22723572      36.99078744       4.18380699
Si       7.14034670      37.63026700       2.97421932
Si       5.80177030      36.34016893       6.36951380
Si       8.94010175      36.13292049       2.74436855
Si       9.54199246      35.67140714       4.97059232
Si       5.90503584      33.17624576       3.16275915
Si       6.61830295      32.86322537       5.38176511
Si       8.39015684      31.31905781       5.29965069
Si       7.56892698      34.78874641       6.34061659
Si       2.29336347       8.30293405       2.36086484
Si       5.90148877       9.01384394       3.60819040
Si       3.62446759       7.28143814       0.71231974
Si       3.87157102       8.19685385      38.56005584
Si       7.34197497       9.44708264      -0.03121366
Si       5.19997274       6.95291329      37.07044493
Si       5.16591120       8.57786084      35.37206579
Si       3.88235925       9.96209326       2.86363409
Si       4.14825826      11.42143575       1.03857150
Si       6.93289366      11.05515517       4.15506157
Si       5.41135828      13.33747798       1.55530841
Si       5.77316588      14.38667239      39.25332125
Si       5.11398388       9.98721807      39.44423405
Si       6.76132729      10.14389420      36.09964924
Si       5.74503155      11.48442503      37.74376476
Si       7.21239739      13.32269773      37.73322112
Si      24.91832285       3.53371315      39.54813453
Si      26.93468493       4.74302445      39.51776665
Si      28.98697691       3.62782438      39.24757227
Si      25.01381944       2.31983204       1.55993424
Si      26.97476032       0.89014268       1.18407016
Si      24.57280065       2.59822949      37.41821309
Si      26.46372955       1.20266675      37.33289186
Si      26.74657033      39.73489560      39.14842833
Si      28.56044081      38.29883821      38.72607544
Si      28.92986421       2.19493944       1.11135729
Si      30.45562479      39.69079965      38.67831474
Si      30.83566195       0.89196743       0.66436256
Si      13.48344421      10.22602148      20.04133093
Si      12.63133193      13.88923618      21.02618000
Si      10.58947007       7.75411102      19.91889496
Si      12.97041442      10.93465477      17.85867990
Si      11.87794565       9.20853495      16.69371023
Si      11.44439452      12.72157521      17.96020875
Si       9.95025435       8.35742620      17.73773818
Si       8.62279964       7.12494459      21.04383656
Si       7.23189823       9.00435357      20.78968220
Si      11.62054374       9.41531481      21.22551407
Si      10.97158260      13.06574690      22.47491763
Si      10.11506562      11.22065493      21.29539900
Si       9.68547202      11.56605764      19.00939846
Si      35.18369848       1.78469413      32.55487239
Si      34.07705879      39.32338559      29.89426998
Si      33.17560542      38.92657112      33.61201711
Si      34.99692981       5.60995932      28.63071702
Si      34.68631857       1.56396671      30.26692727
Si      33.57026535       3.00509285      25.84657792
Si      32.68534215       2.68321060      29.74402425
Si      34.18861172       5.18734301      26.46298898
Si      33.31815289       1.25700031      33.88581194
Si      31.54890296       2.69369244      33.30599592
Si      35.24290785       4.12000606      32.28526238
Si      33.22077194       4.95667883      30.02683764
Si      32.38057846      38.72386372      31.40841437
Si      30.43425412      39.88978299      30.78942566
Si      32.01927898       2.39751281      27.50663200
Si      31.75769295      40.06229406      27.39722614
Si      30.11774029       3.63332480      26.88350017
Si      29.85203944      39.34848404      28.57603314
Si      27.87920293       0.54319078      28.11640034
Si      28.51993424      39.36086985      32.04905938
Si      30.84358375       2.18292877      31.11741845
Si      29.55865349       5.51609207      30.91415109
Si      28.87670004       3.30719971      30.47468473
Si      28.35704559       2.84333571      28.22782476
Si      27.07848066       2.83501427      31.92012082
Si      30.75681223       5.87781954      27.17432321
Si      10.71202330       5.87097456       0.24019250
Si       7.37504161       5.64532999      38.98261882
Si       9.89087366       6.87274905      36.41452551
Si       9.17203537       8.63447976      37.79673418
Si       8.84985351       7.25395338      39.85856170
Si       7.98414796       8.17650467       1.84070061
Si       9.34100801      10.09708128       1.85923917
Si      12.76546654      36.73675616      18.73850796
Si       7.67262314      38.45975779      21.99823490
Si      14.21173911      38.44388068      20.72639006
Si      10.54873087      37.15341704      19.40401554
Si      10.58230344       0.44322260      17.27756806
Si      10.30513890      39.49242470      19.41042190
Si       8.00056824      39.23696718      19.80291617
Si       1.19020535       9.52624806       7.41386183
Si       5.33273913       8.89052565       7.36537840
Si       3.02965021      11.03837397       4.77279312
Si       3.29394050       9.33860470       8.44743340
Si       3.81875482      10.87367473      10.15030250
Si       1.22724319      11.53845211       6.19800886
Si       1.75509707      13.13380782       7.84289933
Si       0.23589955      13.80812834       9.50630414
Si       5.06584437      10.71311363       5.90344267
Si       5.50455451      12.56532196       7.28438740
Si       7.56528407      12.25587904       8.37411307
Si       7.71569901      14.20411707       9.68123822
Si       1.91518660      15.09469431       6.55509532
Si       3.56956499      14.36820553       5.05353662
Si       3.83376664      12.87172131       8.91054384
Si       4.26574695      14.74208942      10.26879242
Si      32.18320645      20.05629898      16.97507423
Si      35.15936773      22.20489156      17.07382582
Si      34.02508738      16.93044238      15.52562652
Si      31.13315131      24.46405328      17.22774412
Si      31.90799676      23.38760385      15.28580227
Si      30.07721998      22.61500498      14.02812784
Si      30.18949448      21.32651772      12.06406916
Si      36.40821798      23.68580535      15.74051508
Si      33.38205922      21.59392594      15.66020760
Si      35.17070111      18.48400497      14.18250026
Si      34.09155747      20.51568748      13.69437769
Si      32.05296917      20.01128097      12.63579981
Si      36.83295091      24.13148381      21.55462848
Si      34.63088828      26.92186576      20.42244615
Si      35.01703061      22.77995808      22.19197009
Si      33.35739510      24.17486790      23.10271419
Si      32.85658986      25.73665178      21.41699295
Si       0.15256758       0.94473974      29.88243839
Si      36.73210662       2.68655928      28.33881729
Si      37.42134742       1.71298043      30.36505824
Si      38.17675585       4.52271837      28.07147364
Si      38.05956498       5.76146819      30.06700235
Si       3.62135738       2.47434922      29.17247895
Si       1.32496814       2.92584198      29.40156666
Si      11.41413435      35.13034670       3.36512833
Si      10.03043214      34.37840345       1.61865722
Si      10.94951387      30.67852036       2.23571032
Si       8.99244764      30.07936758       3.39402814
Si      12.38387809      33.09630317      39.34021151
Si       9.05926785      36.03788643       0.26473162
Si      10.96320039      36.58556538      38.99791231
Si       7.32664864      35.07302539      38.73491019
Si       9.68468312      33.60201235      36.59876296
Si      12.06492736      28.91327845       1.15386983
Si      13.84073389      29.08804115      39.62276257
Si      10.21468566      28.56718860      39.74546698
Si      13.05466893      31.00244561      38.50566650
Si      10.43759758      32.29493025       0.60595581
Si       8.74636369      31.45533915      39.20392704
Si       9.52917595      29.72464588      37.81747689
Si      37.02413028      22.41936511       1.11624199
Si      36.91262431      20.07949557       1.32418283
Si      35.28684561      22.00228694      37.60329571
Si      33.33560705      22.68825065      36.48415054
Si      33.88561731      21.44618506      34.56457315
Si      35.25794557      19.67220464      37.91932410
Si      35.47202843      18.63161787      35.82192964
Si      35.53949272      16.29712150      36.10389827
Si      33.72465911      19.11237715      34.32589867
Si      14.15561020       4.16930935      14.09158584
Si      15.54993295       3.58941832      12.29546742
Si      16.69274691       5.51920083      11.56675159
Si      18.40934172       3.14335865      14.94614552
Si      19.54788784       5.06045902      14.19759080
Si      19.60646196       3.13175044      10.83151472
Si      18.27317486       4.85799186       9.95066136
Si      19.39321189       6.97156108       9.10139014
Si      15.31832669       5.33005075      15.77598507
Si      16.37813939       7.26693144      14.96307043
Si      12.68373880       5.64570805      13.00170786
Si      15.61697192       7.40363405      10.65209553
Si      14.77767440       8.75927954      14.10049522
Si      20.33191624       6.01225158      16.20050220
Si      17.89604637       6.49845297      13.33791453
Si      20.58124815       7.75344994      10.97420767
Si      18.98221935       8.43439881      12.55874142
Si      21.53979676       9.81233551      10.36355682
Si      17.43201821       9.89745012      11.56483889
Si      20.22311901       9.44931555      14.27966690
Si      18.51830124      11.86841281      10.88231798
Si      20.11975642      11.31775120       9.25066918
Si      27.02300459      38.99801507      29.66886138
Si      25.01428047      39.06906198      28.44854686
Si      23.22129847       0.31355422      29.32420586
Si      21.67452730       0.29587375      27.55269699
Si      19.60810145       0.93905780      28.47311359
Si      24.39263890      38.15107293      32.50255092
Si      23.71181893      36.40077935      33.91764257
Si      24.88428085       0.23327984      33.47822821
Si      22.96375916       0.93605687      34.63920824
Si      22.68706033      38.75245252      30.99975663
Si      20.60848404      39.32158330      31.94077686
Si      21.28068599       1.29120575      33.03573389
Si       4.55602740      34.33026555      24.34171432
Si       3.96110835      36.40744014      23.41262516
Si       4.41557496      32.32069232      21.48892312
Si       1.82066684      32.64413281      24.50271101
Si       2.93144859      31.25173605      22.96799454
Si       1.27447408      30.39094106      21.53988054
Si       3.19120018      33.89410810      20.24086212
Si       1.70696131      32.84355507      18.74809799
Si      31.07066621       9.08233028       7.53533530
Si      28.71092760       9.63999692       4.33930813
Si      29.12402859      11.95507457       4.35197569
Si      31.01912829      12.51500942       3.07702436
Si      30.57116253       8.56564073       5.29620372
Si      32.54816401       9.31416342       4.26588843
Si      34.28010295       5.78346359       5.29376303
Si      33.02815773       8.45899378       8.67982200
Si      35.13562341      11.19725523       7.27914503
Si      34.78811724       8.87361772       7.17605664
Si      36.68832713       7.97674712       8.23223605
Si      34.43692943       8.10875903       4.97997294
Si      32.88116352      11.64163845       4.21741261
Si      34.64199212      12.24052472       2.77822528
Si      35.69469070      37.25286751      11.45746860
Si      38.93775243      35.52030551      11.26544699
Si      36.09751534      34.79239422      13.33844472
Si      37.86957521      33.67929458      12.26550702
Si      36.85563658      32.25531983      10.69240002
Si      37.37897728      36.47978493       9.78894145
Si       3.02232928      27.71312590      16.92409850
Si       1.69677825      25.82536881      16.46439143
Si      39.49066976      25.57272879      17.23962034
Si       2.55887976      28.18099363      19.18148003
Si       0.25121937      28.44334730      19.54681962
Si      38.86345248      29.91219786      18.34698259
Si       0.15410071      24.66733504      20.74920440
Si      -0.08135054      28.49919999      21.87290108
Si      37.71942162      28.80330941      22.64876489
Si      39.94914904      25.35708406      22.98832976
Si      39.17076929      26.35414630      19.43606707
Si      36.87508488      26.38563200      19.95640218
Si      33.32544598      28.26691516      19.00150655
Si      36.92457196      26.61813464      22.29607719
Si       1.82087711      34.58574877      17.17022006
Si       1.50350356      36.37296189      18.66539290
Si      40.06784249      38.06367491      17.88358519
Si       9.66014360      24.36682389      22.62916997
Si       8.68923163      26.04163379      21.29395550
Si      10.04192035      26.21323953      19.24169787
Si       7.54077177      23.68384360      17.68858468
Si       9.49974973      22.33887764      21.44926879
Si      10.37382377      20.65705864      22.84137322
Si      10.72915793      22.53308341      19.45395090
Si      13.28368452      24.96179537      21.01374493
Si      13.28968006      27.03864690      17.85794063
Si       7.50005043      21.69008671      16.44257197
Si      10.33491339      20.41035361      18.52169898
Si       9.80605803      24.19095241      18.06479587
Si      11.15061135      24.14229245      16.13602665
Si      38.98018496       8.80302200      18.69558313
Si       3.32140868       9.22127230      20.25276976
Si       3.86258811      11.23494296      19.16528036
Si      39.47721097      10.20280160      20.51843876
Si       0.33031992      12.18233273      19.29453520
Si       1.85721960      15.63271662      19.84944600
Si       0.63261836       8.04266118      17.20669832
Si       1.55531427       9.96697522      16.21790086
Si       5.46396575      10.27649104      17.73441890
Si       3.37376895       9.42441308      14.82806265
Si       2.03584096      11.68285786      17.75361344
Si       2.74760278      13.64234521      16.66509286
Si      32.64623345      21.76776650      22.90731875
Si      33.22567093      17.74245454      20.58338433
Si      31.31955677      19.34498609      20.16783832
Si      33.88146939      21.99094196      19.25191915
Si      31.29534535      25.30473042      23.12261569
Si      32.33856923      25.85031914      19.12707964
Si      30.63284307      18.63871377      18.03208190
Si      32.04432741      21.53118792      20.64612632
Si      30.26329324      22.88093092      19.91336766
Si      30.73468159      25.06286432      20.65529624
Si      29.39157461      22.43029606      17.77592946
Si      15.15763267      39.04263529       7.53304652
Si      17.81195411       0.65167131       4.97768162
Si      19.54805020      39.45532821       6.02055321
Si      19.75301456      37.40717083       4.88348576
Si      13.92165852       0.41266349       4.26275109
Si      13.36036294      35.46193197       6.56940009
Si      11.89299829      39.22097150       4.24851128
Si      12.54222450      37.19091908       3.24508188
Si      18.46850601       1.15426199       2.77563559
Si      16.55838051       2.10780829       1.78650967
Si      18.51576789      38.92112659       2.02331290
Si      14.75507713       0.62038016       2.06978312
Si      15.07925435      38.58518884       0.93620154
Si      15.80326063      39.48558726       5.32670690
Si      17.89555024      36.18578229       5.64906731
Si      16.19581420      37.16385330       4.35316937
Si      14.17052592      35.97218891       4.42612695
Si       7.42797546      35.58425199      36.18842245
Si       6.26835560      37.35237449      35.15882702
Si       3.26686341      36.62910804      37.46178989
Si       7.38312081      37.39992645      39.06964382
Si       6.71748470      39.61186406      35.63242218
Si       3.89304594      38.58997415      38.59891805
Si       3.29390602      34.95619924      33.73810330
Si       1.03750454      35.89999001      37.63030697
Si      39.79447486      37.76879100      36.92906425
Si       4.03892642      36.60630019      35.24073365
Si       2.97818393      38.53960005      34.42417557
Si       0.18389377      37.96768674      34.61880572
Si      17.68151461      17.92164911      28.47496258
Si      17.17442804      20.09392173      31.43766297
Si      19.49285503      19.97127371      31.81210893
Si      16.70129410      19.95377898      29.13832716
Si      20.78807142      15.81586151      27.63479403
Si      23.83659979      19.71203039      30.32006990
Si      17.26123639      17.42600335      26.21484780
Si      20.02622668      17.81142571      28.61855126
Si      19.91157921      21.47443171      28.41555883
Si      21.00285281      19.61736912      27.47172795
Si      23.19826979      19.10369524      28.13996213
Si       1.11017826       7.85879123      28.53075159
Si       1.90588827       4.18397523      27.31529037
Si       5.34253519       7.04210178      27.99429427
Si       5.10061742       5.52513947      26.21403121
Si       5.83919720       3.31859073      26.55206047
Si       2.03784829       7.35636680      24.99148112
Si      38.57619888       6.14003640      26.24725298
Si      36.30256667       5.88373686      25.70232156
Si      39.84182425       6.78571540      24.37322219
Si       6.55539120       6.52588266      24.66225378
Si       2.89840607       5.21652264      25.45014591
Si       2.72229960       3.63158812      23.72191730
Si      12.17097039      31.05292065       8.39731534
Si      11.05253571      29.96722311       4.72763940
Si      10.99598425      33.56584277       5.69465316
Si      12.47232792      33.20101309       7.48858753
Si      14.70806424      33.55805263       6.85120144
Si      13.63962009      30.52009670      10.15507322
Si      15.83675567      31.17658840       9.63344750
Si      14.14267704      26.93614323       9.59563663
Si      11.85763683      28.21071801       3.38773245
Si      15.19103268      26.40750485       5.31007001
Si      12.69454047      29.90958944       6.41009489
Si      15.09774238      31.91059826       5.21998322
Si      14.97300676      29.65863161       5.88488906
Si      16.17496960      29.61795722       7.90554017
Si      27.82602803       5.61813384      10.69828680
Si      25.65728054       4.71940585       7.38673088
Si      30.83704969       8.01503488       9.96883855
Si      34.01752612       6.42134898       8.04777102
Si      31.41253514       6.94700107      11.98342745
Si      29.46164354       6.29263522       9.14909911
Si      33.07268222       5.30443889      11.70712538
Si      30.78637367       4.37047103       8.86495463
Si      34.87931147       5.78657647      10.28091727
Si      32.45411204       4.84331632       7.27578121
Si      33.73845987       2.90458449       6.92617169
Si      26.59927511       4.05683321       9.43698398
Si      27.81521968       2.04897292       9.56023198
Si      31.83473115       3.52604919      10.79324181
Si      29.76659311       3.34856187      11.89840269
Si      28.57950735       1.33197781      11.66506210
Si      26.38190917       0.46049581       8.58486069
Si      29.42957067       2.67197230       7.96799021
Si      32.47326046       1.07600612       6.16055115
Si      30.70471924       0.71866162       7.66866213
Si      31.72035301      39.94544401       9.64368540
Si      32.87617730      14.14442310      30.43315607
Si      36.82340153      10.96644263      30.09098705
Si      30.93599310      12.73708340      27.33159648
Si      29.65862006      11.37848006      24.07316550
Si      35.37797739       9.59145268      27.07939839
Si      31.50690842      11.34029518      25.52738149
Si      33.91907117       8.20734317      23.76020040
Si      33.53722156      11.83128319      24.44555978
Si      35.72153476       8.12275778      25.26867077
Si      31.00420063      14.91480917      26.44672770
Si      32.78934399      12.49129723      28.76056356
Si      34.80906094      13.19926738      27.78581731
Si      35.26211421      11.69441990      26.03697093
Si      35.10566455      15.45642538      27.19589973
Si      33.58261122      10.27223131      22.68617205
Si      13.98865871       2.02622648      13.12733798
Si      16.50265909       1.96874071      15.66504723
Si      17.50749470      39.19963431      12.25693216
Si      20.42735609       0.97948994      11.30597661
Si      19.09764360       0.64227109      13.21635713
Si      20.34924358      39.69994271      14.97035917
Si       1.92267025       1.48808293       8.95691659
Si       3.18446276       0.70986872      10.78179760
Si       2.16951506      38.98668959      12.01803339
Si       2.05953715      37.07186938      10.65752138
Si       0.08816381       1.71078485      14.08177791
Si       3.33742996      38.44991421      13.98713524
Si       3.39380524       0.22649321      15.52689450
Si       1.15272681       0.78833443      15.96487207
Si      37.71007572       4.56722492      11.45303142
Si      37.84620079       2.22152175      14.57489214
Si       0.01097342      39.61921599      12.70373023
Si      39.00647853      37.77521247      13.76247453
Si      25.27726325       1.07032365      17.49292165
Si      23.77765815       0.07592384      15.97894845
Si      22.71766051       2.01839015      15.18366574
Si      25.27419465       2.14672384      12.34518859
Si      22.48058140      -0.06572802      11.77853700
Si      21.37760616       1.16865217      13.44857081
Si      23.98356856       1.28695122      10.57797651
Si      22.48990712       3.15926255       9.73449312
Si      26.85124784       2.52817967      16.53039496
Si      25.61004066       4.30795495      15.62417565
Si      21.31490012       3.02749941      16.77836507
Si      24.27440052       5.22079249      17.33065029
Si      29.55687897       3.45652463      14.23816310
Si      26.91503256       3.71922093      11.74297025
Si      28.48006056       5.05148860      12.88565144
Si      25.54042881       5.97859825      10.27775812
Si      27.20216296       5.78294264      14.71935000
Si      26.25401817       7.66643631      13.67897017
Si      24.17476989       3.42213929      13.98605006
Si      21.44608663       4.49652524      11.36291690
Si      23.03237417       5.19684995      12.95050590
Si      21.96649283       6.50884798      14.58449008
Si      24.58727781       6.81767065      12.25539576
Si      23.22992262       8.49610505      11.32745188
Si      23.93318046       4.85546404       8.98018010
Si       7.04690157      15.02901337      14.05990263
Si      10.07923571      13.46619863      12.24284315
Si       5.56965756      13.91467838      12.61000250
Si       5.33145309      11.98318787      13.93033307
Si       9.25694931      14.26209132      14.29697105
Si       8.88862577      12.19406901      15.35365062
Si       7.52080727      12.41119330      17.25368717
Si       7.54978856      10.61198489      18.76740876
Si       8.64418183      12.33393435      10.76346996
Si       8.36594278      10.37212626      12.02973450
Si       6.87695256       9.06472481      10.76340330
Si      12.27875398      12.67517622      12.49559974
Si      10.96236729      11.16730276      15.77015268
Si      11.95052883      10.67826120      13.69312625
Si      10.45540130       9.37164234      12.43341606
Si       9.51179914       7.44100066      13.38870347
Si       7.39426520      10.86895593      14.11265995
Si       6.94996057       8.89952229      15.31841540
Si       9.00516298       7.80742456      15.65577154
Si       8.51604061       5.79299259      16.76631182
Si      22.30756429      16.11591201      29.40438214
Si      20.25611287      13.92619861      32.11170643
Si      23.95887730      16.80396612      30.93077622
Si      23.22316715      18.57858029      32.28716802
Si      21.15656203      16.61922077      34.57373371
Si      18.86862536      14.94528683      28.67800792
Si      17.66874043      15.71728620      33.54385429
Si      20.26873372      15.59287810      30.45287547
Si      20.97933906      18.29204683      32.93032796
Si      19.53962567      17.71202159      31.16352883
Si      17.35058719      17.44459268      31.97999973
Si      18.77240612      16.72240867      35.36098761
Si      20.97177010      17.30811482      10.25274895
Si      19.14089997      21.51395099       6.96379935
Si      23.12219894      20.14535889      11.85198296
Si      20.25471462      21.68427894       9.02669099
Si      20.74135793      23.98384178       9.02842105
Si      22.48738690      24.26294810      10.57861995
Si      22.71891849      26.60206715      10.65077703
Si      24.38683267      29.62104871      35.24550198
Si      26.07656202      28.20574675      36.06521606
Si      27.64006839      27.91745908      34.33240000
Si      29.63775118      30.49517006      36.44968659
Si      28.64369681      30.04396049      34.36670851
Si      29.57105447      29.44658819      30.95610433
Si      17.95817552      25.28088013      20.80691314
Si      14.67589390      26.63905927      22.41787570
Si      16.97447183      23.16007581      20.55246890
Si      17.51565621      22.16874939      22.73626935
Si      14.07276017      23.51910163      24.17608128
Si      13.48049725      17.81970179      22.58842912
Si      14.02485299      20.09825415      22.38317097
Si      16.37466616      20.12966198      22.47051231
Si      13.17568116      21.34524506      24.18709385
Si      16.85321243      18.79087187      24.34374361
Si      13.54364386      20.18830282      26.20116090
Si      12.70252099      17.99243455      26.16790322
Si      16.97072568      26.22426738      22.72173003
Si      13.33090962      24.44589425      26.20618218
Si      13.90200745      26.72719165      26.21697173
Si      16.38364162      23.22951286      24.50367456
Si      15.85891305      19.82246189      26.39104516
Si      16.92875316      22.38640706      26.62998824
Si      26.04737316       2.69287349      34.60094518
Si      29.55200001       1.28441973      37.20362376
Si      30.83189871       2.87453733      36.03517353
Si      26.93443527       4.09476172      36.42040011
Si      28.48665723       5.53978051      35.40405019
Si      29.27406467       6.61361439      37.34243079
Si      27.69604390       1.33149749      33.62364108
Si      29.27493682       2.82902456      32.74041550
Si      34.57598475       3.19079601      34.33962880
Si      27.55389014       6.85071918      33.68882953
Si      26.75446854       5.13577605      32.29145934
Si      30.17506953       4.32477022      34.30695581
Si      31.93748775       5.61444586      33.43940512
Si      30.96717786       7.11545482      31.90993380
Si      33.68553086      16.32842233      39.07175749
Si      33.28061711      16.32334427      36.75522755
Si      35.26832848      18.60116258       2.12517801
Si      32.92648838      18.79426142       2.03047845
Si      31.90361836      17.00680050       3.16585604
Si      32.94340030      18.46926225      39.70141976
Si      30.64009490      18.70383086      39.28884337
Si      23.14878711       5.78631777      28.91089428
Si      21.84949466       2.18488569      28.94179946
Si      24.93459179       3.10123177      30.99885434
Si      25.97869679       6.86698837      30.90063982
Si      25.73962279       0.89713632      31.16032788
Si      23.78121620       3.52349793      28.99549020
Si      24.95948344       3.09967395      27.00603244
Si      26.93640521       4.36647751      27.13552559
Si      25.60878959       0.83966603      27.02076434
Si      39.32771432       9.55941819      15.58282416
Si      -0.09116276       9.94226072      13.33687757
Si       2.18996970      12.90215516      14.50361572
Si       1.84333413       8.69504549      12.85795357
Si       2.68105027       8.88268929      10.67041900
Si      38.70392800      13.60555322      13.29492173
Si      38.19655988       9.16239331      11.92607612
Si      36.27402464      10.43435533      12.39134034
Si      38.86046520       9.39943315       9.68253809
Si      36.68305830      13.07063633      12.21723445
Si      37.95411133      13.24581823       9.58984590
Si       0.54704562      12.17812614      12.98447596
Si       1.51647050      12.36401260      10.84988599
Si      39.55975217      11.58270213       9.15821886
Si       0.86241823       8.21485404       9.33759075
Si      36.25556224      19.97728932      11.69807348
Si       0.21225610      21.79696796      11.15449045
Si      39.33435208      23.82366837      10.34695567
Si      37.14592558      21.45474748      13.29645094
Si      37.18754027      20.30448852       9.56388250
Si      35.87220992      19.00904300       8.10712244
Si      36.32090780      22.42423518       9.02903213
Si      36.32532344      21.36788769       5.32801744
Si      39.41362615      22.73810831       6.54924711
Si      37.09547730      22.96301161       6.87491691
Si      36.27205316      25.00205498       6.04141081
Si      33.82985819      22.55258001       8.98409229
Si      37.00561416      24.06374417      10.56968615
Si      36.41214701      26.27543223      10.03429110
Si       8.40435525      11.79796899      36.40202969
Si       9.66692365      13.13692409      34.93915863
Si      11.36176076      12.06028779      33.71544056
Si      10.87551386       8.99907538      36.21711911
Si      10.34695094      10.86567199      31.96251017
Si       8.87915501       9.24397927      32.82584651
Si      10.10245335       7.87884560      34.29933340
Si      12.29459147      10.67014318      35.36671905
Si       0.54999762       5.26685661       9.37527602
Si       4.70705885       7.02235905      10.21486356
Si       5.13781141       6.20168695      12.37621530
Si       2.49582826       3.94652785       9.40730420
Si       2.65549726       3.09873430      11.59508176
Si       4.77510807       2.10321887      11.80816508
Si       7.31233549       4.08028012      14.51403679
Si       4.88676436       1.02679018      13.89593716
Si       0.92459421       6.74107813      11.16841993
Si       1.37781042       6.24609747      13.42172561
Si      37.44689456       6.32788604      13.75803068
Si       1.58249597       7.91923324      15.06094463
Si      39.39071658       5.00899624      13.64691654
Si      39.73130355       4.37978105      15.88713659
Si       3.26017139       4.91321638      12.96360323
Si       5.54876944       2.76158279      15.33870620
Si       3.58860067       4.29616294      15.20947672
Si       3.92374911       6.02287343      16.77053247
Si       1.68850850       3.07586449      15.86458442
Si      24.14572399      16.90980329      39.89041817
Si      25.46651391      18.19920046      38.43279574
Si      22.83709913      17.81508251      35.70347780
Si      24.05050408      19.37972760      36.97241155
Si      24.21852766      16.28530127      34.57151324
Si      25.37687223      20.76345949      35.60981021
Si      25.41209813      17.80033499      33.22583660
Si      26.56145814      19.67120209      39.90445558
Si      26.88823575      16.82498520      37.15862621
Si      26.77187259      19.37303373      34.32490619
Si      28.20615232      18.14596150      35.72728093
Si      29.80826380      16.53024967      35.13470646
Si      29.10772053      15.48065314      15.29950274
Si      31.16864077      15.49240432      18.43603083
Si      30.42368737      17.32539275      14.67043134
Si      32.62582091      15.80483813      13.35867316
Si      32.49979938      17.26214230      17.64463720
Si      29.94620606      11.26372205      19.28625958
Si      30.72201664      12.54122130      21.10190544
Si      31.75275249      10.15141505      18.27177292
Si      32.26558035      14.18587802      20.05468424
Si      30.26890389      14.07753157      16.78721757
Si      32.13891951      13.04323695      15.80578572
Si      33.70916016      14.64106068      15.09096441
Si      33.28871958      11.65243088      17.31368868
Si      32.58348589       9.11600243      20.21289276
Si      31.10357243       8.94730121      16.35901911
Si      32.81681340       7.51910604      15.61398997
Si      21.20721388      39.75298490      38.83879161
Si      19.61291467      35.01537100      38.68467114
Si      21.52990365      38.53181638       0.82225191
Si      22.53174512      36.45345504       0.36742097
Si      21.89698418      36.79906511      36.45477334
Si      20.15741774      31.60308856      36.53630707
Si      23.40063062       0.56827514      38.60528872
Si      24.75703494      37.05019002      -0.10419740
Si      24.82090460      38.72803681      38.24922509
Si      24.12075187      37.55481764      36.33511067
Si      21.90710698      35.41184664      38.35368320
Si      23.30278191      33.55659650      37.97890980
Si      22.22876321      32.62781973      36.10785283
Si      25.30353098      34.79770242      37.91944817
Si      34.40661545      20.20109553       6.38052129
Si      33.37462025      18.11335701       6.70730542
Si      31.16655043      18.48457170       7.42638553
Si      34.70144889      18.26698539      10.35040997
Si      32.41525037      18.61973055      10.77451926
Si      31.06919328      19.88109152       9.31601003
Si      31.36394210      16.53309368      11.04243221
Si      29.95357761      15.10965311       5.82697164
Si      28.83325835      16.29325977       4.13158350
Si      26.85829612      13.40793532       6.88967209
Si      30.08967213      16.29069084       7.85602522
Si      27.87142788      18.09014682      10.50788782
Si      27.90035453      16.70176194       8.60996903
Si      26.93054876      17.84621773       6.79882595
Si      26.76958831      14.65749376       8.87999498
Si      25.72564255      14.67583347       5.26485773
Si      37.82829033       6.40475836       5.39952554
Si      36.73234957       8.28010720       4.49814107
Si      34.18869561       8.69329469       1.57921534
Si      39.14963248       6.32892740      38.61267833
Si      37.73459786       7.55095533       0.24669609
Si      36.71053520       9.28672308      39.03481631
Si      36.64319643      11.11778717       2.26333175
Si      35.26806733      10.46431881       0.47107150
Si       9.99390613      23.20122711      38.04132234
Si       9.29242209      23.03711037       1.68553821
Si      12.62766245      24.65961971       0.86609310
Si      10.46989861      25.07268864       1.70511120
Si       9.87824773      26.89049737      38.13122424
Si       9.65979208      27.27104328       1.90837097
Si       8.00477455      25.45512961      35.70974730
Si       8.26167474      23.44931617      39.61237174
Si       8.38728150      27.10048118      39.93797807
Si       6.88349437      25.35051191      39.48483734
Si       6.24150987      25.68940792      37.24805437
Si       9.76116809      33.69244405      28.10857447
Si      10.57611978      33.78214129      25.90446340
Si       9.00534462      32.86190818      24.41547463
Si      11.92735302      32.80822564      21.85591734
Si      13.05981918      30.88188514      25.95660037
Si       9.20129066      30.54476221      24.76727615
Si       6.73620262      33.46907480      24.53578949
Si       6.41006907      35.73661772      24.00449070
Si       7.22155324      36.15729590      21.83778299
Si       9.67406032      33.37452096      22.21982853
Si       8.49087014      32.15756806      20.59205650
Si       6.98235689      -0.29012809      37.96573406
Si       3.44116915       0.11321044      36.86509356
Si       2.99517094       3.72341957      38.10384553
Si       1.29858929      39.45635243      37.57868841
Si       0.41219214       0.87429134      39.23237322
Si      39.70661338      39.88103438      35.90091138
Si       0.83013872       3.15203993      38.82283177
Si      39.25223554       3.89606261      37.24577237
Si       3.18047846       6.05624223      37.87441857
Si       1.77661388       6.26611455      35.99980115
Si       3.81076727       2.37905979      36.35475385
Si       2.37873380       2.82017662      34.54208690
Si       0.17774667       2.82001683      35.37090992
Si       2.78197499       5.03254637      33.85616691
Si      39.45490434       6.03910696      36.29883484
Si      34.90981021       2.45176692      36.54673380
Si      32.14669572      39.82883819      37.04926426
Si      36.24252301       1.14798726      37.97962651
Si      36.08303787       1.95279991       0.18348547
Si      33.35843841      38.56926380      38.62244556
Si      33.27956900      39.26093766       0.86875840
Si      37.23445745      38.59176284       1.23715432
Si      37.69885753       0.88028028       1.51353395
Si      35.06203076      38.35391667       2.10427380
Si      37.28950140       1.40127747       3.76989460
Si      34.31799763      39.01330636       4.23499080
Si      32.69267016       2.10788825      37.24877284
Si      32.34392487       3.02574797      39.63938255
Si      36.58523968       4.24830621       0.27685063
Si      36.15440636       4.78587831       2.52532152
Si      31.10144709      38.74616455       1.58880819
Si      33.91083735       1.52388005       0.97607862
Si      35.10555661       1.19582157       4.61752233
Si      33.45306395       2.10021252       3.20972573
Si      34.02433995       4.37078466       3.43121913
Si      37.71617503       3.97323199       4.08418760
Si      37.97261527       4.62889051      17.42839898
Si      37.37571730       1.97716775      20.05800509
Si      35.22330701       5.32446935      19.76015725
Si      36.81886471       8.61170140      20.77086442
Si      34.46197044       4.66416132      21.88450266
Si      37.33585833       4.29572210      19.66748690
Si      35.89610535       5.76427724      23.38914959
Si      38.76370515       5.37527305      21.19237932
Si      36.12175111       8.06372249      22.94995944
Si       1.48976390       4.65100733      18.75181725
Si      38.29315568       6.92413899      17.02910933
Si      38.97661216       7.67674802      20.75972542
Si       2.14977811       6.90265580      18.59502310
Si      39.42217428       0.81883043      20.05131585
Si       1.05840757       1.96594316      21.29123710
Si      38.10741724       4.96386670      23.41271598
Si       0.83722519       4.28652088      20.98151474
Si       2.39226817       5.46847551      22.29108269
Si      21.73417440      29.40896829      35.23420119
Si      21.59500287      28.43539312      31.23376697
Si      21.61544126      27.14671091      35.86546116
Si      20.73814801      25.87945738      34.08935582
Si      22.73125796      22.70829313      34.46885116
Si      22.46046820      22.07389935      30.60150992
Si      20.53902034      23.55069468      34.34805319
Si      19.51026162      22.10002141      32.80985907
Si      18.46141026      29.10966383      33.26193940
Si      18.60369749      26.83553548      33.84378611
Si      21.48024220      26.17655948      31.87775567
Si      21.16713391      25.43912258      28.22355015
Si      20.03722270      25.23704070      30.27609036
Si      20.28294021      22.94825243      30.75716209
Si      17.79943183      25.95829791      30.22561356
Si      20.10302603      35.15131273       3.67381430
Si      19.41626987      37.67963122       0.24423206
Si      17.76714468      36.62991955      38.93860166
Si      18.21684220      36.51574745       3.34218669
Si      16.49876921      35.24515331       2.35932946
Si      14.42617691      36.33232525       2.12040908
Si      18.74133877      33.38380220       0.13649344
Si      16.02623408      33.26453122       3.53630116
Si      16.85568701      34.78712576       0.08035059
Si      15.15354935      31.81978021       0.11252468
Si      12.34296162      26.25950911       4.60592301
Si      12.05429510      26.21388386       6.93877828
Si       8.39494128      26.94053307       6.43914539
Si       6.86471636      28.69288704       6.78277280
Si      11.26323252      24.12832506       7.68287856
Si      11.14311090      24.83708710      10.06951532
Si      10.44399107      27.92451981       7.04199935
Si      12.10468329      28.78285264      10.55059866
Si      10.15719371      28.22400377       9.35665297
Si       9.28369631      26.25751408      10.30575464
Si       9.43620043       2.24964804      30.32170827
Si      11.46359965       1.96329864      29.16735519
Si      10.78901847      35.29540534      30.15354758
Si       9.76156951      39.17213340      32.46122738
Si      11.86108861      38.80027247      31.46948088
Si      10.27370050      37.96264890      28.13909570
Si      11.06023796       0.14158780      27.73725298
Si      11.93144324      37.29236550      29.66640827
Si      10.73204207       2.62502788      33.48526995
Si      12.77719854       2.47524092      32.33417345
Si      12.34521570       3.94392737      28.26010542
Si      12.49563383       5.25005242      30.20895174
Si      13.23809494      38.00897783      33.20369646
Si      12.82555681       0.79713179      30.68783537
Si      15.08487248       0.41079063      30.16383562
Si      21.29392325      32.98789626      27.41764672
Si      21.43588407      31.04852063      28.74017159
Si      18.28693710      32.86602292      30.48981976
Si      17.87091472      30.52492476      27.64801970
Si      16.90135613      31.13731303      29.70113837
Si      16.61257409      29.32957669      31.17721656
Si      21.88805000      33.52191331      31.82624005
Si      17.58452520      33.63519828      32.59821104
Si      17.36619298      31.78357750      34.03141464
Si      20.36592990      31.78716561      30.69970658
Si      20.38319339      30.11280878      32.35081517
Si      19.50935075      30.88543472      34.39276049
Si      16.27379238      38.41003677      38.57779334
Si      16.14956917      34.57363812      35.41918902
Si      17.82008307      31.47306047      36.31780076
Si      12.65218446      37.54304790      36.33474493
Si      10.46994301      38.41899382      36.36890416
Si      12.72634605      35.48759450      37.47499724
Si       9.70805918      38.53177253      38.59087793
Si      12.90152443      38.99424467       0.14851686
Si      12.64775034      36.70715220       0.63221692
Si      15.04320688      33.51285684      33.63562901
Si      12.77210456      34.12312426      33.62689201
Si      11.61748349      34.53212942      35.63444600
Si      14.96979532      34.78330357      37.44265113
Si      14.77479895      32.48302154      37.88926449
Si      13.67864227      31.20647191      36.24718136
Si      16.42880289       4.55315307       8.52334144
Si      16.39022137       2.76808790       4.92371787
Si      18.46048572       5.36394756       7.66058361
Si      18.90072554       5.78542662       5.38909579
Si      20.07087873       4.00045879       8.69685836
Si      18.47999332       3.70194466       4.38550641
Si      19.76060659       1.93445134       5.25923932
Si      15.94370104       2.65044900       7.22950216
Si      17.43349838       1.09634347       8.17580497
Si      19.64185874       1.84265233       7.86531257
Si      17.91318301      22.86726122      13.47571188
Si      14.48669513      20.29422074      12.50228269
Si      16.46626827      20.48362653      11.24738064
Si      15.42063092      16.39998402      13.05554470
Si      17.35785214      16.71231078      11.75928032
Si      16.88623348      18.41613659      10.20792566
Si      18.58039643      21.10807683      12.06488952
Si      16.30368356      29.26991492      26.42357331
Si      19.05980849      27.05233404      23.41482246
Si      18.36311749      26.18046944      25.48509774
Si      16.24458265      26.93181697      26.17729204
Si      15.74159869      25.98171750      28.26893732
Si      20.91124479      23.98557334      22.44726384
Si      20.44213274      23.09147409      24.57083568
Si      20.33934821      20.75385764      24.33882545
Si      19.90539157      27.03384898      27.04221400
Si      21.69306839      23.00208372      28.26379951
Si      18.41867120      23.82896186      25.51966029
Si      17.99111228      20.37206433      27.21689967
Si      19.07475821      23.62734047      28.85730171
Si      36.80022601      26.53587617      16.39113396
Si       0.24669085      24.45196887      14.07638050
Si      38.22366028      25.12990586      13.08787095
Si       1.16855855      27.89928132      15.48962467
Si      39.32605404      28.61885151      14.21823227
Si      36.10610568      28.42396051      17.60928519
Si      34.23700469      29.37209229      16.54258883
Si      36.69965857      31.29680204      13.87187074
Si      39.77103128      29.40235922      12.04597997
Si      37.30838529      27.01976818      14.14657378
Si      35.37886721      27.95115586      13.17697898
Si      34.84776462      29.92498248      14.33991551
Si      36.13745601      28.65720258      11.06593525
Si      34.82257761      38.24958164       6.40072316
Si      32.92100431      34.13241148       7.12094251
Si      35.26189619      34.20575374       6.90802268
Si      29.11058538       2.08861651      17.89405591
Si      27.96790255      39.31993054      20.20703172
Si      31.13900467       0.92087229      17.66549567
Si      30.90744192      39.54363162      15.77340876
Si      27.42948919       0.47972411      18.23360224
Si      27.21630860      38.98301275      16.43236429
Si      28.14363516       1.57761711      14.17989807
Si      26.39346947       0.03955806      14.49924698
Si      26.56598190      38.81690372      12.49779716
Si      30.03169014      38.37163417      19.59933881
Si      29.87054831      36.66262962      17.99265648
Si      28.49267369      33.79636718      20.32418455
Si      33.49727929      37.49287155      17.26135925
Si      31.61153432      34.15640220      15.87383751
Si      25.41870237      37.46957068      16.52383095
Si      26.17823399      36.19175524      18.34605151
Si      28.21942105      35.02451240      18.33755924
Si      27.94757233      33.58469121      16.49807062
Si      29.26645244      37.88688895      16.07791146
Si      28.62463925      37.70106362      12.28008454
Si      29.12664928      36.45997689      14.21369907
Si      31.20097468      35.39243390      13.91572792
Si      27.37075728      34.96706784      14.68443902
Si      30.01436682      32.48157348      16.29159986
Si      13.39998864      36.24804849      20.94960108
Si      17.03179596      35.84504174      21.32978713
Si       8.11665732      37.28361184      24.47780650
Si      14.99448403      34.97276262      22.11646018
Si      14.75056083      32.63775350      21.98017043
Si      15.28960216      35.49373741      24.39062158
Si      13.09755872      33.09973992      25.17649396
Si      11.43823396      35.57984499      22.06108731
Si      11.71285964      38.60051063      24.19105841
Si      11.51344841      36.26038548      24.31085216
Si       9.61979922      35.91690733      25.66229803
Si      13.27896520      35.40431387      25.60701925
Si      32.78467988       8.62354805      12.89823366
Si      31.40822989      10.16003077      11.76903333
Si      28.90548442       9.41855880      14.60549541
Si      27.85790882       9.03684633       7.97359146
Si      29.21357618       9.48324144      12.27495588
Si      25.47392793       8.29755600      10.65502851
Si      27.78216446      11.09018079      11.32655895
Si      25.58365596       8.54708075       8.31861990
Si      31.86637430      12.21273278      12.82116891
Si      30.42171720      13.71106020      11.72643215
Si      28.03430625      11.15072027       8.98915370
Si      25.56312593      10.40424296      11.69571405
Si      25.12103162      10.76310713      13.97672280
Si      24.16249391      12.02642177      10.72673557
Si      24.06731977      13.97815348      14.08739535
Si      30.30838773      15.70211641      12.97273154
Si      28.16978637      13.23529975      12.20911082
Si      26.68563248      14.77290076      11.22741206
Si      24.50008693      14.10230668      11.77916139
Si      27.14574162      16.79688104      12.33306382
Si      22.98008875      15.67666504      10.91798408
Si      24.40130280      12.57349425       8.45159345
Si      12.45972452      33.95615339      31.12632822
Si       9.38905999      32.20738388      29.89349502
Si      12.77173219      31.44317035      28.22276686
Si      10.36979996      33.13116601      31.82033679
Si      10.94350855      31.37930952      33.27984738
Si      13.79947597      32.27649040      30.16829514
Si      14.25806807      30.51761802      31.66118958
Si      11.76066809      32.20573923      35.32380041
Si      15.11432717      31.16519894      33.75364788
Si      11.54424158      30.39527201      36.80859725
Si      10.82657522      30.50134516      29.15023660
Si      10.85465035      28.57570958      30.49939178
Si       8.91770753      30.29801533      33.78534380
Si       7.66258271      29.62486922      31.91407783
Si       8.86333967      28.65085345      35.46275268
Si       8.73476756      27.71896368      31.04921151
Si      14.34302217      29.80538087      27.60657649
Si      14.66085041      27.93820618      29.00003567
Si      12.48048112      27.11426168      29.31171084
Si      12.11403616      29.68312318      32.14776196
Si      12.88004737      28.67168716      35.92863469
Si      12.09673763      28.01947428      33.80955095
Si      10.16189425      26.91164222      34.55724446
Si      15.80182555      16.06778266      29.99757321
Si      15.37028682      16.03463152      33.92598447
Si      12.50984053      15.92063863      31.73198751
Si      17.06978121      13.11639103      31.87817678
Si      13.64140362      15.15640047      29.81716389
Si      13.66644921      12.80487927      29.79682985
Si      15.25126935      12.55330652      28.07766212
Si      15.43017849      10.25578438      27.60929169
Si      13.38123162      14.81961562      33.61626260
Si      13.62153911      12.50923110      33.24430090
Si      15.06851298      11.94800735      31.47911305
Si       1.89786511      28.45461568       4.40319560
Si       1.50313262      32.23517334       4.53716033
Si       5.09841998      28.80115107       2.56632823
Si       1.60092049      26.43858158       3.22936822
Si       2.60941745      26.82348925       0.88146101
Si       0.69944818      34.09422064       3.34191622
Si       1.07819022      30.39442886       3.13662265
Si       2.23232491      30.62634835       1.10078519
Si      20.31346687      13.43117388      24.64862010
Si      18.09844012      11.00905620      26.35755171
Si      17.51466872      10.67222731      28.61035800
Si      19.21364423      13.02122200      26.84532775
Si      17.33887613      14.43584778      26.96615551
Si      17.59027967      18.76081556      15.33159349
Si      21.03738170      19.99612636      15.26609423
Si      18.32878518      16.63798387      14.64093394
Si      22.02737970      17.65209194      12.32597513
Si      18.94112106      20.36398031      14.26616774
Si      32.64201278      14.38647202      23.44432791
Si      31.68666363      17.65006037      25.60903946
Si      31.67063825      15.70012790      21.75284755
Si      31.45216508      18.01537326      22.10337703
Si      34.90576036      14.98348806      23.22219922
Si      30.26964754      18.66408524      24.02991712
Si      29.72651676      21.21035682      26.16766940
Si      30.77138516      20.96115490      24.07561322
Si       3.96831656      18.81133771      30.67601993
Si       4.26395745      17.50822701      32.61104459
Si       2.22426461      17.36163979      33.77142767
Si       7.46162904      20.11099606      31.19669971
Si       7.58537689      19.15687798      33.34261442
Si       5.22298046      14.59841079      34.41523128
Si       8.78028547      16.09672559      35.31761431
Si       5.42017713      18.80958319      34.19209548
Si       5.45582504      17.72372232      36.27772308
Si       6.57411463      15.67218200      36.01226732
Si       7.35077298      26.20627593      25.38103246
Si       8.86357378      25.05520205      28.79258869
Si       6.39248823      28.02379513      29.02711962
Si       9.51181807      23.37006587      25.19382832
Si       8.01927904      24.38085951      26.70401949
Si       6.21618408      22.90270678      27.00995607
Si       5.53985302      22.39479890      24.81568334
Si       3.80703221      20.81164223      24.96207248
Si       7.13043389      26.03570718      30.04375375
Si       5.42300397      24.45781164      30.39783675
Si       7.15662275      21.04242197      28.09858877
Si       4.54150570      23.96452995      28.27413468
Si      31.53498182      24.22063285      13.11850630
Si      35.25572902      23.20609988      12.66681041
Si      32.53923961      21.37895148      10.78577305
Si      30.76912295      23.37376199      11.06265357
Si      31.71491274      24.42348200       9.18284204
Si      34.38688354      26.18881147      14.86099356
Si      30.11362903      26.09068118      13.23283190
Si      30.53649523      27.22010143      15.41594077
Si      30.30790190      27.55054041      11.39938972
Si      32.78507336      27.87584145      15.20534667
Si      32.76091962      29.38344108      13.40063321
Si      33.74957491      24.99141559      12.93992050
Si      33.89323198      25.30949121       9.17282701
Si      33.98489756      26.53261697      11.17930801
Si      28.64189627      30.14336084      15.45406548
Si      30.09956247      30.65998100      19.77089105
Si      28.22453452      29.33223792      19.26894706
Si      26.39949431      32.35372677      17.77066804
Si      28.41850930      28.46886772      17.09009227
Si      26.66644232      26.96451877      16.64558117
Si      26.69014079      31.44451427      15.62144688
Si      24.77930351      30.18272845      15.08577350
Si      29.03764952      29.19176487      13.34024885
Si      27.24559791      27.76051570      12.82018585
Si      27.09438362      26.11602385      14.49446046
Si      25.25761510      28.97992263      13.12239095
Si      23.31099385      27.76540582      12.60682186
Si      26.26853492      30.63393914      19.36936616
Si      24.65384245      29.11585429      18.58304694
Si      28.31473338      27.31440130      20.47338167
Si      24.29189528      27.70305130      20.42786520
Si      21.13088991      29.94392014      14.55028123
Si      24.70311426      28.23601195      16.40285729
Si      22.85500472      26.79414216      16.21383708
Si      20.96931617      28.19588179      16.11499676
Si      21.34713969      29.04074033      12.38971208
Si      25.92666622       2.14176375      25.08894251
Si      28.25220549       1.46613172      22.18944176
Si      27.82358575       2.95215387      23.96046813
Si      30.92567305       6.06373174      23.69206737
Si      27.29739566       5.12953341      23.24511427
Si      26.68380929       1.56855391      20.43945801
Si      26.00897238       3.75104852      19.88251768
Si      29.18490804       5.95948726      22.11435154
Si      29.77758905       4.52087410      20.35100390
Si      28.80355180       8.11769336      21.26172987
Si      31.63026151       5.42454449      19.21901990
Si      28.05661726       4.14127809      18.79394967
Si      27.84872846       6.38782680      18.13144727
Si      32.82543490       6.61414014      22.41989743
Si      25.49479957       5.10512319      21.73509672
Si      25.12507944       7.29272312      20.95536060
Si      27.03345219       7.90967019      19.72764544
Si      28.21265044       9.94322275      22.89801925
Si      28.95093156      13.30446366      25.22308725
Si      28.72817112      15.44174656      26.17951462
Si      27.67847611      15.51853920      28.28264512
Si      29.32279024      11.30199296      26.39903785
Si      28.17971482      11.37783553      28.45262081
Si      28.35715173      13.54050564      29.35800918
Si      12.24498843       2.45570562       6.80540680
Si      13.13486702       2.14205579      10.34396251
Si      11.15516164      39.17266582       8.35964408
Si      12.04076029       0.14555221       6.40887880
Si      12.87369558      39.86700154       9.81121178
Si      12.88082179       3.54317095       4.39945940
Si      13.91523177       3.08647659       8.33661354
Si      15.18209466      25.15577848       0.64888706
Si      18.78825638      25.39453194       3.47282957
Si      19.93995225      23.34503857       3.47201050
Si      17.46204901      25.33720779      40.09738009
Si      18.63442985      23.34145254      39.68505235
Si      20.84962344      23.54033485      38.92265828
Si      22.83830967      21.37468277       2.19716762
Si      21.81696025      21.41144830      38.67418875
Si      15.53807159      23.65337521       2.42301049
Si      16.65676366      21.58677148       2.43158174
Si      16.32199266      20.57122004       4.52393159
Si      17.37991451      22.02471685      38.19548837
Si      18.35827366      19.89987946      37.95303796
Si      15.21518594      20.41918447       0.99039627
Si      16.21764202      18.30743801       0.73469090
Si      18.81207389      22.22050833       1.74329581
Si      21.88290174      19.99485360       0.54995256
Si      19.68758110      20.06871192       1.38741949
Si      18.53743191      18.63101157      39.92469719
Si      20.56935575      20.09554726      37.17688184
Si      21.08516567      17.96955712      23.29210120
Si      22.98740571      19.17482097      22.61892370
Si      24.33176275      17.93788923      21.13968340
Si      19.77661249      17.35204870      21.43877186
Si      21.14016853      16.07522605      20.01048226
Si      26.43407779      14.47199980      21.00702892
Si      21.82944853      14.25150542      21.32486578
Si      23.01949606      17.29548924      19.29735089
Si      24.53602187      16.21523292      17.86099256
Si      24.75964896      14.41427396      19.35642838
Si      23.30846014      15.22395826      16.11721772
Si      12.08596547      10.71694373      23.12799975
Si      12.36998121       7.15830842      24.32205415
Si      14.43901213       7.89089162      25.16912465
Si      13.73509677      11.98244340      26.37279972
Si      14.65901728       8.03697181      27.50677936
Si       9.44216455       7.75223350      23.63979127
Si      11.78553121       5.22082819      25.52081898
Si      11.11043238       9.13036014      24.56643882
Si      13.09671783      10.01780200      27.49874166
Si      10.87932858       9.58969988      26.86460607
Si      12.26496014      13.81715176      26.30464940
Si       2.13178877      16.33625343      38.10496776
Si      39.96691725      18.77898883       1.39122125
Si      39.83811824      19.59864573       3.59168107
Si       2.08677383      19.49592868       0.35547260
Si       0.86396732      21.71668033      37.41764312
Si       0.81452993      22.81758157      39.49508972
Si       2.73179649      21.75732289       0.34968090
Si       3.61560710      15.25994609      39.57462857
Si       3.50976489      16.08065882       1.77496523
Si       3.90192443      18.39536970       1.64022771
Si       2.25547603      18.68198290      38.15617000
Si       4.39824958      19.41396038      37.52449799
Si      21.62590333      12.83622161      33.90462192
Si      22.86006860      12.56011019      30.24249656
Si      23.87930532      15.11210706      32.56194019
Si      23.51432264      14.04199563      34.62301748
Si      24.82043538      13.58103007      31.04556906
Si      19.95064176      10.28879768      31.56673150
Si      21.08281517      11.48612879      35.75224733
Si      20.43780104       8.91084061      29.72527346
Si      21.96260639      11.39426168      32.07720635
Si      25.80661767      10.95868298      33.21363699
Si      23.79449308       9.97877814      32.49133487
Si      22.69651193       8.80365801      34.20707182
Si      24.16945785       8.36762684      30.81965925
Si      -0.10075066      17.49800307      33.45305020
Si       0.03024618      17.09461650      38.82678925
Si      38.54562525      15.94100291      34.57532081
Si      37.53863170      17.52739412      35.98496090
Si      37.28983381      14.40184969      38.23100024
Si      38.61797330      15.50316529      39.82337721
Si       0.53678875      19.77957865      36.12513579
Si      38.95251381      18.67711862      37.46718113
Si      37.69991614      19.77350926      39.12913248
Si      39.18299545      20.85104446       0.60222908
Si      39.30408636      24.02486939      38.15663232
Si      25.70052319      13.55486007      16.25388575
Si      28.38160145      12.86666022      20.00227295
Si      26.06947673      12.50591006      19.76985315
Si      25.03293084      11.87312230      17.75601569
Si      28.05110829      13.57636396      16.18715025
Si      28.91776570      11.41713197      15.84487704
Si      28.11256458      10.03175764      17.56616715
Si      29.01871924       7.98066625      16.85749884
Si      25.34148872       8.93329395      15.43680010
Si      20.61598256      26.24517714       9.66081633
Si      17.09951310      27.93275576      10.82560920
Si      20.25397136      24.55499099      11.25594287
Si      18.83084107      22.84291599      10.49703683
Si      18.46640405      27.03940924       9.13334451
Si      17.39713881      25.42561488       7.79779916
Si      18.66915651      24.27899207       6.18542762
Si      16.75893110      26.14942158      12.32033099
Si      15.61310525      24.37483150      11.28661169
Si      15.15105068      26.10503673       7.64077601
Si      13.99354708      24.61179201       6.23953097
Si      13.43719145      24.92057563      10.58058620
Si      12.57125149      23.11196745       9.35204600
Si      16.96023720      23.80485410       9.44509028
Si      16.81861111      21.24017078       6.72116445
Si      15.58195482      22.14971376       8.50207918
Si      15.36478421      19.93036860       9.24605417
Si      13.59658379      22.55683507       7.30999844
Si      11.49132657       6.09586843      32.98835602
Si      12.44982989       4.16763376      33.93349712
Si      15.11141220       5.38101794      36.04314192
Si      11.31729810       3.12025997      35.70834070
Si      15.90719507       4.70055902      31.96717267
Si      14.79861228       4.26763593      33.99549442
Si       2.91550745      30.02398157      17.34858431
Si       6.62482729      30.77125867      17.82274065
Si       5.18842862      27.78964418      19.40438202
Si       6.18153073      30.80845363      21.84422210
Si       8.37078684      32.28850075      18.24707576
Si       5.21187691      26.27363475      21.20201676
Si       6.07185278      29.22989130      23.58403788
Si       6.60568447      29.60834153      19.86669768
Si      29.66916648      28.64599575       5.35475311
Si      32.36038660      29.69112393       2.64062009
Si      30.59454157      26.59187778       4.68255843
Si      30.81474397      32.66733673       5.87885564
Si      29.55651167      31.92981651       4.03410999
Si      32.53041906      31.20874966       0.85226099
Si      30.13162468      33.31905920       2.22606508
Si      28.56153317      32.77347239       0.55700026
Si      30.11315120      29.75621235       3.33013162
Si      28.95475748      37.05027313       7.93802675
Si      31.86507877      38.00263099       4.77728759
Si      29.85377480      36.93950575       4.18139339
Si      29.45294529      34.78281644       7.56343897
Si      29.85237466      34.58759922       4.19258323
Si      27.89875404       0.03278999       5.89115276
Si      27.35846220      37.47432473       9.61195726
Si      25.37868605      36.34494582       9.03283766
Si      29.08638150      37.63456889       2.06994745
Si      27.03069343      36.59069369       1.60861033
Si      28.23561286      37.58083112       5.76278907
Si      26.16848850      34.35024136       5.61333268
Si      26.13570570      36.66929536       5.22434561
Si      24.68051434      15.16034442       1.36756908
Si      26.91604366      14.44878366       1.53677759
Si      26.66180130      12.11217890       1.61636463
Si      25.93660261      11.99566006      37.75829286
Si      28.13291777      11.15718733      37.81549539
Si      23.33589503      14.73912521      39.48285411
Si      21.28377050      15.85442707      39.75944115
Si      23.07069526      12.43586492      39.87655332
Si      23.46553150      14.60073051       3.72791530
Si      25.42720000      11.43472322       3.70998890
Si      24.94016467      11.21100446      35.77794245
Si      24.95256923       8.87403292      36.04034724
Si      22.13753291      11.71478279      37.84169535
Si      21.60107915       9.46136522      38.24238351
Si      25.19265596      11.42272662      39.91436521
Si      23.61490268       8.30011957      37.88740192
Si      27.83333986       8.43829093      36.98806743
Si      24.60846977       6.20600454      37.49009951
Si      25.75030553       8.77239294       3.23909796
Si      28.69087894      10.43048787       0.93654707
Si      23.35431938       5.17858997       0.16297022
Si      25.39949730       8.88391614       0.91663280
Si      26.85583988       6.59086504      38.06573518
Si      26.53183746       6.89519761       0.37523650
Si      28.76540162       6.52543012       1.01192242
Si      25.41469268       5.03732887       1.28748695
Si      23.16613997       4.40633511      37.94966234
Si       1.55729434      39.91611472       4.15492853
Si       3.14757471      39.41844170       0.66973545
Si       0.57490734       2.28184580       1.10917818
Si       6.08459114      38.67478845       6.37814546
Si       3.51296124      39.32382429       2.99092278
Si       5.11881904       0.94656202       3.55499321
Si      39.35659619       2.49713165       4.89661626
Si       1.22159546       4.11605304       7.43786304
Si       1.11689828       2.09574716       3.38986118
Si       2.62099360       3.74814045       4.12263139
Si       0.09293776       6.18526745       4.39972219
Si       3.46222002       1.23123185       6.85914625
Si       5.56833805       0.91060121       5.86318261
Si       3.23658306       3.52265701       6.38087708
Si       0.38094750       6.27388992       7.02801483
Si       2.52251806       1.58197980      39.99222384
Si       4.39005903       2.92374632       0.48693740
Si       7.00217316      -0.05621029       2.56974473
Si       6.79155671       0.23510739       0.24743847
Si      39.79281064       4.41767314       0.51184361
Si       2.18039749       5.92448815       3.34872784
Si       1.67455852       6.01239962       1.05396253
Si       3.82542063       7.49333829       3.95081798
Si       3.52738882       5.05068152      39.97160860
Si       4.60066920       3.16948205       2.99293033
Si       6.88610539       4.18815803       5.49280421
Si       6.41189466       4.64910782       3.23608253
Si       5.72538246       6.84017103       2.72853581
Si       4.18500856       7.16628322       6.25172967
Si      37.05348691       8.68018418      30.59152747
Si      33.41135800       9.51215283      30.82160623
Si      34.22872513      11.97795118      33.73644481
Si      33.66116494       9.77182348      33.14833086
Si      31.70797871       9.21489424      34.33510530
Si      31.21442526      10.48803105      27.95816638
Si      30.45465141       7.79763676      25.20931443
Si      34.54588666       7.39779833      27.17167166
Si      32.92864711       7.21694380      30.61530107
Si      32.61214142       6.73862377      28.33464528
Si      30.98870215       8.20015163      27.46382482
Si      29.27333959       7.16073210      28.69156665
Si      31.45287994      10.70078797      30.28809978
Si      29.59480548       9.89448765      33.55810846
Si      29.38760222      10.07371888      31.22237850
Si      28.93456734       7.78392603      30.93370337
Si       5.34783925       1.20623397      17.86591116
Si       0.99971967       0.89554358      18.30904897
Si       3.76956621       2.64052345      16.87112283
Si       3.80657661       4.38205617      18.45114756
Si       7.46918192       2.14501133      17.47945418
Si       7.20188141       3.65279343      19.57279575
Si       5.88423025       5.43277101      18.78215486
Si       5.54286135       7.08511970      20.41997920
Si       2.87696069       3.22424387      20.49069527
Si      19.52784678      36.25427634      33.22332276
Si      16.39436045      36.90243624      35.63648867
Si      19.76456180      38.40421951      36.31327703
Si      18.58679894      38.74598044      38.31978094
Si      18.70208486      36.51052137      35.41028666
Si      19.20598715      34.45575726      36.43712135
Si      33.16581018      36.85508890       7.31649286
Si      33.34578927      37.36301204      11.42610394
Si      32.34110009      39.05754282       7.36039982
Si      33.88034917      33.49103504       9.32565686
Si      33.87808919      34.04398932      13.12797626
Si      33.30087333      32.55324595      11.40310252
Si      30.97449903      32.20929209      11.38773427
Si      32.53427929      36.27569209       9.50585420
Si      30.25947069      35.68601142       9.57924469
Si      29.81033536      34.25257071      11.38842758
Si       2.21094614       7.73750399      21.70039759
Si       2.36618351       9.86214030      22.69653346
Si      39.09515279       9.01374910      24.46271118
Si       0.27981414       8.37976883      26.39298532
Si       5.28967319       6.49688445      22.68201446
Si       5.80667429       8.74308897      24.43268742
Si       3.72712344       9.06427549      29.30476400
Si       3.61743338      11.44946520      21.49429148
Si       5.82073277      10.88268293      20.89839580
Si       3.53404950       9.30409097      24.66006928
Si       3.93978710      11.19677063      25.99591712
Si       4.89942146      12.99223068      24.81763909
Si      17.83066489      24.94325740      14.57741550
Si      17.89784274      24.07138599      16.76046698
Si      16.11124663      23.50658243      18.18153414
Si      16.08545247      20.08336903      16.56276897
Si      17.67959970      20.93065609      19.77324516
Si      16.60812302      19.15759307      18.66031706
Si      14.65736765      18.84579830      19.93605848
Si      14.40481700      22.90944606      14.59483063
Si      16.59996641      26.93893096      14.75905935
Si      15.13639499      25.64449957      18.27790554
Si      14.57352807      26.21644139      16.06735698
Si      13.10733432      24.85668164      14.82970348
Si      14.90439709      18.37098332      15.46626536
Si      13.11295899      18.18463437      16.97814870
Si      14.88852700      22.09883638      16.74863197
Si      13.37083644      20.79173567      20.23345791
Si      13.00246826      21.69505611      18.09381789
Si      11.85033691      20.15439076      16.74159202
Si      13.14218114      17.23793602      19.13047614
Si      28.81920454      24.85398885      28.10711176
Si      26.34908917      29.62957793      24.04769387
Si      27.29200385      28.54451059      25.90877767
Si      25.85607057      26.71084109      26.24513351
Si      28.31749987      28.77218849      29.08414205
Si      26.93311315      27.18660729      30.13289333
Si      26.66975822      25.79731512      28.25372965
Si      24.94956290      24.08958022      29.08753387
Si      11.39794306      19.67759240       3.51839589
Si       9.38473079      19.56698803       2.30825772
Si       8.43494853      17.41566890       2.31563573
Si       6.46188440      18.76273922       5.32383672
Si       7.72002358      17.88955421       8.73032926
Si       5.76236960      17.98972825       7.43180361
Si       6.53872632      17.84744064       0.99337730
Si       5.75758530      15.64341117       1.23793131
Si       4.62185858      18.56337839       3.87273986
Si       3.44294134      16.55261145       4.18877974
Si       7.91225105      17.06683011       4.58176741
Si       8.38468036      13.51183216       3.78820613
Si       6.89295918      14.96823535       4.87601317
Si       5.11356487      14.83216192       3.34573394
Si      17.74770002      40.01887517      20.96894323
Si      19.95884343       1.39256689      24.70882112
Si      18.07665738       1.77591391      26.06555328
Si      18.70992302      38.71340669      22.67196226
Si      17.15241082      38.32521562      24.39064840
Si      15.57101661       1.92577360      23.27094102
Si      15.21418268      37.57186572      23.29238719
Si      16.45818312       0.50785455      24.92407855
Si      15.50646081      38.96443033      28.35823496
Si      14.81519290       0.36560824      26.60061531
Si      12.97391125      38.97709080      26.14000485
Si      22.17976818      21.03144314       4.94719231
Si      21.30776964      18.08611135       8.05884160
Si      21.73354334      17.21030861       5.91808897
Si      23.15202113      17.71013917       9.46833594
Si      23.17070347      18.90903963       5.15689423
Si      24.94056109      19.09503141       6.69426983
Si      21.59886803      25.07863518       7.13422317
Si      23.70324948      25.21387820       8.17537652
Si      21.73606664      21.29509118       7.24171952
Si      23.30155048      21.53710100       8.97990214
Si      24.54269343      19.53962710       8.96902385
Si      24.84370983      23.15880532       8.25717221
Si      26.48576277      23.05638633       9.93757902
Si      21.10238166      21.35803569      18.21196309
Si      20.40415019      20.77751090      20.38128087
Si      18.96738414      18.96974883      19.93616862
Si      23.37903234      20.18530912      15.16194587
Si      22.84962067      16.35531395      14.10724679
Si      22.33314938      19.63164440      17.19431498
Si      21.05342993      17.66038638      17.10957081
Si      30.89829527       3.10283103       5.20602781
Si      27.09836865       2.78022845       5.53948704
Si      24.95567372       3.41927612       4.81063101
Si      24.94193802       5.76531116       4.64607533
Si      28.83543356       3.68968183       4.24145332
Si      28.93887142       6.97493601       6.33758402
Si      28.44413158       6.00850788       4.25154410
Si      30.23101702       6.61627166       2.84883246
Si      25.14089857       6.90581288       6.69339667
Si      16.24933674      37.98958449      16.97926048
Si      14.92701642      34.89393623      14.99220148
Si      15.05235634      37.26879280      18.87090375
Si      16.50835213       0.30162728      17.32338518
Si      14.49894459       1.38129279      16.74829724
Si      14.11254003      34.26878211      12.87645659
Si      15.35594151      37.20598499      14.94966728
Si      13.27777148      38.27664819      14.68376493
Si      13.27392555       0.62411529      14.88443645
Si      12.54271771      37.19250523      12.59770265
Si      11.16112558       1.47720981      14.29439064
Si      33.37425932      30.85500743      36.86018836
Si      32.63184974      31.90581536      34.89173321
Si      30.62910110      33.10122852      35.19239140
Si      28.96305856      37.71527590      30.01579387
Si      26.20463080      36.87798581      31.71301763
Si      30.04385033      34.58480016      30.18219037
Si      29.31339632      37.69084576      33.50227728
Si      27.05670555      38.34720675      33.58608138
Si      26.36676151      37.44640305      35.64618148
Si      26.63743407      33.70496367      28.58202885
Si      25.75962414      32.95568107      30.62553974
Si      26.50870088      34.58697462      32.13909329
Si      26.68748912      35.15221624      36.05544526
Si      25.83399869      33.87832603      34.27420854
Si      23.50938257      34.13518853      34.51445068
Si       4.27397689      29.98510744      32.70605330
Si       0.41941554      26.53625518      30.78131991
Si       1.13863961      30.56603186      31.16965535
Si       0.10718896      30.86454271      29.07743650
Si       3.37731917      27.53188189      34.18965942
Si       0.98790399      28.29942677      34.28009507
Si       0.61503609      26.19732611      35.26667536
Si      38.31813288      26.68905705      35.37561499
Si       0.67723174      32.48896030      32.44288865
Si       0.60405398      30.35843951      35.35005033
Si      39.90480568      28.47263385      32.01250077
Si      36.97727420      29.06455682      30.31136913
Si      37.69914003      29.08571025      32.54942569
Si      36.84426053      27.16712744      33.60662978
Si      37.66345310      26.53485094      37.93020362
Si      38.24602315      23.73195024       3.98374747
Si      37.14783077      25.67782532       0.05860862
Si      38.02733621      26.83928337       1.90464070
Si      34.93243366      29.20860637       1.89000460
Si      35.08901127      25.99131484       4.26595380
Si      37.42376727      25.93518745       3.98997944
Si      34.39696034      28.21713990       3.95415487
Si      40.00041818      26.43906847      37.68528543
Si       0.29617319      26.73334790       1.29515791
Si       1.09959180      27.72420478      39.31952377
Si      37.37483855      29.08002031       1.61530241
Si      38.32705513      30.30300610       3.38392580
Si      38.99679808      15.12118214       7.99920850
Si       0.32889187      18.44138899       7.19402906
Si      37.28425109      17.95698789       9.66589145
Si       0.94147364      16.42255784       8.23217159
Si       2.54425548      16.31164303       9.94887695
Si      37.98348503      15.74117361      10.02877552
Si      39.36648479      15.82445374      11.92895879
Si      39.21120681      19.19073042       9.12265633
Si       0.43326737      19.45606918      11.11425373
Si       4.33638929      17.80026508       9.62945342
Si       5.61916863      17.51022897      11.57865761
Si       3.56968391      20.80418810      12.79124527
Si      38.17105876      16.79168362      13.70816510
Si      37.36885262      18.99435169      13.52149740
Si      39.18349101      20.35174505      12.89360477
Si       1.18332344      17.28157400      11.60321989
Si       3.06437746      15.07559870      14.29851067
Si       2.48426065      17.29777429      13.79284801
Si       4.33570958      18.62249988      13.20387222
Si      20.90922269       9.93220159      26.63955691
Si      24.27398029      14.85266425      29.14432796
Si      21.85725409      13.36758902      26.81656150
Si      24.44900545      11.00737045      25.89105336
Si      23.71055039      13.18097176      25.38065361
Si      22.53986397      13.27944014      23.34425766
Si       2.71716900      24.34409041      31.48940245
Si       1.63303925      20.92060185      29.77007347
Si       2.04375534      20.22745308      26.40430823
Si       2.69569278      19.28408820      28.45744762
Si       3.32980310      22.74430831      29.87825099
Si       5.56221733      22.11409713      30.26499378
Si      37.85140979      24.19311334      23.94871468
Si      37.25999969      28.64613067      24.94984178
Si      35.67406310      26.91779036      24.81159305
Si      34.61693852      26.55426715      22.74404753
Si      35.98811782      24.64231862      25.31095427
Si      34.30541534      23.00225888      25.39324576
Si      11.86271403      39.32183555      11.85962232
Si      11.89611926      37.51372387      10.36187801
Si       9.66345488      37.12678731       9.73610922
Si      11.07050975      38.48133722      13.90055330
Si       8.87933071      37.74695573      13.47332525
Si       8.74198463      39.20144732       9.12359118
Si       7.89850280      39.65955170      12.52134984
Si       6.45996663      38.83041195       8.69438131
Si       5.57166174      39.34218247      12.40522553
Si       7.81021026      36.96853515      15.41640171
Si       8.64069019      36.26043026      11.66787387
Si       5.34462034      37.91410085      10.55079977
Si       6.35024746      35.91215958      11.26562491
Si      36.00865115      20.21859075      27.86110058
Si      36.93037484      23.74828834      29.37960922
Si      37.94275760      22.52519353      25.60423981
Si      37.41771240      24.23361056      27.13194893
Si      39.07256391      25.89933395      27.01541239
Si      24.75110433      29.33009568      10.85271674
Si      28.51417909      29.46474905      10.41822113
Si      26.55630556      26.42095198       9.13393574
Si      26.58732731      30.78824952      10.67315357
Si      25.98169450      31.83293654       8.65620686
Si      24.54498427      27.63531140       9.23533554
Si      24.00283632      29.02959023       7.42023752
Si      22.72332954      30.48523012      11.14428491
Si      22.31158457      31.98277815       9.37772140
Si      24.16402477      33.31383501       8.80910570
Si      22.13235445      30.44548066       7.60224661
Si      28.27591430      27.94620772       8.63859533
Si      27.80238874      29.16696074       6.68549941
Si      27.85273737      33.17069197       8.17037000
Si      26.19982841      25.03646122       7.26763085
Si      24.23105017      27.81956993       5.41612108
Si      25.80644436      30.40427077       6.79769025
Si      25.31250938      31.66087453       4.87270704
Si      27.37448638      32.70565106       4.44235596
Si       7.87159661      24.48160110      13.79238017
Si       5.01563750      26.89854261      15.08205993
Si       6.53459849      26.36901600      13.36662978
Si       8.01716462      28.19164351      13.46583460
Si      10.65391278      26.34879615      15.49227027
Si       9.44436370      28.21623675      11.59733707
Si      11.80537166      26.24120723      13.44463303
Si      13.46944224      27.90250051      13.48159320
Si       7.86457661      28.73893940      17.01887706
Si       9.44918358      28.36107535      15.32303874
Si      12.20929249      29.87068161      13.21958106
Si      10.85615668      30.23292118      15.10846651
Si       9.65175198      32.25198063      15.05539386
Si      12.18121583      30.26205899      17.05101734
Si      14.85947907      28.42293062      15.30569954
Si      17.32330394       5.40525770      20.37902654
Si      14.94205569       8.12633087      19.26764019
Si      18.96296931       6.05889407      18.82716695
Si      16.39578881       8.49395745      17.45605626
Si      14.16297000       5.48492864      21.81785416
Si      17.74414144       3.03949709      21.27646497
Si      17.53151556       1.70963228      19.34872141
Si      12.38318987       6.92489414      16.45496722
Si      15.11323086       5.82000099      19.69327777
Si      14.99315634       4.32774175      17.87959180
Si      15.29256852       2.18895381      18.81141170
Si      12.82386890       4.69366008      17.04979364
Si      12.48800211       3.10136315      15.35385203
Si      19.12680732       2.43835301      17.78203747
Si      37.62080341      31.60534188      27.74344543
Si      36.92992325      33.49954179      28.95237577
Si      34.81210676      29.35060891      29.43837913
Si      34.14966155      31.26199213      30.63910842
Si      34.66881307      33.29121055      29.56588541
Si      10.72001198      33.26821026      12.32823588
Si      14.30471223      31.51179355      13.18981491
Si       7.47487206      32.72287890      14.30058898
Si      10.87902536      35.23087968       9.05950230
Si       5.73373186      33.37934832       7.89309244
Si       9.42985658      35.84795051       7.31307723
Si      12.52582667      31.89852893      11.70107292
Si      13.83285927      33.24517284      10.28440737
Si       9.57111221      33.74807001      10.33313595
Si       9.03966267      31.73437826       9.24073851
Si       7.70980312      32.21972691       7.36286393
Si      15.56453741      23.51240078      39.01236943
Si      14.68531654      21.78411229      37.68383301
Si      17.36577117      21.98608250      35.33401332
Si      16.38242443      20.42442751      36.79155443
Si      15.68730376      18.55638987      35.54572169
Si      11.74274871      25.11639141      38.73567933
Si      13.53635462      20.60305298      39.35981188
Si      12.74623599      18.62386367      38.37712028
Si      12.82514953      22.48618936      36.42984427
Si      13.78007757      18.98496138      34.23891039
Si      12.31554390      20.48833973      35.29944295
Si      11.18241974      18.93058575      36.64921966
Si       2.48414041      16.74700675      26.98813061
Si       2.03927805      16.00120067      24.80261555
Si       1.93586759      13.65238170      24.75237282
Si      38.53408783      16.68251048      24.91795919
Si      38.22567900      14.35364381      24.81697906
Si       0.45182976      16.20064172      21.64742988
Si      39.84837930      13.93165182      21.78148024
Si       1.72899215      12.76905444      22.58283153
Si      37.71227832      13.52504023      22.67710400
Si      37.52074481      11.18243625      22.75378320
Si       0.31575553      13.79419826      28.06920023
Si       3.67429066      13.70980017      27.87416551
Si       2.04605941      12.76018465      29.28041376
Si       1.45215682      10.50019123      29.01559165
Si      36.33719903      13.78349480      26.09588474
Si      39.93028177      13.10879623      25.85308734
Si      39.57546561      10.78572863      25.93186465
Si      37.59592072      10.37134443      27.13154577
Si      37.16395766       8.06016570      27.12350972
Si      35.53574019      10.70569472      23.92161058
Si       5.61140107      25.29832649      16.69908713
Si       5.67099690      21.91586200      20.72580966
Si       5.15179779      21.65067163      16.56060316
Si       6.80027559      19.85753301      20.57171464
Si       6.37049944      19.64278162      16.68775643
Si       4.23653374      25.82382410      18.53313837
Si       2.72077642      24.04202769      18.77185063
Si       4.36843255      22.14096282      22.66918731
Si       3.27155502      24.20977797      22.45636209
Si       2.82240425      20.38082640      22.87025810
Si       3.43523243      21.71170908      14.95531245
Si       2.33420361      23.78901288      14.93175254
Si       1.24085927      23.58195936      17.00326043
Si       3.86089016      21.98696728      18.70352074
Si       3.60438693      18.14559306      19.02851905
Si       2.40933670      20.17063880      19.05456883
Si      26.25184814      20.02558081      20.69132769
Si      26.22042236      22.24025542      23.91876574
Si      23.26531630      23.27637886      21.11706928
Si      25.42872695      23.82950325      20.37935429
Si      28.27411203      24.47397985      18.09998767
Si      25.90560088      25.92021818      21.34475101
Si      26.57354299      22.17306531      21.59447538
Si      28.88676250      22.54884998      21.79107649
Si      29.12649733      24.81981226      22.35321556
Si      25.97512675      34.49055899       1.67519236
Si      22.25921106      33.89990330       0.84293757
Si      26.72727018      33.84468850      39.53832721
Si      23.31792464      30.87969377      38.29445997
Si      23.56827560      33.77486733       4.28995646
Si      28.03002191      34.21606513       2.76454110
Si      20.45719750      32.55028855       1.50967333
Si      19.65335805      32.84304862       3.69844651
Si      21.64119728      32.58822038       4.92878662
Si      24.10016472      33.12991584       2.09266198
Si      24.55487767      30.82500234       1.97279365
Si      21.58829575      29.58000626      39.21648431
Si      19.72244056       5.69935619      35.04679823
Si      18.31819849       6.20993374      31.46713386
Si      19.55437975       2.80942121      32.54120695
Si      21.28495807       4.39372968      36.22312886
Si      21.03279215       2.09340586      35.80455803
Si      23.49887066       4.76447389      35.52212936
Si      18.67301891       5.65005770      29.21096728
Si      19.91090672       2.45624634      30.24413960
Si      19.93573057       5.11758064      32.77846624
Si      22.08245198       5.58285795      31.93893297
Si      23.79134552       4.56922287      33.19690251
Si      23.44306029       7.11145644      35.65925831
Si       3.41753743      34.88361186      14.07601149
Si       2.31182607      29.68619624      14.47468283
Si       3.60952809      34.40513227      10.05497056
Si       3.19376981      33.22985713      12.24071630
Si       0.58182516      31.26908734      14.29595090
Si       1.01299390      32.34978322      12.25227517
Si       9.72751658       8.67259270       6.12423185
Si       9.76873502       6.33311913       5.88834990
Si      11.99484428       5.74343121       5.41171535
Si      12.24098495       5.44633539       9.16281508
Si      10.68098391       9.49985947       8.10842501
Si      12.85225407       8.84793175       7.48379564
Si      12.83397967       9.11929763       3.95275481
Si      13.94699224      10.06515231       5.79605586
Si      16.03228038       9.22760721       5.10449778
Si      13.56805527       6.27991588      10.91644608
Si      13.47587690       8.58671848      11.36456564
Si      14.25660026       9.38028362       9.29314830
Si      16.57792967       9.08340598       9.06315464
Si      13.17090911       6.52595861       7.29189722
Si      15.45077181       6.03781726       6.98332153
Si      16.11694487       6.88723696       4.89368574
Si      17.05766312       6.78737309       8.89920273
Si      17.28631187       9.90118700       6.97548574
Si       7.73105267      16.36603578      24.53868586
Si       4.03833142      15.59295112      23.63295889
Si       5.56147782      18.97092100      22.74995728
Si       6.20352712      14.70628630      23.87174837
Si       6.43541818      13.63960830      21.78855769
Si      11.40400046      18.60794126      23.36131941
Si      11.77292102      17.74747216      20.97311066
Si       7.67642018      17.94361308      22.79535674
Si       8.24022848      17.08834831      20.67867587
Si       9.94414623      15.56952590      24.53571580
Si       8.67172557      12.93999904      21.99703375
Si      10.27135222      15.93769252      20.96116635
Si      11.08255756      14.94383753      18.99043095
Si       4.00962359      17.34318742      22.06243360
Si       4.38046865      16.17711428      20.05419698
Si       8.13815053      18.73065994      18.99889787
Si       8.53714604      17.42360492      17.08475912
Si       4.89905141      16.95883191      16.31419125
Si       6.60220495      15.44629672      20.29452804
Si       9.30694501      13.69522564      18.08593542
Si       6.98448177      14.50731896      18.17346325
Si       6.98124073      15.86758658      16.25565420
Si      10.67370338      16.45229402      17.23328975
Si      25.30913056      38.62746719       9.59431402
Si      23.79602765      35.31386207       7.63217966
Si      23.31274262      39.70400294       8.97393250
Si      23.76010835       0.62251719       6.85651998
Si      21.89851257      36.67114855       7.35529077
Si      22.08090978      37.54716459       5.18250365
Si      21.63407765       1.60200312       6.63943844
Si      21.71083719       2.88539483       4.35450369
Si      20.51599159      40.02238535       2.56314038
Si      25.23524857       2.45106514       6.93554736
Si      23.92980921      38.99945603       5.16424405
Si      22.33068943       1.51221656       2.55164993
Si      24.23125747       0.31149818       3.23676164
Si      22.33396425       2.46140505       0.40165668
Si      24.47269193      38.75077840       1.49475656
Si      24.15375719      15.83838313      25.40464656
Si      28.02135616      16.54426305      24.22617190
Si      26.72020485      13.53715580      23.14594301
Si      24.58349634      14.41814538      23.58030963
Si      26.01602556      18.71224084      26.74142877
Si      27.49412469      20.51026572      26.40514723
Si      25.89068698      17.32325457      24.84727104
Si      25.25239753      18.79613194      23.12694953
Si      29.53297549      33.36224842      32.12522863
Si      29.01218612      35.50194601      36.08805959
Si      30.67648103      31.67355632      30.95423379
Si      25.77664451      33.01914319      36.45988275
Si      24.21984511      31.95864253      35.05186272
Si      28.17230667      32.38552501      33.77611483
Si      26.61417214      30.99160493      32.69921248
Si      36.66788985      29.00002507      35.06932126
Si      37.03913744      31.34172377      32.48565249
Si      38.26622224      33.08871695      31.49964833
Si      34.86839857      32.04775650      33.05077101
Si      26.64410741      30.39217574       0.71226340
Si      28.10540338      27.22251373       2.41384974
Si      30.59269844      29.44110960      39.51799001
Si      28.92764624      27.99304141      38.70486322
Si      25.90593210      31.30998146      38.67686963
Si      27.31334094      28.15838628       0.40701244
Si      25.30782803      27.02725389      39.92830013
Si      24.63499135      28.04119711      37.91591949
Si      26.20581947      11.58999823      21.93167286
Si      26.49354813      10.19479850      19.84649300
Si      24.20762519      10.05207279      19.31406298
Si      24.91328909      10.59105979      23.62348849
Si      22.82709895      10.09147031      22.65984895
Si      22.79707672      11.73426595      18.47149955
Si      21.38062711      11.79770544      21.93401565
Si      24.01576582       8.74482644      17.36919393
Si      22.03133869       7.77249601      16.56610558
Si      23.18133633       8.61348482      20.86512773
Si      21.04991301       7.91339880      20.15968693
Si      21.22808376       6.44419914      18.33181144
Si      27.96403819      23.88161060       8.30548972
Si      27.79239007      21.43146307       5.81213267
Si      24.36829955      16.68780109       3.12909239
Si      27.77016191      18.38759958       3.31656590
Si      25.45631513      21.61112125       5.61000377
Si      25.45040036      18.77108730       3.26998652
Si      24.72696417      20.15333983       1.51028026
Si      30.99422295      20.31224938       3.84316930
Si      31.87616489      21.82640420       7.89496162
Si      28.81456597      23.52342168       6.14245522
Si      31.15768353      23.39371921       6.29566328
Si      31.92185175      22.45699534       4.10785128
Si      28.39820077      17.58055414       1.19885711
Si      28.65073373      20.50755778       3.82720144
Si      27.74685887      21.71999288       2.02631207
Si      28.48702063      23.93844816       2.27361045
Si      28.82048274      20.98012940      39.84481534
Si      28.90762054      15.91075548      38.54678175
Si      27.30866010      15.13493642      35.57693830
Si      22.27859713      16.10516211      37.21831126
Si      25.70484608      14.57428192      33.94487647
Si      27.97413172      12.87800475      35.61307626
Si      25.41673432      14.14330251      38.56324008
Si      23.24505841      13.73120411      37.35859972
Si      36.80273922      37.96191758      16.18792967
Si      34.77435410       0.52675077      11.79018329
Si      36.46249591       1.14874393      18.05556528
Si      36.36563063       0.25247201      15.88358515
Si      34.03002886       0.34138670      15.62383889
Si      33.93852618       5.97215722      13.91004576
Si      34.61504892       3.72456783      13.76450329
Si      34.15415129       2.79119556      11.65573993
Si      33.65252911       2.66257923      15.62898839
Si      31.35696476       2.32567412      15.24447138
Si      33.07708895       5.70040336      17.38568826
Si      36.62054123      36.96706114      14.06486163
Si      34.33311729      37.14405972      13.54890999
Si      33.86998397      33.65822523      15.44772516
Si      33.07834105      36.01646158      15.18721102
Si      33.63973729      39.39083263      13.50852945
Si      30.91462677       1.64182998      13.03835034
Si      31.37120254      39.33961229      12.89083162
Si       2.75178746      39.07063773      26.91078620
Si       0.79084017      37.80270122      26.63238457
Si       0.10851737       0.12325149      23.41611418
Si       0.95931715      36.01577051      25.11285009
Si      39.22368189       1.43782877      26.84130088
Si      37.96555597       0.36734905      28.51502851
Si      38.70278205       1.76154093      22.48313971
Si      37.67106080       2.95177034      25.93149122
Si      35.60711440       1.83053105      25.81802990
Si      39.49568376      39.46567368      25.58932134
Si      37.60405887      36.60352442      23.47894683
Si      37.34949272      38.57430940      25.22668562
Si      36.23308580      37.60973593      27.05784953
Si      33.00081903      35.53089207      18.45902848
Si      31.95231633      33.66109292      21.29214446
Si      34.94581254      36.31161027      19.52553662
Si      34.85399454      38.41247417      20.57972846
Si      33.81911297      34.39605255      22.51891807
Si      33.58957913      36.36279731      23.78732044
Si      36.60542595      39.15869016      21.96068861
Si      35.64561400      37.03804256      24.70657598
Si      31.18601062      35.43474271      19.95144512
Si      31.32420623      37.36560267      21.28638090
Si      34.03364122       0.00380085      19.05508770
Si      33.76337694       2.02914314      20.21908511
Si      30.10535121       1.07699163      20.79559846
Si      33.25500035       3.79113482      18.74701501
Si      30.75924282      33.38954650      23.30085774
Si      30.48971497      35.50395261      24.29641790
Si      31.90082046      37.88664245      26.51244437
Si      29.47127004      36.79534552      22.61579120
Si      29.42278054      39.80051729      23.67200840
Si      33.28274989      38.16672442      22.31088538
Si      34.91790193       0.36699342      24.11124497
Si      32.70173158       0.19767095      23.34320521
Si      32.05800205       1.87960960      21.83125898
Si      31.26363617      39.68081030      25.13052992
Si      31.82757811       3.78981023      23.18328189
Si      35.63920770       2.66802406      21.48527108
Si      34.00505322       4.61768767      24.19009667
Si      24.61913872      36.96997319      12.05513720
Si      26.44709361      33.59589706      13.01087890
Si      24.66288094      34.62509745      11.87249303
Si      22.73679150      33.84000226      12.96738287
Si      24.62726305      37.62268698      14.31457624
Si      22.63556455      36.87750161      15.31872457
Si      24.49993296      33.63340085      16.32868076
Si      22.67380779      31.50790365      13.26147307
Si      22.69972938      37.64592076      17.54038628
Si      24.35531451      34.45959848      18.52572931
Si      22.63302152      34.52827075      15.21338275
Si      20.71564760      33.69851093      16.29280944
Si      11.22907947       3.03449822      38.05658596
Si      12.44254292       4.85963409      37.20191111
Si      14.45599098       5.22740566      38.79510477
Si      14.27632441       1.40270708      39.65651132
Si      13.13375790       2.22925863       1.53949075
Si      17.39665969       3.81289200       0.39843173
Si      12.07643520       7.68259076       0.86036832
Si      13.07754601       9.67573541       0.11569886
Si      10.95199016       8.24197743       2.84844337
Si      13.38286792       5.72764916       0.82693371
Si      16.51389306       4.34535184       2.51167693
Si      15.00318254       6.14764007       2.47880545
Si      16.35644508       7.92315720       1.73935064
Si       8.12239898      12.67470021      28.93626874
Si      11.97289012      11.33225074      29.09383752
Si       6.01430944      12.62737620      29.97483426
Si       4.36981957      11.59955367      28.64459226
Si       5.82217825      11.03344960      31.69305937
Si      11.45090010       6.86887632      28.68119160
Si       7.47970798       6.14329844      28.38713964
Si       8.43165407      10.40188965      28.42047512
Si       8.57971327       9.13530930      30.39622155
Si       6.42343015       8.79929392      31.27252642
Si       9.28895233       7.04328579      29.58967347
Si       7.33599517      12.10418994      33.55527681
Si      20.93462347      29.43335909      27.10607930
Si      24.64955038      27.25615193      28.89332232
Si      24.84948837      28.68359499      27.03526319
Si      22.75865239      28.46454915      25.98156105
Si       7.35790783      39.22385853      26.02682246
Si       4.74974857      39.48308813      28.50620591
Si       1.95224179      39.29409539      30.69948668
Si       4.05510725      37.34123010      27.82785169
Si       4.99685848       1.76554957      31.72876374
Si       7.09366636      39.57189313      28.33755558
Si       7.62237624       1.79443091      28.89557285
Si       8.26679728      37.94921766      29.57088804
Si       1.27497048      39.21320344      32.94956949
Si       4.25926531      39.73932314      30.79165610
Si       5.28724195      38.01941340      32.02243386
Si       7.62858041      38.12309055      31.82761627
Si       8.40917640      20.01847419      35.83033374
Si       6.53973519      21.83446454      38.66233602
Si       9.05482183      18.60556261      37.59585654
Si       8.02172081      16.54801761      38.07415148
Si       6.23168279      20.52411438      36.55851474
Si       5.92302542      17.33909069      38.78131219
Si      36.75381974      34.20500770       0.49882984
Si      38.45221290      34.01565441      36.90601444
Si      38.87928552      37.18273990      39.01405843
Si      39.51852649      32.43745104      35.52642585
Si      38.18647752      33.05065642      39.03409984
Si       1.38234186      33.93254595       0.39429467
Si      39.92167988      32.09192737       0.29917451
Si       0.87387119      30.63186139      38.72057251
Si       4.92668999       4.91119437      28.89821346
Si       2.68431591       5.23410349      29.52906161
Si       3.30712407       3.24510534      32.42306449
Si      40.07379999       1.01110902      33.87258757
Si       2.46620703       7.00591910      31.05989170
Si       0.17928667       7.10315636      31.59862427
Si       0.51848910       4.97395456      34.49179455
Si      39.67951313       3.60270529      30.93885368
Si      38.61309527       2.06341301      32.36104369
Si      39.17673795       5.21371610      32.57611685
Si      36.89089139       5.76291120      32.62278379
Si      38.97140281       7.85601863      29.50856014
Si      12.32276907      36.85053393       8.15149146
Si      13.74441176      35.11574054       8.86292754
Si      15.24494309      35.99872790      10.74843027
Si      15.20609255      39.57451633       9.81592343
Si      14.08936457      40.06755430      11.82148355
Si      17.64079771      36.97793106       8.30277282
Si      16.67883006      37.80343485      10.28274727
Si       8.53544624       0.77984079      36.56207604
Si       9.01702220       5.34288500      34.14715471
Si       8.05713569       2.87311775      37.52288226
Si       6.25960106       3.97453323      36.48164188
Si       6.90686431       8.41313818      33.80019851
Si       8.72521968       0.70964927      34.21960268
Si       6.90336922       2.02021893      33.51736021
Si       9.22742985       5.46718754      31.63084669
Si       7.35651661       6.67709658      30.87868495
Si       7.25757165       2.12584247      31.19506079
Si       6.93437937       4.25553921      34.24672299
Si       5.06357435       5.45053552      33.47134716
Si       5.43750592       5.34577659      31.15212811
Si      16.64357102      32.80136597      13.13756632
Si      15.96424878      33.79003511      11.11501203
Si      17.43313124      34.48008936       9.41319631
Si      19.60090466      35.05216804      12.40738114
Si      17.97291246      30.98407716      12.45877539
Si      18.79901096      32.60284716       9.03809889
Si      19.66373810      31.91162392      11.11294462
Si      20.50492490      33.09978206       7.49735340
Si      22.79526029      33.92649486      10.61793430
Si      18.63265532      36.14391088      10.56329251
Si      19.68217968      37.44511744       7.23408981
Si      20.53473945      36.62624203       9.26827584
Si      21.58759475      38.56159754      10.09084505
Si      21.76332387      34.71559934       8.65529644
Si      19.42274693      34.10598431       5.66778781
Si      19.61268530      11.03871678       0.16610832
Si      20.48332073      11.09408202       2.34978809
Si      23.11565677       8.60438915       1.40214351
Si      22.07523234      12.78883959       2.70078196
Si      22.72620709      12.73937955       4.95999945
Si      18.64249493       7.42781433       0.19584467
Si      19.60628901       7.34692286       2.33934857
Si      18.66671284      11.34665091       3.82134019
Si      16.90160184       9.99300150       3.05825111
Si      18.89391576      11.41174553       6.16090204
Si      17.88589845       7.99261826       3.80708753
Si      18.14399622       7.87844657       6.14179948
Si      21.23291218       4.74717134      39.24466538
Si      22.29860935       4.64975990       2.19672992
Si      20.24098495       5.24043641       3.17023679
Si      21.08656572       4.92383302       5.34198199
Si      21.27378396       8.93154313       2.82677725
Si      23.59843604      10.60514160       5.42150184
Si      22.04092105       8.88388567       5.04868847
Si      24.23216675      10.36031157       7.67236011
Si      19.99078513       9.33310429       6.10745920
Si      22.50870074       6.72411644       5.85102812
Si      20.41408061       9.13978460       8.41217080
Si      23.23953979       6.91299487       8.07754957
Si      22.43046102      11.34498158       8.81820234
Si      25.74532327      31.23419661      28.53303075
Si      24.95992303      30.76394027      30.87807581
Si      24.37679927      28.48991861      30.87597180
Si      14.06983646      32.03132849       3.10855766
Si      14.32106129      30.22342208       1.62557261
Si      16.51509411      30.03228174       0.80026188
Si      16.69697281      27.44713524       3.83755895
Si      13.29024923      26.91274175       0.98868064
Si      16.57474304      28.24871125      39.26989938
Si      16.75999299      25.65767110       2.31671754
Si      18.80851645      27.72456750      38.75475907
Si      17.47974593      30.86840104       4.52893984
Si      17.70523003      26.35786987       5.66076103
Si      17.86463376      28.16374944       7.15778381
Si      20.01604470      26.02843392       5.37342946
Si      18.67169321      30.26014119       6.46263597
Si      20.84469330      29.65244701       5.79802417
Si      17.60330208      29.32597256       2.75894226
Si      19.85325199      26.82318677       0.65873400
Si      19.76110901      28.53583834       2.26623307
Si      21.07099652      30.28467064       1.39947683
Si      20.87826002      27.89631371       4.23226009
Si      19.67933203      29.71222906      37.84934243
Si       1.32154673      35.97718840       4.60600159
Si      38.69846958      33.18594729       4.17933071
Si       0.07946404      37.10365743       6.25485219
Si      37.95857795      36.55372305       5.40050958
Si       0.67101844      36.55075010       2.42009711
Si      37.44064411      37.61349357       3.36593432
Si      39.71889073      34.23818170       8.23146348
Si      37.41743772      33.98096542       7.82136873
Si      37.15016897      34.34836352       5.51397382
Si       5.66367033      28.92509950       8.79126165
Si       5.79015327      28.52396484      12.78873549
Si       3.21476543      30.71782110      11.26250634
Si       5.76885204      29.53862473      14.91016087
Si       5.38915794      29.89104488      10.91773534
Si       6.75447393      31.79452947      11.12523798
Si      33.45591384      28.73519956      37.87502637
Si      32.19584475      31.20965359      32.68821578
Si      31.89506196      29.71153918      34.47585324
Si      32.56068974      26.08208183      35.36799374
Si      32.56519521      27.63398507      33.60098536
Si      34.77357389      28.02273105      32.89223387
Si      36.14009382      27.00811930      36.20220743
Si       3.99177800      13.27680008      30.97975096
Si       6.38212095      14.20435258      32.40721071
Si       6.61998374      16.50085268      31.96013419
Si       5.15910773      15.61864427      28.53747899
Si       3.46353242      17.15247689      29.08740601
Si       8.82674812      14.91454861      29.04979684
Si       8.70775839      16.64728819      33.03249961
Si      10.41323956      15.13499200      32.45326953
Si      10.83151671      15.43915674      30.15902190
Si      11.47311097      17.65338731      29.69425030
Si       5.31609769      16.07484022      26.23593216
Si       7.15854726      14.63120178      26.01962046
Si       6.19933870      18.17996691      25.67217467
Si       9.33731975      15.11326274      26.76241343
Si       9.81896686      17.31836553      26.10119343
Si       7.08429050      16.37087228      29.65865546
Si       5.76328767      19.87123864      29.58766548
Si       7.68236065      18.58630116      29.14588325
Si       9.73392515      19.17417455      30.13312492
Si       8.14253575      18.78762814      26.84876325
Si      15.36186696      24.95945683      36.02971157
Si      11.67302786      24.34577703      35.56829456
Si      13.38052864      26.80139046      38.64134794
Si      15.37863688      26.86865208      37.40293757
Si      11.71220291      26.37778351      36.75117116
Si      15.15803869      28.99181618      36.41603952
Si      17.49154747      25.15123979      35.05079020
Si      17.73596507      23.54526989      33.35049278
Si      15.79458731      23.17451500      32.07629961
Si      13.68484518      24.69818003      34.40286466
Si      13.80801653      26.60571873      33.03336383
Si      15.73163979      27.25454234      31.84663906
Si      17.08981533      29.42162334      35.14616477
Si       9.22353841       0.55779892      25.50682729
Si      12.80098927       0.38997462      21.59493717
Si      11.56656731       0.75810372      25.52534617
Si      12.21889438       2.83378020      24.63319679
Si       8.67307220       0.17951294      23.25202137
Si       9.26395604       2.26160502      22.10019999
Si      12.97942925       2.06346421      18.40960072
Si       9.22752968       1.73747112      19.80799302
Si       9.47627477       3.72890751      18.58206085
Si       7.96197414       2.31437990      26.43026192
Si       8.92183029       3.92341601      25.00912713
Si       8.13746249       4.19999748      22.80944320
Si      11.58823740       2.21217395      22.45462573
Si      12.30008309       4.14141365      21.31404478
Si      11.77093779       3.98382893      19.02844467
Si      34.58788254      18.82748471      31.34333212
Si      33.74726917      19.18224732      29.17585537
Si      30.24218760      19.76495321      32.07185969
Si      29.78931948      19.60120495      29.77011856
Si      26.12171112      20.08086359      30.73577150
Si      31.32639734      16.11719907      29.02153414
Si      31.55797386      18.44077587      28.74267986
Si      34.85045671      16.27768403      12.75971678
Si      36.30544687      15.57967050      14.47020322
Si      35.75402092      13.66843241      15.72450694
Si      37.94193776      15.16737036      18.29258250
Si      34.36471369      16.08870468      18.46664423
Si      36.20371305      15.54970459      19.82975582
Si      35.70309688      13.59828496      21.04292553
Si      39.44280766      12.77372345      15.58941562
Si      35.31222467      11.92410840      14.21047675
Si      34.68864259      10.13309455      15.60109792
Si      34.63576025       8.18719489      14.28155976
Si      39.84169495      14.47435614      19.49326044
Si      37.64348135      13.19805555      17.04275344
Si      35.13268538      11.82361019      19.60925340
Si      37.07057922      11.34146144      18.36736726
Si      34.78024805       9.78263892      20.72280103
Si      36.61407351       9.60810107      16.84508534
Si      36.28991619       7.61438038      18.04941263
Si      34.40674174       7.84854059      19.43838061
Si      29.23099782      24.66635544      38.07525964
Si      28.81508282      25.62429040      34.17120491
Si      30.44613876      24.02733812      34.73674947
Si      25.97067358      23.50949626      35.46506237
Si      27.59289842      21.88078406      35.96117239
Si      27.90215907      23.12406713       0.14628044
Si      26.69992360      20.88952841      37.89776258
Si      28.68824834      21.49464275      32.42215558
Si      31.90157284      21.10987031      33.34760783
Si      29.62559071      22.86858811      36.61143552
Si      31.16586213      21.18786381      37.18865226
Si      31.52529021      19.63487803      35.45963505
Si       5.03050922      12.51868659      33.33585778
Si       3.20488719      13.98216245      33.07752636
Si       1.49833382      12.36194492      33.05669699
Si       2.80703852      14.69864584      36.56596942
Si       1.07808788      13.11674214      36.78304646
Si      39.16362539      14.33553397      36.17212831
Si      37.33502605      12.88141884      36.44178785
Si       5.02796614      11.61567249      35.50800722
Si       3.17118560      10.20489004      35.81857763
Si       1.77482344      10.63233918      31.48725685
Si       3.83449146       9.55223979      31.83601622
Si      39.76529870       9.41226251      31.42673251
Si       3.28264960       8.74823967      33.97558868
Si       1.63370713       7.08202930      33.79890369
Si       1.34095846       7.69963191      37.81182378
Si       1.24154560      11.39399280      35.18637232
Si      37.74502200      11.29352836      34.75989064
Si      39.49300971       9.83404235      35.33984750
Si      39.67695192       8.35450884      33.52419746
Si      38.81790572       8.75378683      37.31430863
Si      38.15047040       6.76262029      34.33843907
Si       0.00178828      13.70313853       2.59453356
Si       0.92952587      11.53864881      39.92450946
Si       2.04639251      13.24162010       3.66057998
Si      37.22788629      12.40441808       0.38363474
Si       0.32510013       9.47769949      38.96745828
Si      40.08299227       7.59769273       0.35905886
Si      39.20129608      11.78147920       1.50071811
Si       1.10484239       9.65937090       3.87063184
Si      38.95013793       9.97212219       2.98173991
Si       0.72441294       8.10822118       5.59688542
Si      37.39155587      10.53234738       4.65128912
Si      39.19854662       8.27628885       7.37850874
Si      18.07377915      31.74998481      14.67999509
Si      19.89492902      37.10468930      13.51695828
Si      17.58928859      35.10325809      15.84034574
Si      17.50335526      34.14915000      17.98808488
Si      18.32559263      35.86825687      19.36613335
Si      19.82400305      35.67532045      15.38305039
Si      20.44545595      37.29733859      16.96837900
Si      19.23213478      39.31155678      17.00305104
Si      20.61842746      36.31788502      19.09938532
Si      34.12563480       9.78511668      11.35452374
Si      33.76314664      11.39601928       9.67999928
Si      32.17698249      13.00640918      10.32895666
Si      32.10294604      14.71312531       8.71276692
Si      35.77644007      12.53066763      10.11548808
Si      36.09676858      14.42426313       8.75813579
Si      34.29294582      15.92203724       8.94040038
Si      30.19540271      11.19976380       8.06445405
Si      29.89218360      12.82866872       6.39575761
Si      32.04285458      13.76547183       6.56131318
Si      32.09055233      15.42730162       4.89806611
Si      15.03203776      12.59637771       0.93837373
Si      12.87394788      13.48616763       1.21978944
Si      11.09311663      11.18519000      38.81546994
Si      11.56021583      10.49132516       2.52961216
Si      11.42834042      12.80273141       2.94361277
Si      12.71048625      14.04823520      37.57372180
Si      13.19202688      15.79387826       1.54219158
Si      14.26422356      16.76782463      39.68908718
Si      12.98511784      16.37308599      37.75569836
Si      10.85259381      17.23665328      38.24839205
Si      11.35583688      14.57331820      35.72335525
Si      11.37669537      13.44163245      39.40922736
Si       8.35088228      13.40394864       1.43945155
Si       9.28479490      14.49885994      39.57990299
Si       9.74215643      16.70502658       0.25281585
Si      30.48009832      36.41684959      28.77374018
Si      31.59029044      35.58172223      26.87626336
Si      32.43965200      32.55015679      29.66893813
Si      30.14876206      33.93436681      26.01329892
Si      33.94844299      38.56182135      27.45229179
Si      33.04531424      34.24155940      28.15162507
Si      34.61723515      33.13593329      26.79574361
Si      35.41125997      34.77410103      25.30412193
Si      30.18117984      23.68178034      39.98791714
Si      32.57334836      26.56693972       1.52292816
Si      30.41574742      24.60021814       3.44530932
Si      32.50586406      25.65096489       3.68763198
Si      33.87378373      23.74718381       3.87132531
Si      32.08191260      25.43946195      37.57904381
Si      34.27679107      26.27025414      37.43187042
Si      36.11934701      24.81106711      37.51213295
Si      32.16519086      24.93919079      39.87543553
Si      33.49704136      22.12796775       2.20809121
Si      33.63279279      23.11271135       0.07684081
Si      35.83886641      23.77732615      39.60574470
Si      30.60078680      17.80957401      33.32794673
Si      27.17028143      18.22088926      31.72161933
Si      28.16673688      17.18263484      33.58199578
Si      28.24070855      14.83601417      33.44239183
Si      31.26067167      15.60815774      31.31641678
Si      32.00367571      15.07774668      34.79176016
Si      29.84327084      14.18157202      35.03475961
Si      32.77911426      14.13097391      32.78334716
Si      29.93648420      11.84075984      34.83321560
Si      27.38475067      17.51646354      29.48800311
Si      29.23479626      14.41554222      31.35543182
Si      27.64809069      10.64151286      34.96206510
Si      33.15829122      29.95651047       5.49966324
Si      33.76462178      30.69360186       9.14728108
Si      35.75046088      26.84863217       7.40101790
Si      33.44087890      27.12451083       7.74756167
Si      32.38433819      25.60232552       6.29944317
Si      30.06676270      25.44391033       6.66580665
Si      33.35423850      29.49361513      11.12769333
Si      30.89786585      29.74322476      12.01138311
Si      32.56221767      29.30474328       7.67913246
Si      29.56754220      31.32512049       7.86136550
Si      30.25921234      29.09056283       8.10341208
Si      29.60138282      25.43251725       8.97089942
Si      25.83760909      10.34956844      27.81244117
Si      26.92342344       7.09819494      28.75924065
Si      27.18661313       8.61270436      26.97938038
Si      26.06490431       7.05451060      25.62134034
Si      23.69100156       9.64256033      28.46259681
Si      22.73910287       8.45506416      26.66974146
Si      20.50329706       7.84050685      27.63365334
Si      23.89242463       6.44243574      26.28210024
Si      22.99526522       5.46761700      24.33892001
Si      21.02261800       4.62452521      25.30205710
Si      31.94728183      34.66921128      36.34744984
Si      29.51306293      36.16235284      38.96829446
Si      32.44652342      36.75768424      32.69714519
Si      34.19266839      36.91050309      34.26553744
Si      36.27220036      37.08043001      33.18050481
Si      37.91742052      37.00639386      34.85927770
Si      30.17203002      38.63260855      35.47871130
Si      31.65139864      36.31454505      38.00143064
Si      33.74810664      38.57630906      35.86587521
Si      35.56685504      38.51399774      37.35569266
Si      34.05556579      34.81100234      35.31540899
Si      35.74540008      34.81199426      36.95082674
Si      35.44371612      36.49870844      38.56153610
Si      37.71512558      38.74697986      36.42759675
Si       0.35655953      27.76221000       6.26545117
Si      39.28366395      28.80949589       9.82305596
Si      38.10125380      27.35450286       5.73839123
Si      37.13175012      28.45139076       8.94473970
Si       0.36889236      29.49688781       7.85326226
Si      39.51718901      31.51773297       7.00403375
Si       2.10218073      37.99289073       8.02250809
Si      35.54586809      38.74253364       9.64383912
Si      37.39464339       2.24703763      11.23462526
Si      38.36807868       3.29491161       9.36786622
Si      34.42034926       0.80102159       9.48154145
Si      35.41525162       1.33062840       7.41755131
Si      38.06263215      38.72942425       9.83548047
Si       0.83787504      -0.07534573       7.57548101
Si      38.50416979      39.93264022       7.86374793
Si      38.09633588      38.86564577       5.80810379
Si      37.64090320       2.08708923       7.48564787
Si      36.91482223       5.51937741       9.13385712
Si      -0.02142450      35.14800804      31.12356043
Si       1.56459816      35.11802232      27.57752004
Si       1.81103145      32.79846307      27.87534303
Si      39.78506267      32.05266787      26.94575143
Si      39.83003712      38.27569483      28.72607403
Si      38.25361629      36.05194512      32.44144249
Si      38.38840212      38.39809467      32.52942789
Si      38.08373188      38.75778713      30.22550203
Si      36.00556269      38.09358945      29.34787224
Si      39.80839758      35.93163918      28.91302628
Si      37.66733840      35.53156039      28.02693445
Si      37.43595366      35.89817016      25.71598440
Si       1.07305484      30.44071883      24.16239509
Si       7.49004711      29.41489036      26.49335194
Si       3.48930872      29.32262344      24.19069386
Si       3.73070949      28.36255386      26.32331559
Si       2.07161785      26.23206916      22.47854458
Si       2.57828835      25.14277121      24.50018396
Si       5.95032300      27.64123663      26.60949409
Si      39.47279880      28.46482171      24.17939539
Si      40.32741392      27.73082515      26.24196209
Si       3.18287499      29.74723046      28.14312965
Si      39.43243015      28.82550350      28.12021868
Si       2.31514757      26.48725713      26.41078015
Si       2.44649505      25.47468462      28.52872479
Si       7.72164716      25.19851627      32.97355745
Si      10.33928611      24.60144353      27.01858617
Si       9.13218969      25.40178782      31.10292850
Si      10.39609640      23.54665915      30.40186537
Si      14.39934262      25.64045506      30.77416939
Si      11.91269886      24.12578993      28.70039943
Si      15.80920820      23.98940640      29.87038938
Si      13.13708090      22.20223976      28.12482729
Si      11.94487948      23.49416073      32.17078310
Si      14.64558922      21.94616109      29.91068321
Si      13.20186744      21.55707799      31.72581743
Si      11.78561230      20.31291786      27.75814302
Si       3.43988628      29.54888625       9.23430923
Si       1.93954584      33.57108789       8.62454077
Si       3.30643356      34.63098478       7.03119624
Si       2.53015601      30.07837039       7.13137973
Si       3.95888838      31.15080552       5.60202919
Si       5.58138535      29.55456489       5.01048574
Si       3.94374657      25.70329704       7.27119528
Si       6.34153280      27.52372604       4.10037879
Si       3.07968094      26.62360316       5.28703389
Si       7.17497809      25.22634972      10.44971692
Si       7.02838702      23.79996483       8.58562649
Si       9.15328426      23.10465404       7.85637972
Si       6.11562185      24.96265762       6.75648792
Si      35.06771535      22.88690061      30.52672323
Si      34.98564081      25.04978014      29.60592072
Si      32.22218463      23.35126035      27.26567860
Si      31.68446244      22.91233089      25.01877061
Si      34.31594794      24.40686184      27.44521086
Si      33.96576389      26.46442027      26.36187516
Si      13.71450877       6.83769854      37.25011568
Si      17.16771074       3.97517308      38.06328609
Si      17.10429799       6.14811996      38.96033840
Si      15.97814355       7.46477453      37.37010467
Si      15.71415720       9.63454155      38.23791789
Si      15.37835540       9.89544510       0.55086323
Si       9.28900061      20.47647646       6.59544198
Si       9.75339640      21.81823123       4.72062710
Si      11.65180505      23.06143624       5.33786145
Si      11.94952198      24.30250945       3.36268984
Si       7.79383970      23.33777927       4.52506215
Si       8.10619524      24.79345211       2.70464866
Si       9.78774574      38.75481548      15.84784840
Si      11.57635160      36.91994766      15.58134804
Si       8.75812065      34.54167894      15.79754903
Si      10.72795426      35.17766199      16.91359761
Si      12.67066255      32.73403063      14.81086133
Si      12.28576081      33.41966703      17.02718967
Si      14.27814576      34.12156870      18.06065959
Si       5.86714709       2.10798511      24.53615581
Si      22.61029630       2.55616348      12.00424516
Si      16.24605411      27.82369809       1.56007039
Si       8.68917795      19.99695464      24.68901003
Si      35.13298275      39.88920131      34.49139118
Si      13.01474888      28.12755441       7.91077248
Si       4.82218463      22.70951577      12.21848379
Si      33.27025301      18.01476357      12.87979500
Si      10.78102904      15.33482679       2.71416645
Si      20.61104105       9.79822074      33.76954595
Si      39.06931001      30.43569419      25.39615950
Si       5.21597678       4.97248756      38.33742356
Si      15.65166497      11.56792909      33.96902423
Si      35.47244369      14.41047464      31.33270821
Si       5.92901316      20.87141969      18.63821300
Si      28.05838641      37.10342512      19.42567140
Si      30.05895949      30.36594418      17.31761004
Si      25.66072368       9.73505639      38.34490493
Si      19.07082787       8.81605951      38.11423920
Si      39.57165938      13.85911075      38.43560868
Si      26.38920495      36.65805692      24.97135364
Si      22.75445056      36.63258107      29.98400094
Si      20.94092604      20.20434601      10.71953749
Si      10.89577189      31.03845640      26.86227631
Si       7.83764711      14.14410974      12.02927429
Si      32.63687366       0.74195007      39.16044163
Si      24.64177512      34.63184650      29.41367818
Si      39.04778271      20.23693522      30.94728261
Si      21.02457629      39.02250231      25.44120572
Si       4.09901363      26.68358280      23.58139989
Si      28.22842222      23.99466473      24.36367123
Si      12.98477782      29.34378964      29.86391699
Si      31.10591800      36.65648859      11.54714549
Si      10.01867552       4.68601206      21.48436498
Si      18.39672489      20.49521590      16.69961914
Si      23.13719933       3.40158923       6.46077730
Si      25.37658475      24.39494959       3.92955610
Si      28.56828055      30.89105660       1.96794750
Si      20.86364480      10.26521577      18.83778504
Si      37.58421885      28.67198581      15.79717209
Si      15.86387548       5.22948503      25.78510020
Si       9.10390261      26.81493659      27.25108014
Si      21.34266301      13.74251637      38.72728540
Si      28.23542355      32.24627478      29.49954381
Si       2.09269533      13.34324370      20.33162640
Si       3.16520426      21.09413950      31.54567003
Si      15.01697154      36.70299752       7.68660024
Si       8.36577831      38.48248114       6.91639045
Si      21.83779698      15.05730708       7.86662028
Si       1.66345216      33.89116306      22.02895056
Si      11.32673972      17.87693930      15.48005036
Si      27.84699077      31.97001443      36.83168001
Si      22.80862197       3.17325124      24.82079226
Si      30.34935895       9.00720697      23.19533989
Si       6.79506996       3.29602031      11.94660581
Si      30.00254886       7.06639885      18.78809907
Si      23.49126397       6.91950447      18.75577213
Si      38.38956070      11.46136655      12.38213803
Si      39.39635583      26.41846879      15.04647924
Si       4.15475613      26.31594165      38.13311875
Si      30.74446825       6.70858951      14.85311467
Si       3.07209043      12.85949283      35.13443700
Si      18.91352334      27.49938105      31.60905138
Si      29.35702169      16.48838846      30.25192395
Si      33.12242619      15.82708787      25.98910984
Si      35.80258765      30.67718018      23.56607914
Si      10.50174485      19.23539945       8.18305363
Si      32.12652967      27.65876701      39.48873134
Si       4.20532356      23.34103223       3.65215102
Si      33.89110812      35.10949197      11.03175953
Si      31.08136451       4.33668466      29.27232900
Si      36.07272100       2.90631445       9.03481576
Si      16.64167249       1.89650961      11.08561808
Si      20.85550072       7.56289003      39.41212093
Si      36.26199809      31.19321596      29.61419177
Si       4.43018398      31.64459823      39.68049858
Si      39.62477177      16.61073205      36.55910671
Si      11.06701627      35.27495857      32.48838323
Si       3.49098416      28.73540676      39.58925397
Si       8.86754166       9.91034018      35.08048551
Si      10.37584651      33.34087166      18.88166595
Si      24.39091552      20.98681894      23.13640891
Si      15.01781008      18.78867030      37.78860461
Si      16.85487122      25.09096096      37.84037533
Si      34.27880600      25.96400124      39.76339176
Si      14.55344595      38.40545465       3.22070309
Si      34.11780678      10.54783195      28.82683013
Si      23.30986570      23.58447362       6.52607212
Si      25.63946249      22.75730069      18.29692486
Si       3.56587551       8.85411509      26.96806144
Si      24.52456687      36.76954899      28.44173751
Si      35.11509867      24.82571909      34.76559343
Si       1.68599621      11.67151273      26.47159476
Si      15.80512086       8.28958914      30.39633616
Si      38.60596825      33.89120434      26.07546396
Si       7.50415235      27.59716378      19.04287155
Si      16.99719006       1.68949362      29.67659641
Si       1.27807466      27.69262543      12.62567582
Si       9.85887101      16.63406105      12.63923813
Si      24.94225851      16.84628054      13.15319130
Si      39.80240137      11.14781512      17.24997477
Si      16.56200570      19.81845659      13.50050827
Si      27.70265197       8.16529630      24.35055521
Si       8.46320204      19.26575733       0.16578621
Si      22.26326888      38.53135818       3.05623867
Si      24.64197593      29.26474454       0.21447232
Si      14.05972722      22.19414605      34.44954557
Si      17.02827612      36.90340482      12.42639350
Si      32.62802346      23.75878271      20.16461327
Si       5.92084709       4.91041987      16.21861212
Si       8.51791461      26.63283013       4.11092521
Si      13.68929485      24.21021395      37.77609052
Si      17.75223094      32.41950805       2.18084634
Si      14.14844127      25.07375259       3.67837957
Si       1.67505029      20.73924800      33.33004560
Si      24.46505371      15.62910958      21.56739089
Si      13.96279973      29.16582638       3.81935376
Si       1.11503623      14.06532639      34.63073202
Si      13.73829623      38.37404928       5.42768671
Si      36.99505388      39.76432797      11.65747473
Si      24.20507820       7.99113016       4.82937094
Si      15.09768534       6.90029360      32.15698074
Si      11.16156443       8.84544851      39.03296508
Si      34.52581512       3.40571696      27.95867599
Si      36.42627932      21.55481855      20.76261844
Si       4.23368811      26.78570654      12.49746482
Si      16.89226574      17.25870809       2.73001892
Si      14.30557713       9.45390158      35.29059195
Si      14.06350017      21.86757320       2.82801419
Si      25.62934197       7.08695104      17.79147629
Si      16.63550395      39.73911738       3.15513327
Si      16.71860526      13.27024557      16.05465750
Si       2.23426669      28.30479732      32.28553765
Si       6.15920462       1.96544621       1.70670099
Si      32.75373801      38.09932509      19.56979808
Si       8.10286131      33.64253253      26.44182785
Si      32.33897391      32.53172689      14.06288718
Si      32.60021335      30.61380028      15.39833943
Si      14.42798825       0.26564570      35.22985388
Si      27.70583150      17.06827272      18.00133515
Si      23.82223051      25.93060607      14.25189318
Si       8.05960077      30.70904061      36.26877479
Si      32.87643409      16.69651010      23.81829679
Si      33.25500801      25.45224637      16.99895339
Si      12.96505737      16.99067013      11.47592651
Si      19.59641331      18.52141299      25.02621483
Si      18.46648283      14.88285532      24.75702771
Si      25.09490107      35.16445941      14.12221163
Si      20.35262150      29.82237530      10.28171816
Si       8.48546390      37.75360664      17.52814264
Si      25.73517353      10.88630304       9.40146023
Si      25.21946403      14.28602948      36.22450956
Si      35.13223752      17.00055919      24.40986959
Si      36.78777774      38.33503001       7.68880873
Si      11.85466877      21.49484428       0.73787219
Si      12.52400091       7.94853852      26.53118807
Si      12.06086406      25.52838343      30.99662318
Si      17.40301354      37.97457340      19.85878557
Si      34.63554911      35.62203608       8.67747034
Si      17.58363849      22.32293071      30.80954607
Si      32.47027395      19.06299973      32.33846684
Si      20.67722860      13.35175806      29.87033069
Si       2.14863811      27.90759842      29.96913772
Si      22.48348119      11.31665962      24.63782914
Si      14.64367422      14.25100547       2.56447543
Si       6.95029581      27.55469794      10.20462675
Si      24.42782555      34.07720159      -0.03074961
Si      15.42512578      11.03312195      10.48995325
Si       6.73797862      38.78162994      14.36929336
Si      29.02848928      19.21450250      37.65408430
Si      14.31151540      13.72817393       5.51510902
Si      34.32045377      31.34557024      28.29414205
Si      13.45866666      18.70572672       0.74988678
Si       5.62014127      34.26757677       1.09865042
Si       6.39299013      26.29812570      23.23534414
Si      24.81586950      19.72087954      17.34855437
Si       9.22155220      14.10606841       6.56256989
Si      15.86158178      35.69545763      17.32173777
Si      23.68266470      24.98215878      35.95239319
Si       2.52564343       1.04278243      32.16375856
Si      31.99802650       4.88720937      35.67704140
Si      22.72309573       9.46065052      15.08254932
Si      28.64320032      35.51830697      31.82382166
Si      21.91453626      27.66717606      28.31059496
Si       3.05766830      24.43391445      39.70020494
3068
Lattice="40.0 0.0 0.0 0.0 40.0 0.0 0.0 0.0 40.0" Properties=species:S:1:pos:R:3 relative_density=0.96 cell_dim_angstroms="_JSON [40.0, 40.0, 40.0]" n_grains=239 grain_size=8.0 crystalline_fraction=1.0 grain_radius=8.440649961279794 pbc="T T T"
Si       7.33480455       8.54615320       6.30458835
Si       9.22342134       6.18438278       3.90290275
Si      11.71533822       3.98837572       1.25435862
Si       7.55717995       3.45165275       1.38591925
Si       7.07422929       7.24198258       4.21591423
Si      11.60934729       2.70808456      39.26156482
Si      10.36893013       0.81305195      39.97543049
Si      11.32620348       0.63900978       2.15840923
Si       8.19004337       1.76213684      39.52509636
Si       9.59332752       4.20189981       2.55952897
Si      10.27906842       3.74727244       6.67344244
Si      10.01000844       2.73693745       4.40075018
Si       9.38038128       0.54034961       3.78308904
Si      11.02734294      27.42572313      20.43649540
Si      11.55129366      25.77749085      22.21718033
Si      11.79665735      26.50156604      24.46993800
Si       8.10689720      27.63386261      23.61776892
Si      11.10521008      31.52302562      19.35657519
Si      13.60471620      29.48504372      17.75985118
Si      14.79552406      28.87622865      20.70544813
Si      14.81876076      30.84043576      19.29301415
Si      14.90298266      28.96499536      23.04653043
Si      13.24529035      32.46864996      20.11140011
Si      10.34458332      29.86771668      20.91240386
Si      10.33628946      28.36525355      24.32134185
Si      11.05877421      30.32101563      23.13964467
Si       9.70883661      28.91214004      26.53117743
Si      13.43611694      30.81564840      23.37348954
Si       6.36306483       0.62439676      20.12465605
Si       7.02091597       2.67532106      21.35077052
Si       4.34063736       3.42143837      22.32255994
Si       6.11459245      39.58061307      23.43730157
Si       3.83197162      -0.14293458      24.04522214
Si       3.95826091       1.21468624      26.03225171
Si       4.60857110      39.19528418      19.44107119
Si       2.75945314       0.53322201      20.08604499
Si       2.55245191      37.62633006      24.30528425
Si       2.17427096       0.47111353      22.42141630
Si      13.66136216      19.91795617      10.61631136
Si      14.41070064      17.80083705      13.85695451
Si      11.96555485      18.27225451      10.16581463
Si      10.26188889      19.66062843      11.17778522
Si      12.54683318      21.57330877      13.72992686
Si      10.26242029      21.18605155       9.20593386
Si      12.31506606      23.06425019      11.87849337
Si      10.65837690      24.63370611      12.41516220
Si      12.38597724      16.41479818      13.44072412
Si      10.81521727      14.87540595      15.52506646
Si       9.79985725      18.50216192      14.30430570
Si      10.45470198      15.30382407      10.89097094
Si       7.20861287      16.76298009      11.47562360
Si       6.35321647      19.49166113      10.92680965
Si       7.60471670      17.62188633      13.71907820
Si       5.68123866      18.45589942      14.90531921
Si       9.52026960      19.65642127      16.39171334
Si      10.31760955      20.67166087      13.34152981
Si       7.26899908      22.90961966      11.68235933
Si       8.48954842      22.18345708      13.70417563
Si       6.19144269      20.97879210      12.82228854
Si      17.69952762       6.14521813      22.93098766
Si      19.48915158       8.09130869      21.33884267
Si      22.55167466       6.89632773      22.96069212
Si      19.79337979       6.17387705      27.04809199
Si      19.40860567       7.90088226      25.39418164
Si      20.13756445       6.96839731      23.34407715
Si      19.57740923      10.45459460      21.53632581
Si      26.18173518      20.51855794      27.95410625
Si      23.95657622      21.04563264      27.12761058
Si      24.06168108      21.98373042      24.90154541
Si      27.04339793      23.69248549      26.50348685
Si      23.35886147      24.87725474      27.18180740
Si      22.03980044      22.37733222      23.66842594
Si      21.68502050      25.69494171      25.63032543
Si      22.22160779      27.00217509      23.77786560
Si      24.97563503      24.20015165      25.42358352
Si      26.21819773      25.26300164      23.42655221
Si      23.95933367      25.82496032      22.61579421
Si      27.69894236      27.04217049      23.86927666
Si      26.85442000      28.73687383      22.50111702
Si       4.18717176      25.00239778      32.69513502
Si       4.91116744      23.15465649      34.08850307
Si       3.35100437      23.63985625      35.92268280
Si       4.42979369      20.80602326      34.60551101
Si      34.74370959       9.94568536      36.04672248
Si      35.97706121       6.04262619      36.25140870
Si      36.54556882       5.68446349      38.63234063
Si      34.67899539       6.25135231      40.03199435
Si      36.61849584       7.23759746       2.00575206
Si      33.39253494       6.70436957       3.08153612
Si      34.31706592       7.64871774      35.58857421
Si      32.39781051       6.92624695      36.76848090
Si      30.57229624       8.20119096      36.03683501
Si      33.18917494       7.64445014      38.89543953
Si      31.36747996       7.89331955       2.67001666
Si      31.15074185       7.51474001       0.25085154
Si      35.85385603      35.40387789      16.26524126
Si      37.10560160      37.95027944      18.94660013
Si      39.33473670      36.82141333      16.24009886
Si      39.65579364      34.51343851      16.96796619
Si      35.33568123      34.53699745      18.43752772
Si      33.18310779      33.46476394      18.21034808
Si      37.07082521      33.14164691      19.27951102
Si      36.11857240      34.47046881      22.94981207
Si      36.33261398      32.66888498      21.51825591
Si      37.51238302      31.29150864      22.92113731
Si      35.98263876      33.31835492      15.18014113
Si      39.54160458      32.13631894      16.48370426
Si      37.29304235      31.56824176      16.09538000
Si      37.15285247      30.85531982      18.36921599
Si      39.23700378      33.98639633      19.27252720
Si       0.38943249      32.45299018      20.72141266
Si      39.45425709      32.52251669      22.99859228
Si       1.80337836      30.23241581      19.05584459
Si      36.90995820      19.65293436      19.50838512
Si      40.02440341      22.06966746      19.43125047
Si       0.97749236      20.23602572      20.62747935
Si      38.62577745      18.11580246      20.39786219
Si      38.01491404      22.12942928      16.22636755
Si      36.25168376      18.61393757      17.43564735
Si      40.24541506      22.06607585      14.98574112
Si      38.58221068      20.73606790      18.08467939
Si       0.91006754      18.03594260      19.43982075
Si      -0.01308041      18.90619226      17.36470924
Si      38.24171045      17.42082750      16.69655151
Si       2.05035611      19.14562961      16.18687647
Si       5.00505170      22.32555706       4.49198717
Si       3.75768584      26.15772554       3.04834449
Si       4.56548436      23.07331449       0.73650811
Si       1.07480768      21.14221488       2.26404356
Si       6.38482507      22.43357720       2.46595790
Si       6.95932279      20.86828165       0.66493257
Si      16.97019419      32.48561042      26.44290344
Si      17.33052523      34.30016696      28.97713414
Si      18.12750786      33.12568467      24.47210388
Si      17.14518815      35.79919882      25.02523225
Si      16.30657321      34.71789779      26.94822648
Si      13.33502744      37.33032746      27.60474479
Si      19.14951028      35.33886105      31.68172920
Si      15.71688634      34.35092068      30.65043807
Si      14.19136476      36.09759656      31.07087301
Si      18.78645941      36.06080034      29.42737118
Si      17.26904255      37.88209963      29.53171479
Si      15.61210557      38.01298661      31.28169650
Si      18.09316193      39.89169989      30.47515649
Si      27.65124516      19.36625687      23.98796975
Si      26.73467396      16.89518052      22.36875412
Si      29.16231436      15.87983152      20.29920257
Si      28.06608892      18.74749326      21.69570184
Si      28.37511852      20.46372745      19.90707564
Si      16.61370956      14.58480931      14.22538441
Si      13.98097725      12.80960148      11.91180136
Si      12.95686058      13.98292461      16.37481088
Si      15.00605030      11.49341939      13.79881582
Si      16.87033963      16.24594211      15.95214359
Si      17.95493107      15.19667845      17.80306110
Si      21.53557276      11.09950907      13.93125447
Si      17.32885343      12.31412868      13.97279812
Si      18.84499599      11.81362074      15.89340173
Si      20.77230354      14.96655688      15.38592581
Si      20.04707105      16.17050951      17.27037212
Si      21.09539043      12.55262600      15.80786961
Si      14.42264127      12.01086745      16.09865828
Si      16.06365600      11.39960025      17.86830370
Si      13.05002459      14.55511704      18.68422745
Si      17.29633525      16.18950125      19.81228053
Si      15.08470033      15.32535222      19.93320777
Si      15.39102795      11.60622905      20.23596770
Si      19.02728787       9.55342187      16.54705790
Si      18.02561934      12.77341569      17.88533441
Si      21.69787927      12.54165410      19.88274506
Si      19.55514983      11.63422604      19.46789310
Si      30.46692708      10.39333438      36.97007957
Si      31.49671823      11.05402173      39.04935337
Si      32.95973975      11.52171928      35.44561840
Si      33.29310060      13.25406679      37.11483738
Si      29.69023438      12.49407710      39.46392001
Si      31.41600262      14.70216894      37.60282034
Si      29.93696539      14.37155419       0.89616179
Si      34.74002127       9.74885563      38.49742301
Si      30.65752521       9.68215900       0.79003750
Si      35.74580714       8.93652275      33.82624112
Si      34.92545476      13.71361514      35.46589979
Si      33.69795893      11.87669737      39.09720853
Si      32.41969588      15.04889458       0.96066635
Si      34.15805342      13.37778903       0.93396724
Si      18.81857901       6.95441161      35.89271919
Si      17.68043172       9.71787013      36.96231532
Si      21.01375275       7.70908877      36.40249787
Si      18.95597425      11.70257727      37.60234708
Si      18.30584030       8.96611862      34.73602250
Si      18.61709657      11.36262651      33.60054658
Si      19.52240527      15.59942380      36.78509803
Si       8.97062706      21.42457389      29.50448100
Si       8.47367622      23.59193352      32.38899356
Si       9.51809380      19.14864413      32.58624628
Si      10.11289276      20.60412074      34.45735133
Si       7.17666690      23.66173004      34.44513080
Si      14.94257460      20.45325394      33.02376653
Si      10.35404757      22.76352589      33.51072542
Si       8.83865145      12.25338249       5.27625479
Si      12.56432690      11.88163220       5.21404097
Si      12.60814277      15.66873553       4.13103314
Si      11.27332360      17.40066086       2.92666602
Si      14.12315692      20.28160190       4.63986809
Si      10.69208450      11.57169538       6.63288776
Si      11.12917459      13.62958191       7.65505080
Si       9.27169564      14.83478093       8.62131644
Si      13.41017260      13.49954223       8.31405040
Si      13.70243342      15.60880782       9.33458981
Si      10.82600953      14.93913433       5.67554966
Si      11.03864459      19.28289946       6.06221609
Si      11.23104039      17.07890583       6.74400847
Si       9.90055720      17.15518435       8.72751333
Si      13.06332913      17.64839966       8.07312622
Si      12.79963355      14.83675683      11.61204944
Si      15.33273712      15.84321962      25.66293675
Si      17.24458822      16.34025069      24.32111451
Si      17.46898135      14.59364484      22.64069573
Si      19.10919227      15.32974849      21.12598053
Si      16.86172524      12.38139110      25.53816565
Si      17.46638202       9.08101780      24.73302560
Si      13.19994788      15.72885051      24.57675908
Si      15.32912544      13.80622003      21.71740414
Si      13.54925170      13.65358169      23.33606231
Si      14.57122460      11.92321057      24.72222400
Si      18.36010150      12.82482479      23.85502478
Si      17.78402468      10.70065120      23.02277743
Si      16.24004450       9.61947241      21.29414070
Si       4.96417739      31.86027296      31.79752494
Si       4.88104371      36.07695511      33.15498646
Si       7.67385466      33.13639057      34.25258985
Si       7.33160304      31.69032492      32.15631846
Si       7.08304429      35.36234301      33.65434645
Si       8.61935613      36.11106176      32.09162609
Si      -0.66400031      35.02177097      34.72979684
Si       2.45949304      35.40982860      32.25586988
Si       3.78045805      30.92870768      29.94700708
Si       4.40966618      32.29476066      28.09612020
Si       4.38134003      34.16086922      31.78133189
Si       7.94558878      34.77239232      30.12641909
Si       5.63030655      35.40859166      30.23617010
Si       8.53831040      35.64070790      27.86595774
Si       4.85955193      34.64045951      28.08547340
Si       6.85407225      31.91214995      27.70571491
Si      15.06175007       1.86851110      34.01399850
Si      15.50872449       1.78777806      37.63751683
Si      16.45286767       0.10755117      36.35355018
Si      12.29300211      41.01030022      36.57440947
Si      14.81399280      38.25486242      36.51350292
Si      18.53104708       2.73311546      34.02160005
Si      19.38427644       3.26642063      38.58631684
Si      19.80645812       1.17516988      37.69770409
Si      17.09625320       0.76202315      34.09843870
Si      14.51778442      36.59144323      33.43756456
Si      17.06063854      38.54322325      33.08671874
Si       6.17080926       9.81642284      27.14330390
Si       7.53804599       9.12501474      23.19205655
Si       9.11117000      10.94741322      22.76199110
Si       5.95006876      10.91180682      23.81881566
Si       7.84615140       6.23903264      25.80663709
Si       8.86010895       8.36440007      25.37834932
Si       7.76129582      10.58837883      25.43382695
Si       8.46122406      13.81219000      25.25407825
Si       9.83349154      11.90904507      25.73602736
Si      33.11183580      31.38020370       4.95099966
Si      35.02150563      31.80082505       6.35649383
Si      24.54595837      28.19859245      22.39403944
Si      22.08024036      26.33762854      20.39253588
Si      22.91777358      30.53854304      19.10771717
Si      22.80671933      29.32631340      23.63691616
Si      20.82755151      30.69632805      22.59109287
Si      24.00505264      32.48946039      22.34680062
Si      24.57257929      31.83994711      20.15982410
Si      21.74645408      32.80628976      23.21138311
Si      21.00568745      33.75407108      21.05449715
Si      20.34798700      26.38944386      22.47600661
Si      20.36031041      27.85519675      19.69176336
Si      19.70907711      27.65680579      17.43003250
Si      17.79048221      28.29916023      16.05878096
Si      18.43955418      31.15120101      23.14569164
Si      17.07840299      29.40890828      24.00769665
Si      17.18692280      32.28718623      21.47461609
Si      18.45398419      27.38025585      20.99687834
Si      16.95870480      28.96751949      19.81850346
Si      20.82365228      30.12828862      20.12863452
Si      20.40481693      33.41691740      18.69963336
Si      19.38557798      31.19900431      18.39893647
Si      19.52101301      31.33211867      15.87391639
Si      17.15849530      31.49513051      19.22404171
Si      18.60101161      34.25021108      21.63076984
Si      16.16589736      28.19549217      17.71383242
Si       3.12272999      35.99974345      15.08887048
Si       6.63238860      37.39380941      16.89711129
Si       5.25448290      39.41557822      17.13300030
Si       4.93873763      33.79502631      16.33634872
Si       2.86844175      32.80365105      16.66907385
Si       6.84466865      32.39626891      16.53243130
Si       4.63081322      36.09793234      16.95280687
Si      14.99616416       7.52591286      35.20100189
Si      14.16617309       8.80472055      31.02131468
Si      17.30650888       8.41809586      32.57054165
Si      17.60874072       9.69102556      30.22890783
Si      15.65814834      10.22743436      32.28719048
Si       0.35038140      20.95952983       8.13326219
Si       0.43060803      23.30406920       7.60362388
Si       2.44790970      23.98535646       6.48413487
Si       2.21876601      19.90649164       9.22146959
Si       3.58301885      20.26904551       7.24720142
Si      39.50581589      20.32122507       5.86010414
Si       1.22773903      21.51687059       4.53859324
Si       1.81987412      23.84043570       4.16123879
Si       3.37573220      20.52862519       4.94126471
Si       2.52172960      21.32553961      11.02850300
Si       4.95592607      22.61991412       9.37711389
Si       6.18771925      20.59483290       8.85685981
Si       8.01744835      21.93340734       9.59580637
Si       4.17836535      22.53392305       7.12538664
Si      37.79915395      13.16411268      28.72966479
Si      34.55363623      16.05325747      28.90364233
Si      37.33805567      18.03174407      28.06406428
Si      37.51521073      16.95307086      30.15056968
Si       1.43812701      16.16022790      28.76572430
Si      -0.14103029      17.31238621      30.06512446
Si      34.43346103      16.27291772      32.46613105
Si      36.66357084      14.77478926      30.18843693
Si      36.46618124      12.40246668      32.74364855
Si      37.55223794      14.50287648      32.45894570
Si      39.94667821      14.46449044      33.01915276
Si      36.55146045      16.29421194      33.70758034
Si      13.24158725      19.86270387       6.79432974
Si      16.04108596      15.53815810       9.24531470
Si      15.42701421      16.98713417       3.83322579
Si      15.53827395      14.10110515       7.44829903
Si      17.17701817      14.09891202       5.78245225
Si      17.13211509      11.74439134       8.71144834
Si      15.65704400      13.32223879       4.13894982
Si      16.24562657      15.55096385       0.71129063
Si      17.03594822      12.69213988       2.34295400
Si      16.74342916      17.80930282       8.80096804
Si      18.10022054      17.82102889       6.83329518
Si      14.45125556      18.91591152       2.83732876
Si      18.33359345      19.51091864       5.17720705
Si      17.81696473      14.45504869      10.50293611
Si      19.01997379      13.15039102       6.94713552
Si      19.55333272      14.57529984       8.82181704
Si      21.15121871      13.86393236       6.02801546
Si      19.99848461      16.87178640       7.92989094
Si      21.80742162      14.04816060       9.28024030
Si      17.28597241      16.33836702       5.19418679
Si      18.29474324      14.67097294       1.66332700
Si      18.91173584      16.17990436       3.47595557
Si      20.37063927      14.27811780       0.37769753
Si      18.86742886      18.45670962       2.97151366
Si      20.97409257      15.69841477       4.58946108
Si      25.39120354      27.23189074      32.56272687
Si      24.26371467      26.96985101      34.73712230
Si      23.99602675      25.44899331      31.63459051
Si      26.76071582      23.23981449      32.50976066
Si      24.31611994      23.24522713      32.34407651
Si      35.78940733      17.95669717      21.12817514
Si      36.68611452      17.28635761      25.70704082
Si      37.05025607      19.69545455      25.75437684
Si      38.17851454      17.15505509      22.55279909
Si      39.22334765      19.40228147      22.43221271
Si      39.35481571      19.38722474      26.33757151
Si       0.73051912      17.26562874      25.22172145
Si       1.39366707      18.38841990      23.20082639
Si      37.34011804      20.58511198      23.51299125
Si      38.75134299      22.33393409      24.20150972
Si       1.15401747      22.32353679      24.09230604
Si      20.32791169      37.03568240      23.92682854
Si      22.35532768      37.14621776      22.69853822
Si      24.86530399      31.49441936      24.36296430
Si      24.29951752      34.77828652      25.47374807
Si      22.12397381      35.84595352      20.77448366
Si      25.62678226      33.70465237      23.63446636
Si      24.30155528      35.65537330      19.93134080
Si      26.96613936      33.97918118      21.58877184
Si      23.14044692      38.39509091      25.72643301
Si      22.74295673      39.25493534      21.68259142
Si      26.17835773      34.30988693      26.99628069
Si      26.83183159      36.32379370      28.21439821
Si      27.92719038      34.19738191      25.38938837
Si      26.53653469      38.26106885      26.87404040
Si      27.96082065      40.09773603      26.54869792
Si      24.32896088      37.04294059      24.12920071
Si      26.25430846      36.16172504      21.14867162
Si      26.18313110      37.88654364      22.79667778
Si      26.77972995      40.03376348      21.79017468
Si      28.24091415      37.85742059      23.99801491
Si      28.69365275      34.41084702      23.16780004
Si      25.88534817      19.63192814      13.33127527
Si      27.12624086      16.79018183      16.19015632
Si      26.03702334      18.79660543      11.15610575
Si      26.78490072      21.93022953      17.22392156
Si      25.43356863      22.90847433      12.94873370
Si      27.45256285      22.60969007      11.88624290
Si      28.04405585      23.81131602      15.71834826
Si      27.19348583      19.05776451      15.32642267
Si      29.95741289      18.95347387      12.60232123
Si      29.45756585      19.64322721      14.89597152
Si      29.15824739      20.61170468      10.06809952
Si      34.54047598      31.21003039      21.47302644
Si      36.43503193      30.29409553      26.69599860
Si      34.66504871      29.00180214      27.74275660
Si      35.17808923      28.93964556      21.63571652
Si      33.77092235      28.30820350      23.58278190
Si      34.05838823      31.99666321      23.65979999
Si      32.35507733      31.48553707      25.17010381
Si      32.73761791      31.67129518      20.06176157
Si      31.68933807      27.99422636      22.29997718
Si      31.19875351      30.17273484      21.33621447
Si      30.11557073      27.11577444      23.95726172
Si      30.71404134      31.12975674      23.49493850
Si      29.08534416      30.72129551      25.16904109
Si      33.10841344      29.35050700      25.80813487
Si      31.57369384      28.09406422      27.18215998
Si      30.86651331      29.05366028      29.28248318
Si      29.60692269      28.45646331      25.92287463
Si      29.32721032      32.65020987      26.69231759
Si      21.29575119       4.22925829      19.81601528
Si      20.63027672       4.68481150      23.50446406
Si      19.53598191       2.58777449      19.38205494
Si      18.89566506       3.08837875      23.68468126
Si      20.26934447       0.50706049      20.25735494
Si      22.87556272       3.27202066      18.40295634
Si      23.72251497       1.27373913      19.20154294
Si      22.43230391       4.63111299      21.90436393
Si      21.31049291       0.94859181      22.46173524
Si      23.04203248       2.55835613      22.86089225
Si      24.44351755       0.93609779      21.77388968
Si      22.29785767      39.45329057      19.35670935
Si       3.81023086      28.46820855      12.13207369
Si       1.13554572      25.85741517      11.01176551
Si       4.97494674      24.29404053      14.10785517
Si       2.13655041      24.20675861      12.33933252
Si       1.58323257      27.64432317       9.62465572
Si      38.87415760      29.27752964      36.04030097
Si      37.22320665      30.90044162      36.06251346
Si      35.97260915      29.83098370      37.90138866
Si      36.48895460      30.89069710      39.92329864
Si      34.25194723      34.08708382      39.42826701
Si      34.16889363      34.47721303       4.09761782
Si      36.47639665      31.41966106       4.57807638
Si      32.03624488      33.62735547       4.12121554
Si      37.21498604      34.58378668       2.88415275
Si      34.40733049      35.76790060       2.07617618
Si      32.64284267      35.53126055       0.50039054
Si      37.32190997      36.83199637       0.11580703
Si      35.43452745      32.83480777       2.94118341
Si      34.56047118      32.06882568       0.79172188
Si      30.17852139      35.56588010       0.56480587
Si      36.28763395      25.39176382      33.46174252
Si      37.18727695      23.22113785      34.13079778
Si       1.05047866      22.58386603      33.61122371
Si      37.57214578      23.46899420      36.46123486
Si       1.09481522      24.18890695      35.32550456
Si      38.96693250      22.61048408      30.62625402
Si      35.13177638      22.75524438      33.05010228
Si      36.36106325      21.27528001      29.44215064
Si      -0.35395148      19.18854228      28.69491363
Si      38.84230660      22.08178214      32.90909380
Si      38.56943928      19.71156767      32.49269201
Si      36.74236608      18.19746863      32.07201486
Si       2.02999821      19.59105584      31.97765199
Si      37.06157088      12.58871791       7.27156420
Si      38.14108315      16.57436552       6.59457604
Si       0.21872277      14.56074917       5.34063905
Si      36.48248230      14.71493154       6.43492498
Si      35.16422714      14.66192813       4.43260863
Si      38.52696229      11.71866205       5.60044489
Si      38.52563457      13.40146151       3.91686246
Si      39.76485140      16.83901335       4.76395237
Si      38.41820193      16.59094610       2.80684568
Si      37.45049095      18.91830284       6.20310303
Si      33.85193803      16.61854531       4.76607608
Si      36.08569807      19.47358819       4.28690851
Si      37.89431459      18.90476844       2.73846361
Si       0.52837946      15.76720280       1.88831934
Si      36.91867150      14.83079245       2.84170786
Si      36.44659597      14.05631616       0.55430076
Si      13.43339815       3.93617628      27.29587670
Si      14.06060959       6.67157056      23.48864197
Si      16.12766818       7.99645087      22.99255908
Si      15.41946433       2.47145732      28.01435969
Si      14.10389261       5.80316357      28.54944279
Si      16.44018585       6.16204534      28.66105592
Si      15.03387149       3.22423354      25.09545442
Si      17.87193258       4.94924838      25.05555800
Si      17.31098095       3.55938315      26.94709449
Si      21.25814029       2.52286357      26.46273338
Si      29.53105788      22.21503420      29.37227547
Si      29.26016602      23.41096397      27.39368740
Si      32.06112354      23.40450208      32.55123951
Si      34.28801504      24.94551245      32.04529177
Si      30.92169018      23.71997655      30.49397696
Si      29.76729543      25.77696550      30.59477046
Si      27.75314139      25.40059633      31.79461816
Si      30.87174970      27.83042145      31.42571751
Si      25.51505371      22.73755584       1.57169471
Si      24.87095442      22.62517124      38.03689728
Si      22.93206755      22.22484806      39.42784786
Si      24.83140123      25.01283527      37.87642609
Si      22.93099152      26.45160734      37.91162963
Si      27.87342676      24.77175461       4.22303422
Si      26.38264229      26.89761454       3.83547189
Si      24.41681951      22.34731171       4.90715791
Si      24.89375680      25.05186327       5.97129566
Si      22.41428407      26.75565273       4.56956006
Si      25.10800567      25.86142669       2.08010205
Si      21.80686730      26.21616614      40.01534889
Si      22.93042402      26.76676138       2.16517010
Si      21.77097637      24.42911643       3.82186057
Si      23.38181724      29.18503617       1.88442396
Si       3.51405456      33.23055784      38.48936357
Si       1.06065521      32.58641821      34.74514491
Si       1.60529313      29.63934363      37.48604215
Si       3.79242814      30.02675522      36.72410932
Si       5.18557168      29.57919412      38.58394290
Si       4.44684095      29.04953914      34.61625229
Si       6.89797939      28.72399868      34.53718796
Si       3.67457457      32.40604627      36.22312336
Si       6.14454134      32.69354942      36.21690769
Si       7.45800001      32.69977305      38.21311352
Si      16.85042298      12.82440947      37.37946361
Si      19.67536128      16.34875171      39.03014622
Si      15.39189244      13.94436072      38.86851081
Si      18.55789770      13.59782221      35.89237370
Si      15.43977635      11.08353924      36.55723195
Si      13.58873544      12.40191651      35.91092268
Si      14.90336141      15.85713900      37.22738511
Si      23.13402920      22.83478854      18.46732593
Si      21.78376419      22.62130961      16.01942055
Si      19.71224739      23.12684120      19.60802627
Si      21.88764215      24.05283679      20.03657955
Si      19.69937723      22.35366665      17.21678762
Si      19.90160450      25.40267846      16.76718188
Si      25.31354467      22.51303881      15.30613547
Si      21.38185610      22.63367397      13.62766083
Si      23.23443438      22.27730930      12.12468683
Si      21.57670544      24.92884726      13.03827960
Si      25.98834039      25.23966713      12.55689606
Si      23.76992437      24.00580426      16.46264822
Si      19.98656053      26.03000055      14.39084349
Si      38.98222549      39.12229378      21.65636332
Si      39.22209367      37.51595902      19.98320155
Si      38.83572741      34.97430257      23.02284780
Si       2.56124016      35.70107979      20.81560150
Si      -0.02581428      35.49586899      20.96207278
Si      21.94462730      34.02336439      29.07774209
Si      22.97821142      36.34256879      26.94433680
Si      23.02765609      32.73006658      25.34882005
Si      19.91046488      34.57230939      23.72851238
Si      21.00036756      35.99238879      28.30039055
Si       5.25738710       2.65627366       6.83494096
Si       5.68789339       2.67907774       9.13489753
Si       5.98239429       6.31166649       6.51181693
Si       6.62164134       6.10028768       8.88373067
Si       8.12930032       2.55812141       5.90279334
Si       8.73229067       2.74516221       8.14477086
Si       6.36817947       0.84130155      10.41399766
Si       7.59044852       1.00642947      14.28187556
Si       9.81938214       0.97307132       9.31137737
Si      10.77864755       1.39499877      11.44593306
Si       8.41257050       7.59840946       9.22358949
Si      10.33780630       7.70862048      10.57915222
Si       7.50615660       4.04705092       9.66032756
Si       8.83881455       4.13551228      11.66145444
Si       9.50863047       2.39596390      13.26232473
Si      10.84265346       5.39570646      10.86985294
Si       9.28131901       4.32069586      15.12055320
Si      10.91724020       6.13891123      14.40435174
Si       4.53004334      35.22514370      39.37563558
Si       5.81873329      31.46106905       1.66605501
Si       1.36524902      36.87774823       1.24403586
Si       2.88691194      35.07877910       1.05694725
Si       4.08428269      34.78179173       3.12020467
Si       2.77357662      34.23084510       4.97654222
Si       7.59953620      34.17522175       2.09303766
Si       7.74058084      30.02974637       1.37013558
Si       4.95843029      38.07612146       0.31393620
Si       4.89978157      36.87792854       3.95429501
Si       6.64380677      37.69481060       2.51129666
Si       5.62979958      36.45115991       6.20079685
Si       8.60167212      36.30325800       2.53424158
Si       9.20439789      35.44679704       4.85774346
Si       5.80190619      33.15402739       3.32223703
Si       5.83219126      32.33185000       5.61265285
Si       7.84227978      31.12770870       5.86886197
Si       7.57211767      34.97845989       6.50348207
Si       2.80690661       8.44033286       2.32122786
Si       6.65809089       9.33730712       3.07986979
Si       4.24949034       7.10170033       0.90809297
Si       4.44888526       8.33415429      38.80391838
Si       7.39030992       9.86561971      -0.30600961
Si       5.27717278       6.88268167      37.10656392
Si       5.64634071       7.92070784      34.93532784
Si       4.41759532      10.13284255       2.50286863
Si       3.99343528      11.65726844       0.76468389
Si       7.14703074      10.61189459       5.03137362
Si       5.77129215      13.20196056       1.45947536
Si       5.75202919      14.42718655      39.40174315
Si       5.22645036      10.54969169      39.16188435
Si       6.90229008       9.68307254      36.03980283
Si       6.03550715      11.61459204      37.21761910
Si       7.45831351      13.56326191      37.52660846
Si      25.26181899       3.15095140      40.42530996
Si      26.69519153       3.95634651      38.62453541
Si      28.84369017       4.09972792      39.81529333
Si      25.60738879       1.76874890       2.55775931
Si      27.12616141       1.54698853       0.83711161
Si      24.08398349       2.12406309      36.62042560
Si      27.38228642       1.90845650      37.45788053
Si      27.14319545      40.06345512      38.92549429
Si      28.54725656      38.43384919      37.59628480
Si      28.93129385       2.72869499       1.72685558
Si      29.99090094      40.27732979      38.78524357
Si      30.48634807       1.19377685       0.88810854
Si      14.00465311       9.80349307      19.41692561
Si      13.30098286      12.82333059      20.26207059
Si      10.90434599       8.05314912      19.93033048
Si      12.94188405      10.75924092      17.51698082
Si      11.77669132       9.00896172      16.53551407
Si      11.22650447      12.42753622      16.98847704
Si       9.97278672       9.07016748      18.00701190
Si       9.46754856       7.48124246      21.63095847
Si       7.23342534       8.18920232      20.99723602
Si      12.49967857       9.25509136      21.12358085
Si      11.65611840      12.84772779      21.99523800
Si      10.69949062      10.80485206      21.04653692
Si       9.31411933      11.03567858      19.18755953
Si      34.96692535       1.70657189      32.50379081
Si      34.22755430      38.64340820      29.71163809
Si      32.59784919      39.44421001      34.29504182
Si      35.74279095       5.56609745      29.30874569
Si      34.77448762       0.99109509      30.24519093
Si      34.32463351       2.72951700      25.97798576
Si      33.17579216       3.17648142      29.53184257
Si      34.09641940       5.40834007      26.36831929
Si      33.08058760       1.68991633      33.94352434
Si      31.46645193       3.01189052      32.82715460
Si      35.37461458       4.04155187      32.92150576
Si      34.15325965       5.02710459      30.98924471
Si      32.13924594      38.19582467      30.64140415
Si      30.50303609      39.97912455      30.66185744
Si      32.11079556       2.60954594      27.07922212
Si      31.74163763      40.28685487      27.24502494
Si      30.08776548       3.00412111      25.51652702
Si      29.64271672      39.73730666      28.43216715
Si      27.81331034       1.32856513      28.61911377
Si      28.60807154      39.59348027      32.25720810
Si      31.07068558       2.33610675      30.62932353
Si      30.00121052       6.10578275      30.42363798
Si      29.15802510       3.85044054      30.36344385
Si      28.37061645       3.57719987      28.12434633
Si      27.18789171       3.33218799      31.63034023
Si      30.09538607       4.80114505      27.07285496
Si      10.66211854       6.67099788      -1.41141187
Si       7.13646480       4.99225021      39.75343925
Si       9.32366926       6.16228495      35.11406836
Si       7.96393948       8.55682891      37.84315036
Si       8.44097492       6.88156521      39.54928108
Si       8.23481002       8.49271055       1.48158454
Si       9.24373065      10.62558137       0.94856320
Si      12.60085753      36.26279845      18.77010994
Si       7.91928979      38.67191809      22.13864452
Si      14.48480384      38.48797759      20.96626879
Si      10.60527456      37.07247434      19.85799595
Si      10.50436599       0.54213261      17.29821457
Si      11.39748121      39.45306613      19.72881019
Si       8.29023671      39.36746343      19.94523864
Si       1.14052075       9.73070958       7.77228488
Si       5.11547583       9.12432950       7.54351467
Si       3.36453135      10.88122786       4.46582139
Si       3.22035807       9.65486923       8.98077057
Si       3.66592565      11.41241653      10.49556656
Si       0.87679877      11.81263234       6.32009672
Si       1.85466999      13.40731838       7.84345518
Si       0.67028298      13.85705551       9.80174784
Si       5.10696893      11.06980557       6.13452566
Si       5.47977316      13.18340488       7.20965372
Si       7.37625772      13.36174975       8.98406923
Si       6.06272571      15.33849218       9.55878986
Si       2.08323148      15.36786170       6.61093371
Si       3.88625776      14.34266482       5.52446815
Si       3.93442236      13.27470841       9.03637520
Si       4.21317801      14.84368622      10.99397066
Si      31.23401373      19.84441457      16.55690572
Si      34.08817654      22.83640341      17.16599332
Si      33.93375722      16.85773271      16.39124380
Si      30.14329508      25.21998700      16.46106186
Si      31.64372285      23.06031568      14.96849009
Si      29.61477515      22.03250920      15.49833588
Si      29.44379892      21.47226683      12.35651645
Si      36.12301461      23.66729201      16.19762425
Si      33.06119840      21.28741146      15.68552766
Si      34.73505799      18.33558511      14.71799454
Si      34.52095319      20.68605557      13.81802438
Si      32.35202467      20.02202377      12.73318247
Si      36.20478602      23.96479985      21.79983795
Si      35.07831626      27.44846953      19.71479988
Si      35.45129086      21.62902282      22.50469788
Si      33.22237290      24.06845326      23.98799029
Si      33.12734472      26.50554472      21.02304767
Si       0.99335388       1.21733581      30.29166393
Si      37.27588354       2.48438757      27.77919066
Si      37.14834869       0.95555519      29.78348012
Si      38.93188302       4.29958984      27.63183167
Si      37.79861865       5.75340188      30.47607779
Si       4.48570778       2.26447092      28.84845681
Si       2.10864776       2.97681408      29.18431766
Si      11.57957295      34.25447870       2.97341098
Si       9.78175253      33.63176194       1.57761827
Si      11.21191762      30.78278659       2.41535717
Si       9.13419192      30.33129619       3.83485307
Si      12.53805861      32.84671392      39.51753647
Si       9.75438286      35.62200266       0.29933511
Si      11.59918510      36.56686844      39.19884480
Si       7.93957884      35.98025549      38.87552839
Si       9.18801706      33.49635996      36.14997248
Si      11.74335504      28.97340514       0.79052520
Si      13.87126184      29.30164345      39.58906022
Si      10.01151423      28.30149271      39.27338707
Si      12.93661762      30.90198358      38.18644078
Si      10.54030581      31.79018792       0.33436805
Si       8.64038562      30.94267924      39.27551036
Si       9.23124681      29.59274518      37.37452355
Si      37.54158436      22.38796517       1.48719581
Si      36.67387118      20.15143800       1.15151827
Si      36.37499139      22.15428299      38.01317240
Si      34.01442660      22.05762781      37.22488086
Si      33.86336853      21.81766797      34.79786249
Si      34.29770872      19.93857402      38.26605712
Si      34.99732264      18.55746829      36.49376438
Si      35.99002524      15.71713422      36.32125138
Si      33.78164233      19.49640618      34.76121291
Si      13.65240073       4.11994808      14.14111778
Si      16.00862033       3.47386004      11.31077829
Si      16.32857054       5.58163080      12.36084373
Si      18.33998198       2.61486372      15.03504283
Si      19.01421488       4.86757082      14.53786482
Si      19.39891409       3.36022187      10.71925559
Si      17.64684887       5.13186820      10.39622795
Si      19.47061042       7.03982888       9.12473432
Si      14.48968814       5.82300473      15.81146032
Si      15.70707230       7.81599221      15.25310557
Si      12.32327449       5.39960558      12.71427886
Si      15.91670667       7.34967948      10.92683095
Si      14.00483511       9.23688692      13.64341332
Si      20.66168235       5.23157580      16.23807035
Si      17.48777608       6.68730585      14.08030032
Si      20.33119348       6.93109230      11.36794507
Si      18.87683142       8.13482745      12.82669479
Si      21.23759731      10.17949337      10.02505397
Si      17.63700589       9.89616604      11.71303402
Si      20.23833753       9.05534332      14.53040715
Si      17.90439333      12.42546589      11.72087058
Si      19.02592075      11.00976337      10.20947838
Si      26.91708991      39.05671170      30.65782670
Si      24.43122114      39.35365834      27.50061781
Si      22.92202036       0.18746597      29.32182973
Si      21.00857575      -0.12690330      27.72975989
Si      19.14890242       0.95403007      28.69343510
Si      23.67983624      38.00149679      32.78111021
Si      23.15587447      36.13326397      34.27487980
Si      24.60362231       0.16457873      33.28575759
Si      23.19454091       1.71423447      34.43797806
Si      22.13416269      38.77897279      31.12011360
Si      20.09971985      39.42462136      32.06009471
Si      20.98045548       1.33729097      33.36917647
Si       4.40198431      33.90940202      23.85784505
Si       3.71693290      36.09309232      22.89093310
Si       4.59742817      32.26434571      22.16096841
Si       2.36409516      32.92967867      24.59859954
Si       2.83829322      30.99034592      23.24842007
Si       1.25814477      30.39752430      21.42545742
Si       3.61315049      33.58585641      20.52399936
Si       2.16668102      32.62690194      18.98220712
Si      30.99365703       9.40375708       8.28122873
Si      28.74193303       9.17552084       4.18267942
Si      28.79626056      11.58437167       4.42669175
Si      30.30455190      12.44467266       2.77073212
Si      30.13781696       8.69265601       6.11069481
Si      32.07836053       9.25242052       4.54729038
Si      34.40524164       5.90606770       5.86345245
Si      33.26714801       8.65522547       8.79914540
Si      34.97225361      11.47269810       7.64727841
Si      35.01066909       9.12770583       7.28595523
Si      36.90022850       8.13540871       8.53024326
Si      34.21492385       8.19635623       5.14000667
Si      32.28694681      11.58329689       3.81855991
Si      34.42168935      12.62190870       3.18988065
Si      35.94835817      36.79483554      10.92316059
Si      39.86921644      35.92271153      11.93330558
Si      36.68882605      33.96239979      12.96894911
Si      38.93059845      33.67013045      11.95378183
Si      37.00670704      32.85716067      10.69513171
Si      38.27940042      36.58287588      10.26586389
Si       2.85646038      27.23067151      16.52221219
Si       2.05937683      24.88778064      16.64220609
Si      39.52196302      24.72996801      16.98580763
Si       2.48799848      27.93763594      18.78100533
Si       0.03684476      27.87887413      19.10377863
Si      39.46208151      30.17798730      18.05738779
Si       0.33413526      24.29705010      20.35046594
Si      -0.34732032      28.68214231      21.29824582
Si      37.44744170      28.94701080      22.46703257
Si      40.16018386      25.08467589      22.70988960
Si      38.96205226      25.73664888      19.05152169
Si      36.76426266      25.69414817      20.14424648
Si      32.82188683      27.92794827      18.73664417
Si      36.93929620      26.49473138      22.35772578
Si       1.92492767      34.97806368      16.87867527
Si       2.75704197      36.53840400      18.50379500
Si      40.71419255      37.91908901      18.13003862
Si       9.61458249      24.36953869      22.61824492
Si       8.18960860      26.00613771      21.83093527
Si       9.04295395      26.21833600      19.63940578
Si       7.52594402      23.00796066      17.59224170
Si       9.59673958      22.24709226      21.71436292
Si      10.35234763      21.55730358      23.85545330
Si      10.67283572      22.20887498      19.64737455
Si      13.80004527      25.08395669      22.31086750
Si      13.27388354      27.64859758      19.33503340
Si       8.04912496      21.48111920      15.93537897
Si      10.48371189      19.81736623      19.54619381
Si       9.48655968      24.08392923      18.48423665
Si      10.40674072      24.51876103      16.29720321
Si      38.85716843       8.66456325      19.04829947
Si       3.33388706       7.87460266      19.59246929
Si       3.70545646      10.07226382      18.69108683
Si      38.55856703      10.93254611      19.83675548
Si       0.34922249      12.34878355      18.98067780
Si       2.07294250      15.37964681      20.38409548
Si       0.47074208       8.22106313      17.08256808
Si       2.23505736      10.11144663      16.69584550
Si       5.88814156      10.26013299      17.83179231
Si       3.43227434       9.44796157      14.68077569
Si       2.56774132      12.37745002      17.77938895
Si       2.04957443      13.73003375      15.86366701
Si      33.04170373      21.91451973      22.84915065
Si      33.50424991      17.65245260      20.20020687
Si      31.61958732      19.14053320      20.27684504
Si      34.07037507      22.60749774      19.49612683
Si      30.87912224      24.83331289      24.07399399
Si      31.61474408      25.86890723      18.35304384
Si      29.99824486      19.25321858      18.53943606
Si      32.26147304      21.47463911      20.58281640
Si      30.49916825      23.14034280      19.92215096
Si      29.34718195      25.55094187      19.57487240
Si      29.08072100      22.39609938      17.87203960
Si      14.40151897      38.70942210       7.28939904
Si      17.54718344       0.83478975       5.32908763
Si      19.99645889      39.68386141       6.79968683
Si      20.08125986      37.97359930       5.17559403
Si      14.74364865       0.40928878       4.13534401
Si      13.35213363      35.23689243       5.75978572
Si      11.12722461      38.94291753       4.01969409
Si      11.01655965      36.80513445       2.77792052
Si      18.33009446       0.99087120       3.08518758
Si      16.83939314       2.44640104       1.86903390
Si      18.71762056      38.86652434       2.00687197
Si      14.78782574       1.19532011       1.85274784
Si      15.52184192      38.95991682       0.49681074
Si      16.02767811      39.03567617       5.56657389
Si      18.50206582      36.37757036       6.45022529
Si      16.90519744      36.96489475       4.79314688
Si      15.01709385      35.61405932       4.04269316
Si       7.43629991      34.93749302      36.77589496
Si       6.37579740      36.65256623      35.50989433
Si       3.33941518      36.54385119      37.76163045
Si       8.02045639      38.31592390      38.83058072
Si       6.08103133      38.81809318      34.32978611
Si       4.73098439      38.45764508      37.93697619
Si       1.77115824      35.09469761      34.49511428
Si       0.34029247      35.19003834      37.86519639
Si      40.15913399      37.58017875      37.52745629
Si       3.75352177      36.36482720      35.40030459
Si       3.67758861      38.54606174      34.44169165
Si      -0.07582022      37.98502458      33.86450292
Si      17.03095768      17.87656270      28.68229078
Si      16.98890525      19.56164141      31.93894270
Si      19.21207399      20.58924658      32.26893789
Si      16.66863927      20.17867781      29.58031956
Si      19.96430969      15.88312121      27.85440495
Si      23.74369771      20.13084382      30.31592537
Si      16.15954716      17.80218499      26.51578286
Si      19.42990443      18.06398500      28.69389711
Si      20.53590091      21.99628069      28.31898129
Si      20.10090316      19.84915515      27.27776105
Si      23.16051615      19.03261479      28.26319416
Si       0.70666513       8.57045681      29.03806709
Si       1.11891000       3.50978748      27.11792134
Si       5.37421679       7.86023624      28.15775430
Si       4.75001373       4.75085439      26.02609709
Si       5.77709346       2.65024272      25.54079126
Si       1.77783412       6.97110898      24.97308619
Si      38.39100799       6.42072998      26.58806872
Si      36.12426324       6.48190995      25.60617319
Si      39.44024278       6.72233035      24.39742301
Si       5.77692183       6.40051290      24.61873023
Si       2.45566621       4.81107928      25.70239689
Si       2.28120043       3.88965483      23.54798762
Si      11.50643133      30.98002855       8.47223897
Si      10.60642954      29.02590681       5.24986965
Si      11.18105801      34.22304790       5.29877153
Si      11.82575226      33.08355328       7.31826146
Si      14.26529395      33.58263369       7.30815765
Si      13.24143508      30.49637588       9.95821297
Si      15.49721744      29.98834508       9.75166119
Si      14.58966800      26.59526196       9.33688491
Si      11.66980929      28.11254695       3.29671543
Si      14.60259445      26.75055500       4.90620683
Si      12.38813208      29.94572812       6.53543607
Si      15.53757653      32.49457546       5.31053777
Si      14.45950336      30.42602667       5.54875895
Si      15.38353295      29.41645827       7.48861830
Si      27.57073120       5.70720225      10.35999528
Si      25.50550958       4.32871598       7.85370921
Si      30.25926596       8.07160485      10.24333028
Si      33.17043431       6.25067805       8.50509801
Si      31.67217130       7.07596152      11.98536968
Si      29.34508622       6.28800519       8.95076473
Si      33.62649910       5.68868854      11.82564805
Si      31.22843425       4.67557779       8.88128775
Si      34.81665808       5.26595782       9.81223273
Si      32.47188002       4.68643388       6.68571453
Si      33.74204790       2.71509876       6.99377653
Si      26.77566703       3.60970424       9.69302134
Si      28.24882463       1.85920929       9.14790455
Si      32.32710376       3.76570927      11.13193444
Si      30.20076390       3.32828396      12.12059382
Si      28.76426714       1.37961736      11.42253080
Si      26.65966468       0.40067773       8.13010637
Si      29.86995972       2.89351101       7.54428051
Si      32.53120327       1.70593540       5.21660276
Si      30.13476916       0.57300389       7.93363136
Si      32.14222719      40.11370247       8.96888270
Si      32.48654575      15.02990894      29.85163314
Si      36.98012547      11.44566966      30.58115902
Si      30.45668184      13.27465906      27.26133278
Si      29.67262707      11.63092986      23.48458554
Si      35.61930932       9.89600725      27.22982876
Si      31.10590512      11.68093332      25.54637261
Si      34.17464961       8.19114838      23.30761100
Si      33.18197886      11.95080783      24.44788527
Si      36.04771108       8.77311418      24.90086218
Si      30.80938924      15.58550633      26.49707114
Si      31.95508122      12.81789665      28.99546159
Si      34.12518102      12.41714079      28.20270386
Si      34.96850320      11.88466920      26.02079384
Si      35.15263885      15.62293600      26.63728880
Si      33.16053402      10.27493845      22.77238299
Si      14.31999925       2.48700618      12.52516745
Si      16.38548244       1.45299416      15.67782061
Si      16.58483278      39.81428613      12.11277996
Si      19.95909636       0.89080820      11.38857117
Si      18.41738942       0.76187055      13.37766464
Si      19.89645538      39.31396506      14.49262028
Si       2.37425938       0.95404269       9.14694320
Si       2.73977457       0.56104724      11.38051294
Si       1.53382036      38.82448103      12.43279570
Si       2.34242921      37.01387804      10.95159137
Si      -0.93385534       0.66596801      15.08340393
Si       2.98244831      38.24455716      14.19785132
Si       3.49028899       0.20249827      15.63743978
Si       1.19158912       1.03963936      16.36729805
Si      37.62902860       4.68354365      11.63522392
Si      37.50443949       2.43223441      14.58181817
Si      -0.74689989      39.32696202      13.09082327
Si      38.92199708      37.08434815      13.80562565
Si      25.33701613       1.30038455      17.22004578
Si      24.09520009       0.05542998      15.61722425
Si      22.88325382       1.97161753      14.99273214
Si      25.09527593       2.21001530      12.89022588
Si      23.02440454      -0.62277280      11.98394265
Si      21.71275809       0.53963763      13.52633889
Si      23.88567689       1.43316589      11.00558357
Si      22.63615445       3.08851200       9.62721247
Si      26.95323933       2.80939172      16.10608295
Si      25.80358786       4.83743607      15.81080578
Si      21.55818447       3.05487053      16.52897764
Si      24.70586321       4.58620483      17.88012846
Si      30.13109394       4.04381347      14.43272384
Si      27.17619558       2.94564686      12.20172015
Si      28.29845911       4.99602524      12.48518768
Si      25.23432139       6.30053752      10.62281180
Si      28.04799623       6.59227679      14.32697962
Si      26.09231011       8.03038252      13.77335687
Si      24.18735746       3.83265166      14.35121498
Si      20.58604297       4.81039162      12.56813282
Si      22.67591809       5.45462269      13.60511362
Si      21.56135546       7.05090128      15.02286977
Si      24.41365008       6.76912575      12.68669819
Si      22.22317008       8.48219254      11.41205499
Si      23.71786610       5.19996589       9.11512239
Si       7.29007938      15.40547440      14.49518260
Si       9.87831577      13.35645001      12.06395005
Si       5.17507014      14.49993895      13.61216174
Si       5.06045193      12.27336574      14.58507220
Si       9.06142563      13.81776656      14.26476414
Si       8.22137680      11.80478286      15.34767593
Si       6.31392197      12.31739878      16.75048623
Si       7.18756737      10.28502846      19.84357659
Si       7.94156896      12.35307797      11.11726106
Si       7.59721655      10.12448084      11.91174161
Si       6.57144341       8.93041907       9.99801140
Si      11.81027783      12.08807735      12.35708951
Si      10.42570827      10.78543571      15.49094658
Si      11.59817528      10.12114321      13.52506746
Si       9.66388014       8.96186835      12.50815863
Si       8.95082801       7.31426290      14.11485663
Si       6.61983636      10.49290737      14.08613224
Si       6.49131203       8.89404964      16.02819722
Si       8.64075460       7.90207781      16.43224656
Si       8.61470929       5.62049740      17.00853810
Si      23.48860965      16.72717887      29.08021272
Si      19.88960745      13.58178135      31.37441220
Si      24.33468987      16.84516389      31.30839774
Si      23.14280334      18.79752386      32.14090022
Si      20.59193966      18.63514839      35.01923715
Si      18.03542470      14.75432514      28.73541573
Si      17.56449389      15.81279074      33.76836705
Si      20.84431930      15.46594457      30.12914745
Si      20.81397965      18.84869062      32.64322342
Si      19.73181913      17.40731967      31.04310356
Si      17.44215965      17.15738052      31.79915954
Si      18.67365568      17.24026164      35.36439848
Si      20.31604751      18.08611225      10.01639617
Si      19.26584352      21.62799234       5.91995797
Si      22.91680350      20.28629328      10.79569003
Si      20.54378156      21.72408861       7.94472577
Si      20.66454771      23.96827172       8.75888031
Si      22.66098205      23.75188664      10.21403254
Si      22.86478016      26.51180624      10.05200391
Si      23.65063620      30.22199190      36.07129153
Si      25.43747261      28.56840984      36.00842185
Si      27.14505043      27.71777817      34.34894312
Si      29.57006316      30.95078766      35.48062661
Si      28.13202107      29.76152205      33.83729048
Si      29.32875454      29.60145164      31.84750493
Si      17.65573322      25.22404211      21.43775139
Si      14.61237013      26.74475828      23.73975677
Si      17.31818926      23.55114893      19.89692856
Si      18.16565389      22.08020335      22.87148031
Si      14.06608896      23.42288832      24.05139882
Si      12.78495949      17.83170091      22.88720228
Si      13.98396830      19.91452705      22.64284463
Si      16.31561818      19.71827359      22.28102413
Si      12.81344095      21.42062144      24.01154130
Si      17.50493512      18.77698029      24.14935713
Si      13.67928220      20.25323128      25.90232199
Si      12.64302150      18.09888379      26.14437510
Si      16.61023816      25.48923767      23.49980600
Si      14.02723157      24.12899231      26.34520532
Si      14.07322781      26.45445239      26.02036069
Si      16.51295334      23.16603082      24.26059442
Si      16.10513419      20.00948758      25.72146513
Si      15.91784332      22.68401823      26.81784612
Si      26.34918284       1.99802988      35.38192975
Si      29.55134147       2.52276304      38.10780908
Si      31.05919584       2.96721125      36.38449349
Si      25.80437268       4.28795191      35.87341627
Si      27.70989963       5.75724268      35.15011775
Si      28.32528548       7.28738162      36.78218679
Si      27.79686703       1.68393144      33.44568135
Si      29.84132193       2.41264335      34.37859499
Si      34.76259461       4.24658468      35.27651004
Si      27.25792226       7.17593560      33.32660502
Si      26.18531041       5.48903179      32.06941649
Si      29.76327699       4.70771332      34.69418970
Si      31.67934486       5.25284160      33.47688430
Si      31.33631461       7.16920845      32.15335157
Si      32.61333426      16.37349071      38.96475970
Si      33.82818837      16.55677941      36.92593759
Si      34.60086218      20.12289624       2.42047058
Si      32.59034880      18.83583441       2.02583813
Si      32.62941990      16.54499313       2.78588365
Si      32.46085717      18.66786392      39.60140697
Si      30.08433877      18.82645273      39.45334080
Si      22.83034469       6.46073497      29.59213714
Si      21.93673914       2.42989750      28.80893971
Si      24.90526462       3.04066237      30.79536726
Si      26.34712343       7.20896132      30.41257626
Si      24.86016712       0.66066912      30.93878021
Si      23.60471634       4.15444305      29.07621788
Si      24.78862684       3.52955224      27.14752542
Si      26.70581305       4.91936409      27.02349973
Si      25.77281781       1.35877992      27.39336724
Si      38.91006970       9.62990820      15.75781383
Si      -0.25652706       9.74702682      13.52256422
Si       2.62710821      11.79808882      14.52912365
Si       1.86587550       8.65948522      12.74892755
Si       2.98439787       7.89441283      10.54983219
Si      39.05624947      13.48408855      13.36659160
Si      37.69143851       8.93866506      12.62377597
Si      35.90318976      10.44560041      12.23185613
Si      38.09727583       9.21564624      10.27642549
Si      36.70572764      13.33428476      12.59198091
Si      38.29008544      13.14953206       9.29223420
Si       0.69381365      11.83823199      13.01372202
Si       1.34113324      11.78178465      10.78643910
Si      39.61600065      10.84623781       9.38486577
Si      -0.15682516       8.04636686       9.19559921
Si      35.57223246      19.62477515      11.73298330
Si       0.55737930      22.60680788      11.44028703
Si      39.87645276      24.17084539       9.81010317
Si      37.35428294      21.12619771      14.12708213
Si      36.85830663      20.40860582       9.92257533
Si      36.02264257      19.24730095       8.09299118
Si      36.28885539      22.61686702       9.33997708
Si      35.60593591      21.46938406       5.59515338
Si      38.86070264      22.70445215       5.81671948
Si      36.84537809      22.82486769       7.04390896
Si      36.41263055      25.07456864       6.41808593
Si      33.86980647      22.96057079       9.30945049
Si      37.68162783      24.15347554      10.52322239
Si      36.52214288      26.05023808       9.85228391
Si       8.88256243      12.79176745      35.44698610
Si      10.48007981      13.64147718      33.78222401
Si      11.84358420      11.90176187      32.99014675
Si      10.80487516       9.16869463      35.52831308
Si      10.78185721      10.57154309      31.24891987
Si       9.10783028       9.34314946      32.82248578
Si      10.54306861       7.64698936      33.71567018
Si      12.45777995      10.65614972      34.86107455
Si       0.65646529       4.49360990       9.23195471
Si       5.22057900       7.07086958      10.64502494
Si       5.17331103       5.75497411      12.61146593
Si       2.68949854       3.24965368       9.00927248
Si       2.74179035       2.96092369      11.38949094
Si       4.89249082       2.03264815      11.83242850
Si       7.09889771       5.32814993      14.63097066
Si       5.11178927       0.98335857      13.92640320
Si       1.07670424       6.49326789      10.42527136
Si       1.13743259       6.29888504      12.79093193
Si      37.32040064       6.93099210      13.94568192
Si       1.77590609       7.58543834      14.95642778
Si      39.02724157       5.37746630      13.40420329
Si      39.08816188       3.92418286      15.23586795
Si       2.99724519       4.78008512      12.85163060
Si       5.70271996       3.19684390      15.01323673
Si       3.33673251       4.10272243      15.08610572
Si       3.56346602       6.30987231      15.89078142
Si       1.32814931       3.36177633      16.10462420
Si      23.79497561      17.46530752      40.16626410
Si      25.29044216      18.02924166      38.35411378
Si      22.52756497      17.66064035      35.98372335
Si      23.75052923      19.39381236      37.06724647
Si      24.15363096      16.70528261      34.60808380
Si      24.73856010      21.24508288      35.91531796
Si      25.09373570      18.59566550      33.50675860
Si      26.58079049      19.55141575      39.60061075
Si      27.45984841      16.94075830      37.66872546
Si      26.77416373      20.23323875      34.71387801
Si      28.21645156      18.49181596      35.90993219
Si      30.46168877      17.91906684      35.12471717
Si      28.90804381      15.40348022      15.30453247
Si      30.82385941      15.74029297      18.33696894
Si      30.60502029      17.45150061      15.33463519
Si      32.84571654      15.21899451      13.22661930
Si      31.93971143      17.59414198      17.29112388
Si      30.03165022      10.31527725      19.52440787
Si      30.18196053      12.34147033      20.98764663
Si      31.97076111       9.86669506      18.26374879
Si      31.40050442      14.45534731      20.34375488
Si      30.01057993      13.94380484      16.96865853
Si      32.08140007      13.03022729      16.05862289
Si      33.56377533      14.75642573      15.54340320
Si      33.39816741      11.47370460      17.29719805
Si      33.21413722       8.44946879      19.80824438
Si      30.84132268       8.72618031      16.50730525
Si      32.08114452       6.89562039      15.79156822
Si      21.50023187      39.58697485      38.23086097
Si      19.47992187      34.47415291      38.04724792
Si      21.25209985      38.29968318       0.23903680
Si      22.08939448      36.05666696       0.13359775
Si      22.39962034      36.95356332      36.46982261
Si      20.24835267      31.87775021      36.22688020
Si      23.52762465       0.70130482      38.42856577
Si      24.40522144      35.90114391       0.08667907
Si      25.02456532      39.04877842      39.12606741
Si      24.61331367      37.47485868      37.39959141
Si      21.73446544      35.19357472      37.98180353
Si      23.44027523      33.70907857      37.26481169
Si      22.35132055      32.90952236      35.26346091
Si      25.31677744      35.13808137      37.94369568
Si      34.13415530      20.26375613       6.97189359
Si      33.47781499      17.95991527       6.75721591
Si      31.56171895      18.20909840       8.10633582
Si      34.24725353      17.86973302      10.82394520
Si      31.87303570      18.22349301      11.01447665
Si      31.30699330      20.35525647       9.08222328
Si      31.22234023      15.92834705      11.63269066
Si      29.82910498      15.29422253       5.65043015
Si      28.05046803      15.72850860       4.01519897
Si      27.42481729      13.75720507       6.94791338
Si      30.14154308      16.36164619       7.78377728
Si      28.25392480      18.45307940      10.50982761
Si      28.06491844      17.15112724       8.51382857
Si      26.88072627      17.54860124       6.51437612
Si      26.98288534      15.11782450       8.89804217
Si      26.20312026      15.50346146       5.54107156
Si      36.88595063       6.34100943       5.76508484
Si      36.42803044       8.12510928       4.23130973
Si      34.49159388       8.06958979       1.53822745
Si      38.26671035       7.18647571      38.11870751
Si      38.12639471       8.02367710       0.40506053
Si      37.08431541       9.97522408      39.37638200
Si      36.48755386      11.50780312       2.56954474
Si      35.03748096      10.31716750       0.99043161
Si       9.98645089      24.04794997      37.27070910
Si       9.98766583      22.75697133       1.02956065
Si      12.78571841      24.49479476       1.12964772
Si       9.76128740      24.69336653       2.36752038
Si      10.03641254      26.33651786      37.94834983
Si       9.51717557      27.09370292       2.55953199
Si       7.79208217      25.25662450      36.06971188
Si       8.65363209      23.33684804      39.18283335
Si       8.21711991      27.75405404      40.70988473
Si       8.08239143      25.71842523      39.30529564
Si       6.37341839      24.78308128      37.91321060
Si      10.16014680      33.82995107      28.50846970
Si      10.22573982      33.56595149      25.94834645
Si       8.70810752      33.61207105      23.89468803
Si      11.72989057      33.61024490      22.39686199
Si      13.17046785      31.54893762      25.56002438
Si       9.50971738      31.46701026      24.78790680
Si       6.59212329      34.35914930      24.65565371
Si       6.09516490      36.19558011      23.20420886
Si       8.27456430      36.32522308      22.28000109
Si       9.45415711      33.47227989      21.59731839
Si       8.37739956      31.35546656      20.76533104
Si       6.82200271      -1.34796363      36.75593694
Si       3.50664702      -0.22386284      36.42446022
Si       2.77243557       2.94724371      38.09319214
Si       1.23829829      39.57246757      36.84831172
Si       1.08652594       1.09509643      38.58611534
Si      39.42903937      39.86227229      35.31472038
Si       0.27910982       3.23623204      38.44906684
Si      38.56996906       3.54895594      36.87976647
Si       3.24580217       5.27091995      37.86028712
Si       1.69259197       6.57870575      36.56440840
Si       3.99952138       2.05587736      36.28713117
Si       2.31972283       2.67173069      34.65786158
Si       0.00841482       2.26690155      35.38515078
Si       2.90539786       4.72456129      33.54152614
Si      39.38057119       5.90393529      36.35257079
Si      34.81742328       2.08142410      36.26650639
Si      31.62696000      38.41831783      36.19429712
Si      36.50045929       1.34286396      37.80679089
Si      36.32305337       1.77869262       0.20533216
Si      33.39021733      37.43584874      39.20612262
Si      33.24752751      39.12983979       0.98138858
Si      37.15523954      38.38382600       1.85703420
Si      37.89221483       0.64109255       1.64683582
Si      34.84569980      38.03162532       2.37988154
Si      37.62225947       0.70421624       4.00574347
Si      34.18043067      38.64684945       4.51080195
Si      32.79479290       1.74403415      37.46770507
Si      32.39434519       2.16412434      39.78989425
Si      37.23987934       3.99984940       0.39755550
Si      36.60496985       4.95459140       2.48809632
Si      30.91809781      39.05708118       1.56791523
Si      34.11704917       1.43270615       1.16420347
Si      35.38126675       0.75267530       4.68527091
Si      34.03868357       2.29726921       3.46358209
Si      34.52034448       4.70491373       3.66856959
Si      38.08997876       4.82791605       4.35149391
Si      38.91382510       5.10718468      17.32191775
Si      37.36138993       2.07444761      19.90120708
Si      35.41123662       4.97486069      19.50167986
Si      36.38580794       9.42244068      20.64289827
Si      34.77512687       4.71569149      22.03043347
Si      37.69301068       4.35126250      19.20335949
Si      36.43786651       5.76459667      23.31201650
Si      39.15277921       5.26630884      20.91619244
Si      36.41312546       7.93231321      22.46557025
Si       1.27116914       4.64421120      18.22534764
Si      38.17495979       7.14039259      16.28415395
Si      39.37527642       7.61211275      21.06836794
Si       2.28444558       6.71669397      17.84016948
Si      39.43598221       1.10989959      20.45311831
Si       0.75871861       2.41685492      22.27037229
Si      38.55459679       4.81603110      23.17272723
Si       1.37302238       4.29458544      20.80085288
Si       2.44642256       5.97803913      22.38637234
Si      21.44569729      29.21368407      35.71667503
Si      22.01468690      28.31837132      31.41510984
Si      22.09094199      26.93016983      35.67309487
Si      20.77909804      25.45357767      34.39546919
Si      23.54148091      22.92095514      34.66235785
Si      22.88830733      22.30982341      30.59266698
Si      21.12096135      22.93604751      35.19028987
Si      19.68570487      22.59279780      33.35361513
Si      18.17826415      28.65034012      33.92129144
Si      18.60353588      26.34086696      33.98482763
Si      21.70360892      26.00018717      32.14973060
Si      21.17404642      25.59410950      28.63679190
Si      20.16428517      24.87527847      30.64437082
Si      20.32769343      22.46863300      30.80905040
Si      17.98526027      26.00682733      30.92113121
Si      21.00797172      35.71555431       3.81093951
Si      18.94168601      38.19256906      -0.24646387
Si      18.00373043      36.25636899      38.82787233
Si      18.75322947      36.86234257       3.24836843
Si      16.72140709      35.59666528       2.04683136
Si      14.73091588      37.16353058       2.19355097
Si      18.71708437      32.91769880      -0.18011689
Si      15.21584188      33.42251625       3.13197330
Si      16.65392235      34.56034913      -0.10936091
Si      15.21875113      32.32902371      -0.02155098
Si      12.23632554      26.32990469       4.78112367
Si      12.08671324      26.11715451       7.09450485
Si       7.79091297      27.10647722       6.33381257
Si       6.69403587      29.19053810       6.75414995
Si      10.64873528      22.94904197       7.36815627
Si      11.50891642      24.70259044       8.88587693
Si      10.08866490      27.52990506       7.03649045
Si      12.69410333      28.17028591       9.95440248
Si      10.56958995      28.80948124       9.01092719
Si       9.89459189      25.67546833      10.44281600
Si       9.60465176       2.78948089      31.16640852
Si      11.02863050       1.88368134      29.52909237
Si      11.17929039      35.02011343      30.30785438
Si       9.34820947      38.54838315      32.56496197
Si      11.58743688      38.71388115      31.73854569
Si      10.38109816      38.24692901      28.51666298
Si      10.78575586       0.36068176      27.70835268
Si      12.08370375      37.14125458      29.81123962
Si       9.58052403       2.13939475      33.46923467
Si      13.12016660       2.15899313      32.75532546
Si      11.85659858       4.07855612      28.96607118
Si      12.59386016       5.82775114      30.32564971
Si      13.00714814      38.37287035      33.68504005
Si      12.58764981       0.79368897      30.92887118
Si      14.69193432      -0.08634777      30.15700848
Si      22.05462212      32.30816517      27.41897410
Si      20.39059383      30.77348146      28.10432522
Si      17.85673752      32.35881031      30.33184536
Si      18.02961192      30.66950295      27.64331118
Si      16.45048239      30.62900492      29.47369329
Si      16.29153605      29.10024107      31.35605594
Si      20.98681057      33.74792484      31.27517275
Si      17.41639687      33.74416334      32.31891261
Si      18.45858209      32.44538002      34.52853593
Si      20.12837910      31.66235639      30.36943673
Si      20.31076019      29.86332254      31.82741250
Si      19.90407631      30.29532804      34.14771948
Si      16.31385098      38.03310769      38.40762658
Si      16.27062912      34.90313524      35.96126076
Si      17.73085942      31.51994217      36.65134202
Si      12.35073538      37.50636628      35.82144665
Si      10.79966977      39.25689895      36.58254092
Si      12.66732229      34.73321271      38.01270438
Si      10.37044520      38.68917703      38.80993110
Si      13.25987183      39.76351006       0.50678915
Si      12.65530031      37.45955828       1.11646110
Si      15.59190610      33.75750462      34.00285053
Si      13.34461810      34.76090029      33.95360125
Si      11.59228333      34.42816595      35.79905700
Si      15.08825747      34.63160493      37.99843661
Si      15.69893440      32.33537534      37.68275088
Si      14.19035131      31.31329253      36.17639799
Si      16.90325605       4.64279917       8.19542699
Si      15.53735540       2.59770326       5.08003207
Si      19.18641187       5.07046924       7.87340931
Si      19.69431656       5.65715902       5.70992536
Si      20.22386802       3.11151292       8.51321123
Si      18.63262337       4.29300216       4.10767201
Si      19.64402719       2.22655259       4.84017565
Si      15.52493006       2.87454038       7.53564407
Si      16.77702348       1.22891920       8.61392277
Si      18.75820890       1.58666634       7.31567852
Si      16.74564946      23.33483336      13.08078717
Si      14.12300918      19.99033883      12.93686410
Si      17.32768852      20.14235885      11.42345341
Si      15.55452852      16.11074301      12.59718963
Si      17.85948772      16.18539513      12.13535881
Si      18.06269960      18.02210233      10.75141797
Si      19.45551031      21.17979046      11.70383847
Si      16.56123428      29.37900632      26.32219962
Si      18.20150976      27.33755358      23.52794106
Si      18.23770545      26.26829004      25.71651368
Si      16.27847349      27.04847646      26.76672797
Si      16.55286366      26.17265020      28.94275589
Si      19.49426646      24.06208126      22.30491877
Si      20.48593386      23.95257105      24.52342218
Si      20.31191481      20.88118056      22.88896507
Si      20.15867691      26.87650943      26.91695538
Si      22.75761236      22.79853883      28.21967112
Si      18.38482207      23.88507716      25.64798927
Si      17.79189168      20.56858924      27.37476315
Si      18.34872271      22.85086484      27.79234495
Si      36.05347312      26.11663783      16.08652783
Si      -0.01937392      24.01037259      13.62916233
Si      37.65752471      24.24902547      12.90513899
Si       1.10363200      27.76961254      14.75100251
Si      39.10986228      29.24821306      14.12761697
Si      36.00057401      28.22264095      17.45158942
Si      34.08461132      29.28613692      16.44399565
Si      37.12491586      30.83101679      13.69794388
Si      39.99215143      29.77711748      11.79161378
Si      37.39303730      26.32011445      14.14808909
Si      36.54937777      28.43705004      13.43757294
Si      34.84725247      29.97237820      14.20016119
Si      35.70998206      28.37290325      11.20016614
Si      34.43041590      38.12590545       6.77170719
Si      32.54315002      34.04862690       7.37835452
Si      35.14986290      34.16864736       6.24178471
Si      28.68250717       2.45418159      17.64957669
Si      28.16835459      39.17129299      19.95666185
Si      30.73690800       1.30556660      17.32893312
Si      30.80184315      39.29606848      16.00308313
Si      27.46457151       0.48313941      18.15277041
Si      27.04709623      39.06145574      16.21686265
Si      28.07566769       1.94530359      14.23581409
Si      26.26189786       0.28640099      14.10010840
Si      26.75352820      39.23733132      11.90276893
Si      30.34398414      38.25861027      19.39623372
Si      29.51291828      36.57453895      17.88583890
Si      28.93161514      33.50132900      20.06262430
Si      34.30652891      38.18732795      16.76307049
Si      32.02105450      34.93488032      15.42845820
Si      25.24863233      37.66582168      16.85721867
Si      25.65312918      35.60213726      17.93303090
Si      27.99977866      34.75896054      18.24518645
Si      27.98163975      33.46612477      16.28179162
Si      29.01236892      37.74666742      15.87408266
Si      28.66371859      37.75368790      11.88905828
Si      28.83367445      36.42573447      13.87250966
Si      30.98109856      35.64373768      13.27361381
Si      27.56546229      34.45354162      14.18112313
Si      29.69755060      31.92507909      15.90149186
Si      13.36002532      36.38202041      21.12257755
Si      17.02063891      36.14002133      21.73815866
Si       7.84261928      37.02372574      24.57502432
Si      14.92972540      34.87954851      22.07071842
Si      14.74195349      32.51717976      21.98674605
Si      14.96027714      35.90992250      24.14733917
Si      12.31476430      33.67520619      24.90033015
Si      11.19423994      35.97647325      22.07165089
Si      11.59517495      39.04781382      23.55583925
Si      11.39114592      36.80687156      24.30941039
Si       9.57027353      35.86897555      25.59190412
Si      13.13872836      35.84240542      25.61526077
Si      32.75427829       9.04369636      12.67914343
Si      31.03969765      10.64870190      12.88372585
Si      29.82928991      10.02761155      14.75130460
Si      27.53686358       8.74023303       8.28105943
Si      29.25152148       9.30864735      12.12311505
Si      24.48049160       8.51157933      10.51647564
Si      27.61353839      10.88415990      11.51956227
Si      25.01232744       8.70889328       8.19299699
Si      32.57645773      12.82536884      13.68663771
Si      30.81605355      12.84924417      11.90772398
Si      27.89077686      11.01103151       9.12780400
Si      25.32350791      10.25272238      11.97962844
Si      23.92404566      11.17494955      13.80409500
Si      24.69132332      12.09486763      10.54514546
Si      24.24102607      13.53666284      14.13707719
Si      29.48400022      16.48157103      13.13636233
Si      28.35135680      12.97057057      12.31363572
Si      26.99155129      14.57151556      11.18500161
Si      24.77693573      14.09632616      11.85118187
Si      27.37901225      16.69336849      12.11219221
Si      23.07391269      15.40703020      10.82823590
Si      25.09951364      14.42705828       7.61687874
Si      12.86515771      34.05769164      31.69307366
Si       8.50258164      32.43241826      29.72124921
Si      13.55559185      31.29697690      28.85763242
Si       9.59540364      32.71816376      32.16378825
Si      11.16137705      31.27361934      33.22312577
Si      14.33660651      32.43421938      30.72360577
Si      14.61771070      30.58610093      32.18247683
Si      12.06478807      32.11242654      35.28426879
Si      15.50196786      31.43315321      34.17179154
Si      11.33712770      30.22185514      36.52576352
Si      11.05831200      31.45462608      28.82473279
Si      10.89846436      29.32392756      29.97722344
Si       9.50755594      29.97939644      34.29395177
Si       7.93949157      29.43620950      32.52847030
Si       8.81795625      27.43767570      35.72686867
Si       8.83624575      28.21774148      30.71462439
Si      15.00968764      31.13873872      26.94776829
Si      14.57069019      27.16753627      29.78854443
Si      12.58234454      25.85430453      29.22108587
Si      12.38788580      29.58868062      31.99824467
Si      12.54178731      28.46930501      35.43929254
Si      12.19751091      27.55839739      33.24653040
Si      10.14477027      26.48785288      33.83916493
Si      16.29617761      16.04353015      29.98975297
Si      15.52521719      16.14931991      34.93662275
Si      12.85847460      16.85945048      32.05742298
Si      17.88389984      13.55544113      32.74780436
Si      13.82358814      15.36054250      30.25595654
Si      14.22322712      12.90135442      30.23588393
Si      15.27974242      12.59003345      28.15516668
Si      15.71381282       9.34572324      26.28948015
Si      13.45329442      15.46389584      33.94358166
Si      13.84205850      13.14964389      33.58776364
Si      15.71085185      12.68436352      32.10845872
Si       1.28016943      28.10802429       4.37785397
Si       2.00295420      31.96450689       4.91524320
Si       5.27173232      29.18418396       1.74076667
Si       1.36383602      26.06751345       3.21084033
Si       2.75683856      26.45655532       0.88649150
Si      -0.54872072      33.88262793       2.77371388
Si       1.46406509      30.32214392       3.16448762
Si       2.47672305      30.31345362       0.89050797
Si      20.37675831      13.75456105      24.75937207
Si      18.46337015      11.23418490      26.90441495
Si      16.59522076      10.58684886      28.18312559
Si      19.50675521      12.91046624      28.13463213
Si      16.58109863      14.27223273      26.93611627
Si      17.67929722      19.24126879      14.31724529
Si      22.00582789      20.29932428      15.32074798
Si      18.71957151      15.97374929      14.35171060
Si      22.30471632      17.75785075      11.50410059
Si      19.94325079      20.50015514      13.98455832
Si      32.95342778      14.16504642      23.65141475
Si      31.47020415      17.95814979      25.77920985
Si      32.49807135      16.12904473      21.80177047
Si      30.35054706      17.71603389      21.77284998
Si      34.66444921      15.18430740      22.54559573
Si      30.07947704      18.69710808      23.97344290
Si      29.66336480      22.05066713      25.20963262
Si      30.86242614      20.88027304      23.47105206
Si       3.85692863      18.68177535      30.33476443
Si       4.73073769      17.30731156      32.14653497
Si       2.40358926      16.85656774      33.19583507
Si       7.74701800      21.44643791      31.58423580
Si       7.50179995      19.95465644      33.44626593
Si       5.75591210      14.38654812      34.21378536
Si       9.14355736      15.96421722      34.97248857
Si       5.50643201      18.83606279      33.72899655
Si       6.32068094      17.81733871      35.67217227
Si       7.11513616      15.50023073      36.01988587
Si       7.38478312      26.39103499      25.62262591
Si       8.59054597      24.77071619      28.39003383
Si       6.90984165      27.92108462      29.32363224
Si       9.49240773      23.60700844      24.87604783
Si       7.55392126      24.04398740      26.30842524
Si       5.64455186      22.48776933      26.65235840
Si       4.82421345      21.25916518      24.52447261
Si       2.55887816      20.17528844      24.47751319
Si       7.12164663      25.70514616      30.01900441
Si       5.19181522      24.49392700      30.48609043
Si       7.03041181      21.01253258      28.00757497
Si       4.10197531      23.61247021      28.51048164
Si      31.82801052      24.26477938      12.99594142
Si      35.76683527      23.11860255      13.87385112
Si      32.61777633      21.46738963      10.77892294
Si      30.89904434      23.01145447      11.27476929
Si      30.89452297      24.37008244       9.34510950
Si      33.93403428      26.06324236      15.05834631
Si      30.09300034      25.92906767      13.44575200
Si      30.49263570      27.41721566      15.39459752
Si      29.67210564      27.15174425      11.42670202
Si      32.71681245      28.07267971      14.89468048
Si      32.93767994      29.29518302      12.75126225
Si      34.12889236      24.87003473      13.04503977
Si      33.12520458      25.28101301       9.35104920
Si      34.52391787      26.20104441      11.07962047
Si      28.24625832      30.24990505      15.13731938
Si      29.60248815      31.03360397      19.74390805
Si      28.02008330      29.35577285      19.09866412
Si      26.09900905      32.08860721      16.66660415
Si      28.79064647      28.70338632      16.85577364
Si      27.19943267      26.95357435      16.28855930
Si      26.23355742      31.25167900      14.49928377
Si      24.52290353      29.68317412      14.50062842
Si      29.22092343      28.66009901      13.74673562
Si      27.48600074      27.83015518      12.26091113
Si      27.74421022      25.69812212      14.20902565
Si      25.04239553      28.19525389      12.78837398
Si      22.50215704      27.38415629      12.25518309
Si      26.05597210      30.63219434      18.65929437
Si      24.42262008      28.93921783      18.43024745
Si      27.96361272      27.47975840      20.64907036
Si      24.27048901      27.28365183      20.22239248
Si      20.85856311      29.81775879      14.60229026
Si      24.92183919      27.99815111      16.29046974
Si      23.33023744      26.34464056      15.81572207
Si      21.33611530      27.75445537      15.72850947
Si      20.25828966      28.05234612      13.06259654
Si      25.94498441       1.75373909      25.03256311
Si      28.48228471       1.32594319      22.84607711
Si      27.81256272       3.03978832      24.34370653
Si      31.05821679       5.88740180      23.34951957
Si      27.01695189       4.94551507      23.13413032
Si      25.95532657       1.59493447      19.81079029
Si      26.05032690       3.97260500      19.71487992
Si      28.98843722       5.86063552      22.24273374
Si      29.84703789       4.39025921      20.61087932
Si      28.90559809       8.13975490      21.70361416
Si      31.53047167       6.06246260      19.87158421
Si      28.24537205       4.43751542      18.93288600
Si      28.06877544       6.80232859      18.44874273
Si      32.91794060       6.46065680      21.87257648
Si      25.09381499       4.92123878      21.67873925
Si      24.89959169       7.03160187      20.61602185
Si      27.00005102       8.01546947      20.16875960
Si      28.09254974       9.79936868      23.23212441
Si      28.04105283      12.89119723      24.81188833
Si      28.58210049      15.05422185      25.75173600
Si      27.36918377      15.00637666      27.87835056
Si      28.68674726      11.47309805      26.97479932
Si      27.70221056      11.29942155      29.26453368
Si      28.65006519      13.41861242      29.06622707
Si      12.27161692       2.47311162       6.60846656
Si      12.98726098       1.76255432      10.60174737
Si      10.93483682      39.55635892       7.80262377
Si      12.28000693       0.15214860       5.94423646
Si      13.12024536      39.49231527       9.64248502
Si      13.26911079       3.57950506       4.76023604
Si      13.42000266       3.05539104       8.62440371
Si      15.13418891      24.63353864       0.61897711
Si      19.47321720      25.00643960       4.30308539
Si      20.74365430      22.12045951       3.91766535
Si      18.12956876      25.53543112      40.50370414
Si      19.12298638      23.36471880      40.02128182
Si      21.31688864      23.97530547      39.79682143
Si      23.41065177      21.29905838       1.67381944
Si      21.92318205      20.38728528      38.25119552
Si      15.97580767      23.79712342       2.65851324
Si      17.00812711      21.66074746       2.56963725
Si      16.37735213      20.88065808       4.72944318
Si      17.81449730      22.48375001      38.13236473
Si      18.40706081      20.24978027      37.48326994
Si      15.64646687      20.24300240       1.22125293
Si      16.63626229      18.59422398      -0.16012776
Si      19.32746814      21.75727126       1.89201208
Si      22.36122083      19.44362877       0.50845334
Si      20.04988183      19.54466363       1.17595768
Si      18.91469221      18.66386368      39.24967753
Si      20.43442727      20.73870681      36.31340182
Si      21.05754678      18.49487445      22.97233253
Si      23.33502249      18.98452074      22.50347005
Si      24.27498545      17.85197870      20.62755066
Si      20.10245940      17.46042048      21.01140873
Si      21.49321162      16.56895642      19.15038537
Si      26.92764501      14.91786506      21.01384731
Si      21.46187668      14.73097429      20.60784186
Si      23.48725895      17.56021188      18.33381570
Si      24.92375463      15.96652356      16.96301618
Si      25.14882741      14.94460469      19.29410231
Si      23.09260490      15.40618680      15.08760486
Si      13.00368695      10.64072684      23.14444262
Si      12.15770890       6.77486830      24.92254100
Si      14.37289826       9.09801681      24.27036441
Si      13.40236674      12.14949317      26.75024279
Si      15.41202061       7.07865000      26.66493194
Si      10.51839211       8.07489493      23.74902324
Si      11.54789046       4.51580214      25.49152695
Si      10.89221156      10.36665040      24.21505122
Si      12.63048510       9.96996755      27.67713583
Si      10.34216265       9.86340854      26.87261858
Si      12.02506354      13.97741102      25.90104348
Si       2.14396210      16.55864237      38.15226315
Si      40.21680207      19.25343897       0.79946847
Si      40.11735191      19.04494405       3.62318694
Si       2.50596703      19.39734651       0.05969097
Si       1.78731967      22.17980591      37.08060721
Si       1.16261365      22.96196515      39.19029481
Si       2.72630730      21.61523837       0.68179701
Si       3.91387711      15.94125210      39.64679325
Si       2.88557762      16.23722226       1.81991877
Si       3.84234032      18.39675154       1.78820884
Si       2.70730185      18.80988356      37.71537668
Si       5.03315054      18.94227351      37.27519690
Si      21.30790232      13.07924564      33.27780890
Si      22.76975912      11.71956539      30.02458727
Si      24.38725212      14.61193342      32.12582250
Si      22.91685721      14.66345431      33.95738420
Si      23.94247457      13.72063459      30.05337530
Si      20.21993218      10.00782316      32.38433570
Si      20.36307491      11.93616258      35.17646674
Si      19.95564443       9.31424112      30.14118233
Si      22.30996591      11.17037277      32.26132491
Si      25.57001982      11.39651070      34.01552397
Si      24.18196192       9.83450188      32.74123175
Si      23.17881515       8.75791271      34.55446765
Si      24.29239620       8.33770600      30.75335453
Si       0.29147908      17.85543152      32.31139129
Si      -0.08782766      17.29119416      38.88828760
Si      38.79204211      17.21886736      34.19952673
Si      37.33875865      17.83965216      36.09823774
Si      36.78701554      14.26774838      38.13505058
Si      39.03119592      15.43991405      40.07122641
Si       1.01336999      20.03266211      36.51965420
Si      38.81261106      19.04664439      37.58623426
Si      36.70243473      19.92347579      38.77969325
Si      39.59364748      21.61160512       0.53764288
Si      39.73440391      24.06386744      37.31775534
Si      25.81145777      13.78017576      15.84779592
Si      28.88037607      13.61589522      19.34406007
Si      26.69082999      12.82333915      19.46917930
Si      24.90619257      12.95809385      17.89133151
Si      27.79918295      13.32669843      14.65821320
Si      28.95184299      11.86311113      16.10345681
Si      28.22099419      10.52599131      17.94443211
Si      28.47569562       8.44029354      16.72464211
Si      24.66503600       9.35266281      15.12416329
Si      20.44680469      26.96772413       9.82353112
Si      16.29426415      27.85003231      10.43006111
Si      20.30586056      24.90476193      11.01384213
Si      18.56510022      23.34036058      11.49544556
Si      18.20458882      27.23966120       9.08185566
Si      17.65910968      25.16066108       8.10382364
Si      18.55199073      23.95717822       6.18305160
Si      15.55914823      26.97870044      12.49730274
Si      15.49427018      24.72971343      11.54852899
Si      15.48597627      25.72119874       7.27324943
Si      13.91350271      24.09503672       6.54680358
Si      13.25849349      25.02214286      10.71504067
Si      12.44910289      21.84669830       9.86024145
Si      16.88832294      23.79028717       9.84061842
Si      16.69409731      22.55035063       6.30827897
Si      15.96053024      22.00003158       8.49360872
Si      15.80370389      19.86257258       9.57125717
Si      13.68150819      22.04201719       7.84454567
Si      11.59960618       5.90500440      32.51221134
Si      12.54413887       4.55144294      34.22205497
Si      15.42910549       4.94067911      36.56911013
Si      11.62705625       2.35920614      34.57546811
Si      15.86737991       5.07676231      32.25046559
Si      14.93368181       4.22649346      34.35665692
Si       3.37136804      30.48125369      17.22134633
Si       5.83089179      30.42893423      17.62535234
Si       4.71404624      27.17040762      19.61158471
Si       6.44994957      30.73165438      21.75441555
Si       8.37904840      31.91650830      18.41253976
Si       4.56430776      26.46954859      21.96518058
Si       6.55876595      29.49017242      23.86268639
Si       6.12217541      29.40380519      19.82430034
Si      29.82023147      28.41926790       5.29302151
Si      32.05592773      29.11790579       2.34556093
Si      29.53711828      26.51155932       3.90626837
Si      31.39108276      32.48609758       6.07379759
Si      29.60272158      31.52568339       4.01024296
Si      32.32624169      31.09362280       1.02667335
Si      31.04352858      32.54447177       2.31660674
Si      29.02883457      33.55176813       1.34426551
Si      29.68648622      29.54811056       2.78280553
Si      29.34067985      36.90039393       7.67567586
Si      31.96269336      37.83464001       5.27469562
Si      29.97997302      37.03087713       4.34034897
Si      29.80918104      34.53263368       7.40745403
Si      30.08692654      34.75554442       4.93064005
Si      28.31500457      -0.10133506       6.54675390
Si      28.55957391      36.49722649       9.84546944
Si      26.20491107      36.34050814       9.60448307
Si      29.36072078      37.25971526       2.05570273
Si      26.82756962      36.95026261       2.37739422
Si      28.20655751      37.71542592       5.73144647
Si      25.28256778      35.05019901       5.57314434
Si      26.11014324      37.14822624       4.68944491
Si      25.64844848      15.95725179       1.28279507
Si      27.69887883      14.60342738       1.91208850
Si      26.88790538      12.28356361       1.94155027
Si      25.91819405      12.00291126      37.84479427
Si      28.34777472      11.06419000      38.04236714
Si      24.18079366      14.62261928      39.90391653
Si      22.13684036      15.85500620      39.47076114
Si      23.28798436      12.49037342      40.33831735
Si      22.77223049      14.94060989       3.38868058
Si      26.34466123      11.39479207       4.11482378
Si      24.40039163      11.21501320      36.16375500
Si      24.59057922       8.85727377      36.49793288
Si      22.07688786      11.74294353      36.76168436
Si      21.59830604       9.45970080      37.96474456
Si      25.41543618      11.33899005      40.33919495
Si      23.60991817       8.44563538      38.85332021
Si      26.98513727       9.15999878      36.49668831
Si      24.10832047       6.40135618      37.65052388
Si      26.40025116       9.03043037       3.83012131
Si      28.93332698      11.15468001       1.35783550
Si      23.37887769       5.95624490       1.11888004
Si      25.79820050       8.99286583       1.50388518
Si      26.50067784       6.35207599      38.11419774
Si      26.81326280       7.04040824       0.37513611
Si      29.09290660       6.38685443       0.66893619
Si      25.59819582       5.29258531       1.39835556
Si      22.91960520       4.20361900      37.51471073
Si       1.41200486      39.57502960       4.88889372
Si       2.85101186      38.71236389       1.39528440
Si       0.07965574       1.67296946       1.78145363
Si       6.30711756      38.57239913       7.17627445
Si       3.43022963      38.80881821       3.65856681
Si       5.14177605       0.48278036       3.72066946
Si      38.64821287       2.58284450       5.03144169
Si       0.68955973       2.61933760       7.49064984
Si       0.68386532       1.76053289       4.07514484
Si       2.41595394       3.29985002       4.23118147
Si       0.12851420       5.90149234       4.94463161
Si       2.84185544       0.46007496       6.61230637
Si       5.20196308       0.41542126       6.10862111
Si       2.92435774       2.87286228       6.50153255
Si      -0.21721409       4.97829082       7.10335465
Si       2.00727730       0.83384810      40.70427426
Si       3.60024025       2.69210008       0.52568023
Si       7.27183393      -0.03653886       2.74021104
Si       6.81587978      -0.29140680       0.42177641
Si      39.62498939       3.79193099       0.65272462
Si       1.85155502       5.46495709       3.51223603
Si       0.98143243       5.70096457       1.29130491
Si       3.51043133       7.01543232       4.12172998
Si       3.04598338       5.19921020      40.21730474
Si       4.21712065       2.53113378       2.92012142
Si       6.45519696       4.19749220       5.47500238
Si       5.96245934       4.03255403       3.15689844
Si       5.39135586       6.31345776       2.87157125
Si       3.73867088       7.27041908       6.52455948
Si      37.76399228       9.48934616      31.69232408
Si      33.36279312       9.65344747      30.76978132
Si      34.08134454      12.76824613      33.34611066
Si      33.56420048      10.11536329      33.12594164
Si      31.35461894       8.97173987      33.77838402
Si      30.75446799      10.24604571      27.42330454
Si      30.44989418       7.73228787      24.80371807
Si      35.33725065       7.45082109      27.87370630
Si      33.10353548       7.26225901      30.56971582
Si      32.93600390       6.94809269      28.09273201
Si      31.08336312       7.97474019      27.04113138
Si      29.39086065       6.80100644      28.22037676
Si      31.30634252      10.61232512      29.76334666
Si      29.59757823      10.53591726      33.31049928
Si      29.16097032      10.16712861      30.90722947
Si      28.44433349       7.87743248      31.37413311
Si       6.48683305       1.46553639      17.81539907
Si       0.88869615       0.27931058      18.63036065
Si       4.40227697       2.25875757      16.91437391
Si       3.68743056       3.97966970      18.30396100
Si       7.91856593       2.37685207      16.09010836
Si       7.10451201       3.51426196      19.13943850
Si       5.67220705       5.35443208      18.43820431
Si       5.37791765       6.78752126      20.34897380
Si       3.25134130       2.85186376      20.37376038
Si      19.15413501      37.42114902      32.99417282
Si      16.29259874      37.16694159      35.02417752
Si      20.10083638      37.80322179      37.04435863
Si      18.32767628      39.35032296      37.74704393
Si      18.79677321      36.83877454      35.24191117
Si      18.59626054      34.48428444      35.85831891
Si      32.81440215      36.38496773       6.92937589
Si      32.52303227      38.30882005      10.38832604
Si      32.41300087      39.72073832       6.56729243
Si      33.46483616      32.86206505       9.15991102
Si      34.51454528      34.26897931      11.96769193
Si      33.41583782      32.22254147      11.43170666
Si      31.29177205      31.91464967      12.34735739
Si      32.38118355      36.25225945       9.26478355
Si      30.42022245      34.91470137       9.74018080
Si      30.12875465      33.91127643      11.85793919
Si       1.70261031       7.96162074      21.33018216
Si       2.31490289      10.02564190      22.36263339
Si      38.33242771       8.85612650      23.76210694
Si       0.46115909       7.95610246      26.79572911
Si       4.81869565       5.72971705      22.44641679
Si       5.42857748       8.75090163      24.82724907
Si       4.05533468       8.74963556      29.90805083
Si       3.79031107      11.16966924      20.84196008
Si       6.03147917      11.61818469      21.50445104
Si       3.12338319       9.01169248      24.41116242
Si       3.04562707      10.48686186      26.28808555
Si       4.59864333      12.62670186      25.12229180
Si      17.83805336      24.81391437      14.57583420
Si      17.99744824      24.02518963      16.75365502
Si      16.01071335      24.03480516      18.03892807
Si      16.21572343      20.16815803      16.87867780
Si      17.38107884      21.32694315      20.71487235
Si      16.76168791      19.62703501      19.12294445
Si      15.32008424      18.32467296      20.45699841
Si      13.73824183      22.88071053      15.29325571
Si      16.47789921      26.71479526      14.72360100
Si      14.90988842      26.22886310      18.12122052
Si      14.39452746      26.45414950      15.89044631
Si      12.64867702      24.91913903      15.47647702
Si      15.24573314      18.07600777      16.06458581
Si      13.09787850      17.92227127      17.15334251
Si      14.71994342      22.13670443      17.27470503
Si      13.40120541      19.87421179      20.35332339
Si      12.83168120      21.51371866      18.72777625
Si      11.66791506      19.78922261      17.52526137
Si      13.43636885      17.05865911      19.36939920
Si      29.52463083      25.83905820      28.20750360
Si      26.83806681      30.15275526      24.43663139
Si      27.13263774      28.23632379      25.89167877
Si      25.26873459      26.93002670      26.83441231
Si      28.42473281      29.02481447      29.73992999
Si      27.03363472      26.96456371      30.09824675
Si      26.87037048      25.57977558      28.08396891
Si      24.64407855      25.49725921      29.21138222
Si      10.40094437      19.43844085       3.76459498
Si       8.96573865      20.97765743       2.20444697
Si       8.21287617      17.59244996       1.65918131
Si       6.52574751      18.73143384       5.32005189
Si       8.45684724      18.40849410      10.31179994
Si       5.38779562      18.77215391       7.52786642
Si       6.09238059      18.67439764       1.05080322
Si       6.69923036      15.88658102       1.02502030
Si       4.42696684      18.54513540       4.12068801
Si       3.93546811      16.14090998       3.94601545
Si       8.37554202      17.71559930       4.07819551
Si       9.43198775      13.62014730       3.15128659
Si       7.89451788      15.35189523       4.19809527
Si       5.82954307      15.06103530       3.02649252
Si      18.18467479      39.24996395      20.62542566
Si      20.30447854       1.24471663      24.72181514
Si      18.53706658       1.59057401      26.50108470
Si      18.47472416      37.89347878      22.62721545
Si      17.16408050      38.22581167      24.53706177
Si      16.64375446       2.19189716      23.55256218
Si      15.57494444      37.78710700      22.89993484
Si      16.87262883       0.44814713      25.20874850
Si      15.33956052      38.53431800      28.27639470
Si      15.16505318       0.43612853      26.83913573
Si      12.93497071      39.53762657      26.82313624
Si      22.70982579      20.79188453       4.46005503
Si      21.90072688      18.53020355       7.97259869
Si      22.12527343      16.98538613       6.18140619
Si      23.43258278      17.27703805       9.34174736
Si      23.72656622      18.67745157       5.04503629
Si      25.18901824      19.18890394       6.88430570
Si      21.17301282      25.56425305       7.04001015
Si      23.40126297      24.96151074       8.20107259
Si      22.47818587      20.76809601       6.98209076
Si      23.59644583      21.76220675       8.87088441
Si      24.65221171      19.33513342       9.31475949
Si      25.75753364      22.47535984       8.30826290
Si      27.71842350      22.38785858       9.60175824
Si      21.58711852      21.00928734      18.70175198
Si      19.92416391      20.89709802      20.44902383
Si      18.96261453      18.89375038      19.50804906
Si      24.22915636      20.42977160      14.87877662
Si      23.63774975      16.54666834      13.10617874
Si      22.00881986      19.13285598      17.36056863
Si      19.73990844      18.50514597      17.32716395
Si      30.86380184       3.31520565       5.42453772
Si      27.97352440       2.17838949       5.92478866
Si      25.09511334       3.12200265       4.39184303
Si      26.11035601       5.20284370       3.75079525
Si      28.96913983       3.35110128       4.07577152
Si      28.57888044       6.96431967       6.77818453
Si      28.30242555       5.54871499       4.55502389
Si      29.21044542       7.07086408       2.96877654
Si      26.25941458       6.66904101       7.15570239
Si      15.89336474      38.38064326      16.94326387
Si      15.54994896      35.42703284      15.43316058
Si      15.02431663      37.34541148      18.80751922
Si      17.34258477       0.12661223      17.37009102
Si      14.09257923       1.62948946      16.16847922
Si      14.39360724      34.85062495      13.45880986
Si      15.80998810      37.63018252      14.75306067
Si      13.38867864      37.66902359      14.98004697
Si      12.97552059      -0.00280337      14.70250799
Si      13.40511452      36.92619004      12.75517600
Si      10.97038072       1.37123748      15.05089175
Si      33.60248763      30.17717048      35.87332460
Si      33.93836342      32.37173177      34.68182049
Si      30.42084834      33.46359352      35.77613532
Si      28.52543147      37.71696148      29.18111870
Si      25.83928413      37.40643956      32.04758997
Si      29.81462013      34.67238551      30.43968983
Si      29.66271813      37.46662083      33.16408187
Si      26.52437449      38.87455180      33.87087949
Si      26.57702136      37.88262050      36.08942509
Si      27.14481409      32.85087539      28.76280990
Si      25.71426016      33.50461870      30.61032176
Si      26.40793333      35.08264351      32.29517372
Si      26.68769629      35.50476397      35.97209457
Si      25.19022840      34.79231409      34.27425740
Si      22.45383963      34.05368428      33.20357018
Si       3.43418333      30.36417998      32.82854237
Si       0.36561555      27.08649254      29.89179098
Si       1.54194353      30.83631828      31.22424392
Si       1.07616891      30.84365025      28.75968511
Si       3.52637243      27.18928572      33.48217501
Si       1.33534332      27.97532341      33.99315040
Si       0.04515108      26.35409292      35.11276161
Si      37.88348792      27.30453451      35.23885063
Si       0.51767239      32.72382322      32.28005263
Si       0.94098067      30.00567696      35.26448935
Si      40.53106607      28.64556262      31.84798428
Si      37.71365879      28.28827758      29.50918925
Si      38.14113428      28.92847301      31.75564142
Si      36.57663581      27.82382450      33.21633096
Si      37.23464586      26.31073025      37.76513644
Si      37.88135253      23.59194002       3.63184789
Si      36.74512886      25.95796949       0.04356043
Si      38.08441624      27.11716649       1.61348853
Si      35.98201378      29.52577048       3.34000417
Si      35.19360084      25.75670462       4.44492708
Si      37.41237126      25.96656456       3.58461938
Si      34.36213089      27.96488533       3.82176130
Si      39.57903937      26.53806957      37.44545468
Si       0.33252608      26.65489768       1.08782469
Si       0.73505497      27.87276156      39.07092977
Si      37.56693095      29.48876281       1.62881306
Si      39.27036957      30.94695799       2.55354418
Si      39.45979032      15.84643575       8.52925672
Si      -0.04979221      18.42748967       7.57503938
Si      37.09475974      17.10706236       8.90114555
Si       1.78899968      16.93674664       8.35167801
Si       1.98531555      15.76750297      10.51232034
Si      37.97563788      15.47488991      10.45928888
Si      39.12022504      15.77425935      12.59981212
Si      39.02413288      19.52392744       9.55793056
Si       0.49938874      19.35009817      11.46565166
Si       3.76394964      18.00743901       9.18741666
Si       4.92008036      17.53755321      11.22969893
Si       3.72830936      20.84718555      13.02088675
Si      37.97770986      16.95757305      14.33082089
Si      36.79767037      18.88013597      13.64296951
Si      39.47887730      21.01384538      12.87345385
Si       1.01104962      17.11804099      12.24809700
Si       3.44944383      15.53977221      15.07320411
Si       2.29680161      17.43158744      14.25948939
Si       4.05732931      18.52080586      13.19358893
Si      20.38347324       9.81895598      26.39082508
Si      24.91761483      14.92072802      28.34538124
Si      21.33130352      13.99524014      26.93190128
Si      24.53279615      11.64052428      26.07685385
Si      23.70457053      13.82099843      26.70084958
Si      22.32981489      12.70473951      23.76427147
Si       2.10957630      23.97526422      31.94970429
Si       0.97193811      21.07856805      30.29126384
Si       1.17800849      21.05085406      26.30415689
Si       2.02865427      19.84069723      28.26989170
Si       2.75904431      22.60409492      30.15575120
Si       5.63433170      22.27679519      31.22727889
Si      37.91509386      24.46776438      23.45632709
Si      37.24719981      28.43291007      24.82966870
Si      35.40962490      26.74307739      25.09057375
Si      34.61701940      25.78930827      22.89868474
Si      36.78005184      24.74968188      25.56510429
Si      34.64810974      23.70278261      25.92301734
Si      11.64010491      39.41565396      12.46297103
Si      12.03336225      37.61314150      10.84926752
Si       9.66861405      37.21870099       9.98385188
Si       9.91636898      39.08371585      14.09952190
Si       8.49377817      37.27134409      13.11264375
Si       8.34746908      39.18337048       9.79589275
Si       8.22550919      39.66111043      12.38759830
Si       5.99786378      38.74505126       9.43360257
Si       4.96922156      38.54735191      13.00023109
Si       8.29652882      36.55403364      15.35107916
Si       8.25043934      35.77471785      11.27005608
Si       4.89128082      37.25683510      10.96260493
Si       5.80135059      34.89500367      10.40735093
Si      35.71712805      19.72980868      27.79823941
Si      37.14408867      23.49671483      29.28273196
Si      38.92433073      21.96068176      26.50714987
Si      38.31355908      24.12288715      27.35053988
Si      40.15062903      25.51908174      28.00286319
Si      24.79724989      29.61009745      10.91749723
Si      28.35228892      29.59231930      10.82545234
Si      26.77500210      26.38072654       9.77029792
Si      26.61300332      31.22920092      10.86104338
Si      26.29146729      32.01974770       8.65926259
Si      24.84517848      27.77520956       9.43212111
Si      24.22534292      28.65600399       7.35584290
Si      22.63997090      30.53817722      11.15568810
Si      22.48372351      31.79283178       9.02611766
Si      24.31333279      33.26257148       9.07770436
Si      22.15206813      29.67867203       8.01700695
Si      28.45207995      28.53910454       8.68255867
Si      27.80475983      29.25811536       6.49537020
Si      28.02867118      32.92810147       7.27299192
Si      25.94033697      24.80355784       8.08920841
Si      24.54816314      27.30037502       5.40585676
Si      25.71576915      30.40238618       6.90000405
Si      25.30871944      31.53726187       4.84012296
Si      26.80556022      33.30391919       5.22694723
Si       9.10540432      24.47148400      14.19807221
Si       4.96486826      27.72495397      15.45998773
Si       7.50500143      25.99763228      13.07523061
Si       8.37392375      28.19109374      13.01481686
Si      10.21662928      26.85403043      15.18416575
Si       9.31340128      27.94893648      10.78876756
Si      11.97403452      26.13742352      13.57055029
Si      13.31992305      27.68532429      12.32104034
Si       6.86109542      28.44408666      16.73381899
Si       8.83241619      28.72616401      15.25906627
Si      12.73871694      29.57996404      13.84245790
Si      10.63786483      30.30936085      15.10209903
Si       9.53436191      32.19895362      14.10439558
Si      11.71827275      30.82593296      17.14175549
Si      14.13154077      28.75495929      15.61257948
Si      17.37419305       5.13605746      20.79119718
Si      15.92329465       8.28718192      19.27728626
Si      18.70604039       6.74350303      19.59205729
Si      16.69399244       9.08444276      17.14104088
Si      13.82424375       5.67303534      21.39310059
Si      17.74812393       2.81032375      21.01467404
Si      16.87243412       1.19857071      19.50826611
Si      12.29509378       6.67881460      16.23886140
Si      15.40322895       6.01137215      19.76908484
Si      14.70437772       4.61074064      17.93957822
Si      14.91816061       2.17342117      18.36769719
Si      12.35476818       4.73826200      17.60958927
Si      12.32917147       3.20151458      15.80592823
Si      19.60261276       1.88095156      17.00402752
Si      38.19537743      31.72246250      28.31729922
Si      37.06941330      33.40953596      29.67504329
Si      34.78520276      29.07085202      30.19785539
Si      33.64898563      31.02148715      31.06372264
Si      34.71827639      32.83393698      29.93688684
Si      11.08275003      32.96317745      12.56057097
Si      14.29889205      31.48417370      13.73908409
Si       7.24031431      32.52925733      13.90847386
Si      11.15279412      34.80134279       8.82034863
Si       5.80541526      33.45383666       7.74280747
Si       9.38227280      36.16708579       7.62928586
Si      12.84401486      31.58537714      11.93189267
Si      13.87887690      33.36883814       9.71090772
Si      10.03449235      34.23556873      10.83700119
Si       8.64831059      32.53962518       9.96393094
Si       8.11451776      32.80791383       7.62800580
Si      15.78679950      23.78325824      38.47053148
Si      14.71326028      21.66875274      37.70059964
Si      16.71620246      22.23208707      35.84903749
Si      16.09578208      19.82374406      36.80700301
Si      15.26061250      18.49273807      34.96697072
Si      11.85699494      24.76834691      38.83413297
Si      13.88199913      21.19604470      39.92043750
Si      13.04658001      19.16045588      39.12178531
Si      12.66953844      22.27811591      36.55683156
Si      13.35209841      18.82359188      33.62125311
Si      12.21796466      19.99456707      35.42841672
Si      11.47256971      18.68490428      37.41358141
Si       2.13645591      17.74398614      27.10303559
Si       1.95386152      15.44521071      24.14011376
Si       2.25488574      13.12772883      24.51555747
Si      38.57637190      16.27800711      24.72702499
Si      38.19548363      13.92480730      24.87274464
Si       0.70678102      15.97689713      22.23827706
Si      39.62874525      13.93449541      21.64197508
Si       1.27724419      12.25327002      22.48172683
Si      37.63266612      13.15795775      22.56469774
Si      37.75536484      10.76231701      22.21432087
Si       0.18715380      14.18033943      28.15342640
Si       4.12222778      13.28715763      27.47662925
Si       2.14286499      13.13406803      28.92219916
Si       1.81276921      10.79238765      29.21144136
Si      36.50989004      13.62304003      26.61361779
Si      40.32586141      13.38115439      25.91393662
Si      39.25050148       9.75256339      25.87431513
Si      37.83844255      10.64125075      27.55311495
Si      37.69135544       8.29361456      28.03294075
Si      35.57813107      10.83066053      23.61173963
Si       5.49841874      24.00321140      16.60932332
Si       5.68223138      21.85671399      20.40102560
Si       4.32065695      21.93348693      16.71211426
Si       7.60675519      20.84163688      21.34639934
Si       5.99323618      20.36575282      16.27612841
Si       3.97517915      25.21173469      18.15543200
Si       2.70681662      24.03341208      19.85856832
Si       4.47660848      22.26831783      22.38115011
Si       3.51333164      24.39493566      22.08306124
Si       2.33714698      21.24169578      22.34110896
Si       2.63060005      21.41430687      15.09712061
Si       2.73818086      23.80867666      14.61703418
Si       0.87327253      22.76974490      17.30574660
Si       3.73026049      22.04912576      18.99527193
Si       3.51889977      17.85358854      18.36637328
Si       2.60174858      20.00237568      18.63250021
Si      26.05209186      19.74790124      20.66912122
Si      26.46538726      21.61612303      23.96887055
Si      23.39480589      23.44173428      21.82881970
Si      25.55282422      23.61792102      20.65808933
Si      27.64642464      25.04042572      17.80974664
Si      26.13493419      25.87600447      20.95914488
Si      26.92366708      21.89786652      21.54337858
Si      29.44525431      21.83058365      21.72554631
Si      29.30485024      24.25621368      22.21382334
Si      25.89362671      34.82542628       1.65204858
Si      21.93592323      34.47504268       1.93244929
Si      26.73609079      33.85006438      39.56459669
Si      23.78297257      31.49672047      38.15676262
Si      23.68093869      33.30223200       4.77771604
Si      28.48225563      33.55688217       3.60544354
Si      20.34415550      32.69302725       1.72136982
Si      19.54200454      32.73179914       4.03393074
Si      21.50007287      32.50593122       5.59460217
Si      24.08833074      33.34848311       2.39739022
Si      25.00318304      30.90649738       2.52027967
Si      22.14662820      29.99299498      39.15119141
Si      19.44472381       5.02457311      34.67012895
Si      17.94314411       6.19796720      31.69840119
Si      19.87592512       3.06788614      32.06682090
Si      21.43486791       4.12086238      35.66487596
Si      20.26358664       2.03441495      35.51990903
Si      23.66021324       4.22063343      34.58819090
Si      18.43326891       4.85089623      28.58164543
Si      19.74431638       2.99851336      29.69048417
Si      20.11325258       5.39380579      32.40735281
Si      22.26149938       6.28029903      31.84951787
Si      23.95875887       4.70904003      32.35490933
Si      23.02768176       6.58273999      35.50025473
Si       3.89754649      33.91962075      14.13123091
Si       2.47894373      29.81443725      15.05719099
Si       3.28817419      34.71012692      10.73869755
Si       2.72599928      32.84161743      12.15546356
Si       0.56228534      31.10444316      14.64575188
Si       0.50256176      32.02916658      12.50672788
Si       9.45071432       7.92099536       7.15201750
Si      10.50198851       6.03907817       5.91411458
Si      12.81212723       6.13322755       5.11472295
Si      12.75964689       5.24261768       9.22619874
Si      10.84848640       9.60192120       7.99156755
Si      13.07587096       8.93913066       7.52509048
Si      12.74764734       7.95376364       3.65412413
Si      13.39507821       9.70429692       5.26614447
Si      15.82682837       9.31619593       5.13783153
Si      13.93553852       6.09114514      11.11410350
Si      13.70466906       8.45998152      11.36935444
Si      14.25376726       9.75703163       9.43717731
Si      16.54055918       9.26783344       9.72238655
Si      13.54502413       6.60660050       7.39169002
Si      15.95211324       6.53419708       7.24454190
Si      16.13531728       6.98401175       4.91708125
Si      17.62128097       8.06737172       7.93197475
Si      17.22090418      10.18806202       6.84334757
Si       7.68241314      16.43818753      24.33329537
Si       4.14964445      16.25309865      24.04592352
Si       5.61988658      19.29597112      23.38572410
Si       5.91454596      14.65793591      24.01308671
Si       6.80636812      13.83693625      21.95014450
Si      10.94033854      17.94297223      24.45168551
Si      11.75875840      17.98280700      20.73907705
Si       7.74423952      18.48111057      22.78711975
Si       7.86783403      17.22942643      20.70085774
Si      10.03126963      15.78077265      23.35970772
Si       9.06898252      13.47821381      22.93417687
Si      10.03288864      16.36480494      21.03458456
Si      10.74707966      14.90818990      19.30887430
Si       3.84361540      17.91243701      22.38324838
Si       4.13461587      16.58391398      20.29325337
Si       8.21748302      19.20164697      19.47487860
Si       8.48421043      17.79580501      17.45526660
Si       4.74867499      16.92390052      16.49212635
Si       6.34383254      15.41531073      20.23244178
Si       9.36993179      13.23135808      18.29388609
Si       7.14275914      14.22852047      18.22119681
Si       6.95673295      16.08033773      16.74982815
Si      10.27529244      16.26422136      17.43035243
Si      25.66099856      38.74753702       9.60596311
Si      24.84905963      35.28168556       7.88736594
Si      23.41173797      38.96385919       8.62190699
Si      23.89591762       0.32132539       6.61369008
Si      23.05839669      36.78484461       7.70573181
Si      22.29331331      37.10756436       5.41851420
Si      21.83115258       1.41541815       5.86259768
Si      22.73672634       2.85638200       3.98162379
Si      21.19078734      39.11600529       2.49183078
Si      25.60220928       2.24928095       6.60849446
Si      24.28621552      38.70593100       4.83164633
Si      22.45891079       1.11581877       2.22489604
Si      24.36308129      -0.17127910       2.74287160
Si      23.00417322       2.34083292       0.14093496
Si      24.96039248      37.97871722       1.31434222
Si      24.16462758      15.39922533      25.07529240
Si      27.58377815      16.87290756      24.58218343
Si      26.51473108      13.32130180      22.88495628
Si      24.23151507      14.19004123      23.09867346
Si      25.45098179      18.17162547      27.88247498
Si      27.62253143      21.33688130      26.22315625
Si      25.52787188      17.18665565      25.71201624
Si      25.28485294      18.30223071      23.64500719
Si      29.70799720      33.35946332      33.46080803
Si      29.03209245      35.31859362      36.34962970
Si      30.27879386      31.79925576      31.57947272
Si      26.08698241      33.05118418      35.90199436
Si      24.46627661      31.88356899      34.62017373
Si      27.77806840      32.29101322      34.30718178
Si      26.16028238      30.95072365      33.18294240
Si      35.66885034      29.54468186      34.78652439
Si      37.14626026      31.05957866      32.10446455
Si      38.20289643      33.06886282      31.75235942
Si      35.07481454      31.06229326      33.09925088
Si      26.59786295      30.23015797       0.70124250
Si      28.15938742      27.79613351       2.48667354
Si      30.35734940      30.64423850      39.70458374
Si      29.41023547      28.87839516      38.55460678
Si      26.16940519      31.57983099      38.78972842
Si      27.72554929      27.99713396       0.18282049
Si      26.11498185      26.09950461      39.87880297
Si      24.06043076      28.50262842      38.04114086
Si      26.68659958      11.14965070      21.89468694
Si      26.42816785      10.30087031      19.60745313
Si      24.15362093      10.15290118      19.01856894
Si      25.05779829      11.20789285      23.73048927
Si      23.23984848       9.80172510      23.12604154
Si      22.71020511      11.78731957      17.90726658
Si      21.78991965      11.29957529      21.91760903
Si      24.41399900       8.50125921      17.35518591
Si      22.06115934       8.02140264      17.13861212
Si      23.38560209       8.78875794      20.94432795
Si      21.31033934       8.36292241      19.88532227
Si      20.89419419       6.19666709      18.50973012
Si      28.67557906      24.10503069       8.19942282
Si      28.28223086      21.23137043       5.75839466
Si      24.86738639      16.03987648       3.51527956
Si      27.73524031      18.02418468       3.35900744
Si      26.01922338      21.27750991       6.30985798
Si      25.40679192      18.42664182       3.34786482
Si      25.61616315      20.23829338       1.65882851
Si      31.14591132      20.03124348       3.49260084
Si      32.47242526      21.89846810       7.64053857
Si      29.16059957      23.41813716       5.96101444
Si      31.57769828      23.22691056       5.76639271
Si      31.84209749      22.23087887       3.60591009
Si      28.05113591      18.19540532       0.94408556
Si      28.80880001      20.09610697       3.74691674
Si      27.83861337      21.41600648       1.97361594
Si      28.52295040      23.72065507       2.08908394
Si      29.13857445      21.21114485      39.88902450
Si      29.00831179      16.55126931      39.54784244
Si      27.85421181      14.89420442      36.45042444
Si      21.85538411      15.66358395      37.13028991
Si      26.00833262      13.73643269      33.60431330
Si      27.85287629      12.45991679      36.21829927
Si      24.96650726      14.17981252      37.66961620
Si      23.11676648      13.89049005      36.22106032
Si      37.08552335      37.46769144      16.65516299
Si      35.24154001       0.42707686      11.94414030
Si      36.47050688       0.27862176      18.56010739
Si      37.06155499      -0.09839763      16.23251413
Si      34.75192733       0.23445223      15.72145290
Si      35.04481634       6.06210402      13.81315194
Si      35.26413646       3.55194559      14.29802833
Si      34.25525463       2.59926689      12.25727442
Si      33.95714301       2.49127823      16.04883044
Si      31.62172111       2.55288385      15.52864700
Si      32.81619510       5.73224693      17.83424756
Si      36.72962363      36.35309774      13.19643067
Si      34.43481810      36.93804956      13.20379809
Si      33.59854116      33.05259302      15.66313599
Si      33.91266011      36.31893418      15.38953010
Si      34.11048435      39.29672006      13.63710286
Si      30.40257112       1.44111147      13.75200834
Si      31.73989434      39.48161183      13.83084802
Si       2.98166186      38.27928608      26.66652591
Si       0.64613228      38.22445550      26.96073136
Si       0.68044648      -1.16652443      23.31185501
Si       1.20340132      36.19936883      25.86296587
Si      39.95875438       1.69653000      26.30216656
Si      39.27880148       0.89609004      28.47207560
Si      38.50624852       2.41381554      23.15490074
Si      38.33241778       3.18494479      25.40836593
Si      36.46332895       1.70066737      25.35513042
Si      39.60432861      39.51418871      25.31775657
Si      37.04269467      36.61121668      23.35914422
Si      37.23410486      39.48927971      25.17716104
Si      35.88131609      38.30657843      26.72130444
Si      31.81142919      35.62144977      17.83763416
Si      32.34866858      33.66049370      21.27890681
Si      35.01350236      36.80136572      19.21564691
Si      34.98776254      38.29802414      21.12008031
Si      33.76937487      34.32568334      23.02836711
Si      33.59735103      36.37421443      24.26620245
Si      36.79924522      38.91530975      22.71297765
Si      35.84924961      36.38755028      25.37199993
Si      30.96474481      34.96390288      19.99785221
Si      31.09721393      36.98725744      21.24889441
Si      34.27895747      -0.09613326      19.46999169
Si      33.56968186       2.06090944      20.20179973
Si      29.83580014       1.97496924      20.98129231
Si      33.84612212       3.58526591      18.26788409
Si      30.70946417      33.35105167      22.90581035
Si      31.44486726      35.13160568      24.34827597
Si      32.43487820      37.27595762      26.13602764
Si      29.79629732      36.41305393      23.15205891
Si      29.25081686      39.88686624      24.60163468
Si      33.07910038      37.79186637      22.38849703
Si      35.28736115       0.83996636      23.30948129
Si      32.92185644       0.00588759      23.29272760
Si      31.96333854       1.86096416      21.99685992
Si      31.49978650      39.32165870      25.14435187
Si      31.53571792       3.56066803      23.69306757
Si      35.53980394       2.39959044      21.51558721
Si      33.81616907       4.32419902      24.30470058
Si      24.81740933      37.87481024      12.48241076
Si      26.41256640      32.88392949      12.76255212
Si      25.04892165      35.64809646      11.66304443
Si      22.15515297      33.44190016      13.12418232
Si      24.47019322      37.14328564      14.69916079
Si      22.19604679      36.73622329      15.22685322
Si      24.62255392      33.92024449      16.52515165
Si      22.57456857      31.00780392      13.47276133
Si      22.99505540      38.49354363      17.15754153
Si      23.91727560      33.64917339      18.83426653
Si      22.60535511      34.35409591      15.31122842
Si      20.66891437      33.43573607      16.30728730
Si      10.69987505       3.15175001      37.08199982
Si      11.29084121       5.40652124      36.44960880
Si      14.52656367       6.04478585      39.05959685
Si      13.46670376       1.33475634      38.66763552
Si      12.79688398       2.47609967       2.66715346
Si      17.58774506       3.68717183      -0.00192685
Si      11.74722328       7.22346302       0.66457864
Si      12.69631526       9.37366386       0.83340990
Si      10.42112238       7.75711751       2.58114714
Si      13.41749879       5.64463735       1.11746899
Si      16.36764445       4.16895590       3.43288546
Si      15.07636829       6.30081982       2.80989982
Si      16.20224464       8.09146419       1.46768516
Si       7.65782807      12.78317640      28.65522417
Si      12.90566695      10.56371638      30.04389128
Si       5.78247639      12.74424422      30.33078945
Si       4.26426443      10.94431358      28.28863700
Si       5.78378006      10.92578998      31.90124343
Si      11.09069609       6.28845928      28.61161222
Si       7.11230608       6.27766227      28.10258665
Si       8.41357093      10.59242400      28.09903818
Si       9.02058509       9.34791290      29.98185469
Si       7.17987985       9.00558387      31.39839128
Si       8.95685572       6.94732576      29.57015848
Si       8.38414761      12.42671149      33.09672272
Si      21.50211885      28.78047522      27.34520908
Si      24.68383150      27.87406064      29.18625516
Si      25.36571741      29.35113083      27.38395133
Si      23.42873110      29.04905652      25.95367053
Si       7.36501037      39.19091634      25.50906852
Si       4.45565896      39.80471779      27.90990379
Si       1.80557633      38.90454593      30.56910784
Si       3.11951573      36.11436033      27.45178647
Si       4.19653575       1.46600901      31.41227115
Si       6.80444980      39.49001322      27.71739935
Si       6.94452643       1.79076655      28.57903003
Si       8.11699151      37.83445921      28.72158893
Si       1.89253402      38.80763885      32.89171486
Si       4.09552301      39.28982201      30.21407210
Si       5.45627948      37.55302265      31.28157667
Si       7.69151015      38.08754149      30.94790843
Si       8.04326765      20.14128413      35.85427624
Si       6.36950573      22.50327149      38.76958855
Si       9.13965693      19.02209276      37.74665054
Si       7.84926311      17.02966549      38.03286516
Si       5.97111866      21.08191597      36.73586261
Si       5.69112334      17.53095576      39.05461591
Si      36.27076204      34.79266356       0.70470492
Si      38.19494076      34.00314151      37.62838636
Si      39.65351509      36.69725730      39.61311721
Si      38.77033055      32.80981884      35.66782221
Si      37.67570248      32.96512710      39.70667004
Si       1.47479870      33.77557229      -0.39669461
Si      39.74462925      32.51395577       0.73867383
Si       0.56499820      30.32310899      39.51585907
Si       5.21110278       4.72519144      28.39733717
Si       3.12884967       5.15101411      29.47915186
Si       3.83314352       3.98477891      31.45729467
Si      39.53500676       0.44759571      32.93503024
Si       2.27902624       7.22375132      30.11494790
Si       0.92337690       7.05389927      32.08926232
Si       0.32096841       4.45808300      34.55405419
Si      39.49926910       4.08209057      30.16165192
Si      38.82857180       1.98350922      31.07987787
Si      39.83185190       4.95464663      32.34079156
Si      37.45727420       5.28495336      32.77897180
Si      38.64508102       7.94041997      30.17661792
Si      11.51243320      37.19742734       8.07612411
Si      13.30249237      35.82367568       9.68692105
Si      15.28223462      36.23659516      11.44542256
Si      15.51561765      39.40590202       9.40573954
Si      14.21544213      40.11091323      12.66933898
Si      16.98638183      35.84589322       8.25193397
Si      16.98207601      37.64174118       9.78354755
Si       8.59801991       0.14096010      36.06671773
Si       8.71311993       4.30172984      33.78583888
Si       8.37728046       2.24726973      37.17787623
Si       6.22400398       3.02707210      36.26610720
Si       7.65364189       7.31006340      33.83190429
Si       8.07108636       0.23256510      33.76435787
Si       6.31544936       1.66174884      32.60674648
Si       9.50700176       5.12100110      31.64466428
Si       7.40566387       6.50228379      31.58913077
Si       7.31520175       2.66352123      30.75434266
Si       6.49163378       3.62329258      34.00481154
Si       5.25414074       5.46289899      33.25479039
Si       6.01415790       4.69735723      30.84463651
Si      16.41123055      32.24103168      12.80383762
Si      15.79708008      33.89671635      11.12123692
Si      17.79204337      34.28448026       9.82203277
Si      19.82941163      34.18370525      13.29218278
Si      17.13485888      30.92120480      11.05437125
Si      18.97306326      32.46477413       8.59872734
Si      19.29843416      30.97402267      10.32955065
Si      21.03794275      33.39073732       7.88995190
Si      23.18454121      34.38968886      10.94177825
Si      18.96004756      35.80320721      11.54969396
Si      18.94534947      37.96980773       8.23236976
Si      20.29753173      36.98507959       9.92095396
Si      21.49328458      39.05267924      10.22958763
Si      21.78001128      35.36261297       9.11262900
Si      19.85351787      34.54944494       5.52761409
Si      20.15977328      10.68986978      -0.33515035
Si      20.48651314      10.95987621       1.98340646
Si      23.55726218       8.29444395       1.28172775
Si      21.77832298      13.02888927       2.01753921
Si      22.58939846      12.74867885       4.40723304
Si      18.21611917       7.52259076       0.34671429
Si      19.98189687       7.15777339       1.90971499
Si      18.55090882      11.15349103       3.30718614
Si      17.15974911       9.27801715       3.29738653
Si      19.05439199      11.13362561       5.70471642
Si      18.27347920       7.29229812       3.84380902
Si      19.14288277       7.94154979       5.93993118
Si      21.40901000       4.15849421      39.34816726
Si      22.20944138       4.07324974       1.84105553
Si      20.46028576       5.11049037       2.89557924
Si      21.83844502       5.03085837       5.02774332
Si      21.58105177       8.92197394       2.48578337
Si      24.01195965      11.08279119       5.02920589
Si      22.47722689       9.16332475       4.67131257
Si      24.18571653      10.88962067       7.44211481
Si      20.74592309       9.58482880       6.18682470
Si      23.14001468       7.01592346       5.48165809
Si      21.14990780       8.54453775       8.31028901
Si      23.11186317       7.23992192       7.84882419
Si      22.75058454      11.81141093       9.22778881
Si      26.70770383      30.54716642      29.01499254
Si      25.42083024      31.07435479      30.96318030
Si      24.30105703      28.97938993      31.32513676
Si      13.20673680      32.68307540       1.92273541
Si      14.21344589      30.38099540       1.77653026
Si      16.55975696      30.41373475       1.26225359
Si      16.42659132      27.50864933       3.36378655
Si      13.21209880      26.96685563       1.17575946
Si      16.42245606      28.76252677      39.46640794
Si      17.64686798      25.45778991       2.83455024
Si      18.60037701      28.22347442      38.50884018
Si      17.71736130      31.40694408       4.78245388
Si      17.05269921      27.06194524       5.83196345
Si      17.60727327      28.75738084       7.39520343
Si      19.46570975      26.84329559       5.72215538
Si      18.71165157      30.76060772       6.83584791
Si      20.88764384      30.20220086       6.08300705
Si      17.73102384      29.56023267       3.15071457
Si      19.71072226      27.29631312       0.39574301
Si      19.86696295      28.84287015       2.28856382
Si      21.36716842      30.45946263       1.37412215
Si      20.73796440      28.38432897       4.49885681
Si      20.25491821      29.83775691      37.67245624
Si       1.58727312      36.27252269       5.09454542
Si      38.67026588      32.35490762       4.59224400
Si       0.12645792      36.22445234       6.89590859
Si      38.02874720      36.77188380       5.84684532
Si       0.27743392      36.07727672       3.15910341
Si      38.09502976      36.92759464       3.42294825
Si      40.13927818      34.03496554       7.78820357
Si      38.07506698      34.49302503       9.11362449
Si      37.33597175      34.45884845       5.24079653
Si       5.91805128      29.29349383       8.98324888
Si       6.28079144      29.12048849      12.31475981
Si       3.61574052      30.77780058      11.28829083
Si       4.66401470      29.74677040      14.11340532
Si       5.90613701      30.90845151      10.81550738
Si       6.86326265      32.97674049      11.45403086
Si      33.63112161      29.09143317      37.96262630
Si      32.28401958      31.72205836      32.99025011
Si      31.79124728      29.91205853      34.40978290
Si      32.34321935      26.08944799      35.08665276
Si      32.31840347      27.81913710      33.39317353
Si      34.39510596      27.47429093      32.12549385
Si      35.65446720      27.69842963      36.64704980
Si       3.63707677      14.00794979      30.59455443
Si       6.82102968      13.97352538      32.08260862
Si       6.91119134      16.25488506      31.58473620
Si       5.29063067      15.52042350      27.83270951
Si       3.67401547      16.22407138      29.61316304
Si       9.14600140      14.68417385      28.82699282
Si       8.95323226      16.85456008      32.82025163
Si      10.81595140      15.53847308      32.20394442
Si      11.22280991      15.44641009      29.90478818
Si      11.60215399      17.77774688      30.09215095
Si       4.33588931      17.07771391      26.28686559
Si       6.50905092      13.47691430      26.63458204
Si       6.21204600      18.18035923      25.38206826
Si       9.99469133      14.93863611      26.66140481
Si       9.34217562      17.10383395      26.01292838
Si       7.25902882      16.13128595      29.20394817
Si       6.02422044      19.92542965      29.93708335
Si       7.75414978      18.42181963      29.06857459
Si       9.70245879      19.25499130      30.17493647
Si       7.94795614      19.16120691      26.64783469
Si      14.85849280      25.86575098      35.42200039
Si      10.95068073      24.55290436      35.05216378
Si      13.25337642      26.93747054      38.73542694
Si      15.36977085      27.08733635      37.69207556
Si      12.07928816      26.41837367      36.59978080
Si      14.72935244      28.85934280      36.25515099
Si      17.12947013      25.17099737      35.38408620
Si      17.50724812      23.30884076      33.88587004
Si      16.45009590      23.60546241      31.70166895
Si      13.22955928      23.91359540      34.38733661
Si      14.00557605      25.98244378      33.20047400
Si      15.77787429      26.74154446      31.83183920
Si      16.69253105      29.79035911      35.33496715
Si       9.22942920       0.64382465      25.78099304
Si      12.71212250      -0.07638561      21.61292024
Si      11.83725220       0.74414690      25.14557100
Si      12.78920416       2.76628054      24.42754466
Si       9.47000279       0.01685340      23.43970235
Si       9.98813433       1.87217022      22.08411135
Si      12.56127839       1.23997102      18.46227890
Si       9.71802782       1.23525716      19.71641436
Si       9.21199692       4.55115728      19.04655872
Si       7.95596937       2.52320582      26.44993471
Si       9.10086587       4.27489457      25.24071852
Si       8.70575295       3.68471223      22.83600719
Si      12.30872944       2.22716189      22.19676179
Si      12.01363541       4.23820206      21.04417822
Si      11.23958477       3.24656523      19.04567194
Si      34.48221690      18.36607631      31.25363816
Si      33.98051135      18.39371164      28.93203296
Si      29.69687591      19.96618005      31.82682773
Si      29.75662126      19.89130790      29.41732803
Si      26.13689633      20.08840842      30.59647594
Si      30.80308550      16.43392112      28.68610764
Si      31.61159078      18.61094104      28.23155220
Si      34.61974712      16.62013192      12.79747985
Si      36.34652420      15.39301075      13.78716359
Si      35.68783850      13.77816359      15.35528839
Si      38.15270523      15.56634149      18.15771724
Si      34.94370822      16.91122721      18.48495495
Si      36.59022148      15.92256068      19.90245061
Si      35.88029156      13.92189087      20.97280255
Si      39.60753314      13.40693056      15.63675231
Si      34.90332895      11.96268850      13.89242986
Si      34.68619060      10.24844217      15.57213345
Si      33.81137221       8.10054731      14.62616655
Si      39.98364946      14.62607741      19.36077052
Si      37.54248932      13.63934616      16.91494598
Si      34.74710595      12.28698515      19.27121296
Si      36.92915145      11.80579645      18.31989521
Si      34.23127874      10.41161339      20.67616726
Si      36.73725683      10.10253179      16.69529712
Si      36.76125608       8.16513386      17.98135950
Si      34.72825684       7.06007270      18.65703121
Si      29.95145530      24.73373476      37.71088967
Si      28.54057012      25.73659039      34.01426616
Si      30.74581387      24.50789343      34.30713285
Si      27.05145272      24.15435634      34.71715541
Si      27.76000003      22.20537605      36.01459075
Si      26.78085917      23.68443553      -0.24502885
Si      27.25703512      21.62227090      38.39991596
Si      27.48406024      20.95142003      32.40816562
Si      31.50601331      21.05312828      32.97356775
Si      29.98002560      23.06542854      36.05200078
Si      31.32696695      21.42426278      37.04779681
Si      31.53093546      20.05593236      35.17312448
Si       6.15089305      11.97674432      34.04367286
Si       2.45827477      14.52661628      32.60868113
Si       1.24120421      12.55290360      33.44398275
Si       2.02661324      14.87049621      36.50580995
Si       1.03220569      12.93512102      37.55914418
Si      38.68380510      14.16614086      36.46308371
Si      36.85102085      12.62989155      36.21754659
Si       4.33720363      11.87751496      35.61540291
Si       2.81202277      10.06299897      35.73719695
Si       1.59035390      10.90410188      31.70895147
Si       3.69984680       9.80995443      31.97784945
Si      39.98494596       9.22824593      32.35292656
Si       3.59969159       8.63761064      34.01730652
Si       2.06647788       6.85605851      34.20892518
Si       2.40544266       8.62195245      37.64590359
Si       0.93377359      11.50792677      35.59327001
Si      36.97899579      10.89963732      34.58960460
Si      39.03244778      10.11340300      35.49078012
Si      39.60370408       8.01321002      34.49810399
Si      38.70195826       9.47013183      37.73424785
Si      37.38708295       6.97317223      34.47146626
Si       0.61701887      13.58083537       2.83648418
Si       1.66597485      11.65634483      39.69100912
Si       2.17453037      12.95336024       4.53102248
Si      37.78464191      12.03071552       0.44049164
Si       0.73641112       9.53366236      39.01960194
Si      40.42355432       8.14876815       1.02155898
Si      40.01186764      11.78070504       1.42286108
Si       1.54826579       9.37909363       4.29344325
Si      39.80120131       9.76992286       2.75147894
Si       0.78479580       8.00325363       6.07504885
Si      37.74464163      10.07925930       4.00838112
Si      38.70831125       7.20301587       7.20440655
Si      18.22304850      32.71098537      14.25536161
Si      20.28693779      37.03710463      13.81137822
Si      17.51186715      34.23500532      15.86382376
Si      17.16127365      33.75562592      18.15644301
Si      18.54924536      35.25568767      19.39457713
Si      19.50195910      35.41987274      15.51407061
Si      20.55346012      37.20777130      16.98907647
Si      19.59708474      39.45893918      16.82988854
Si      20.69868477      35.90535309      18.89056910
Si      34.04984780       9.80232189      10.84367298
Si      33.96242263      11.96389168       9.75862407
Si      31.72122106      12.90189051       9.68362182
Si      31.64275427      15.27914382       9.32541964
Si      35.80367446      13.46400929      10.23168699
Si      35.58294274      15.27386319       8.56802437
Si      33.65419646      16.63381345       8.82423394
Si      30.09259511      11.65117734       8.34655271
Si      29.61944889      12.84954264       6.27864817
Si      32.03560645      13.10439004       5.64168819
Si      31.93680931      15.27756995       4.72300551
Si      15.27429045      12.10854520       0.66588993
Si      12.94838238      12.65875768       1.24365452
Si      11.07474722      10.34262611      39.42854451
Si      11.14015301      10.04066455       2.54915704
Si      11.54613915      12.26834684       3.13540228
Si      13.12440227      13.43134569      37.94988139
Si      12.74848983      14.92616794       1.69690225
Si      13.71299883      16.38016159      40.03864771
Si      12.54005817      15.57653605      37.24607744
Si      11.51600763      16.77734730      38.94478778
Si      11.41079665      15.39104303      35.20425670
Si      11.43691969      12.64385091      39.36123101
Si       8.14280153      12.76818264       1.30616999
Si       9.15517275      13.70003958      39.34789655
Si       9.34960933      16.05440638      -0.32666078
Si      30.60703360      36.60104154      29.43528861
Si      31.81163326      35.57698089      27.65416543
Si      31.60586561      31.42995441      29.48781967
Si      31.35805278      33.70877326      26.26846804
Si      33.64393481      38.84581485      27.44663650
Si      32.85153123      33.59655367      28.57134973
Si      33.84263330      33.04350960      26.43969528
Si      35.93024162      33.85989660      25.33385164
Si      29.37373689      23.65411856      39.71797957
Si      32.31080826      27.09467460       1.05757412
Si      30.85965684      23.91830408       2.30360229
Si      31.69669993      25.91468200       3.28609335
Si      35.44903839      23.35006007       4.12656542
Si      31.83122755      26.13475015      37.43164409
Si      34.07931922      26.41610893      38.19371254
Si      35.50925314      24.67232763      37.10960414
Si      31.70367945      24.69224624      40.14207898
Si      33.92653130      22.41870896       2.54087521
Si      33.90791734      23.77396977       0.61279756
Si      36.20605631      23.61706023      39.89303865
Si      30.52335211      17.83564804      32.72823212
Si      26.44556555      17.85990318      31.63950283
Si      28.11713899      17.10963729      33.26140073
Si      28.16194724      14.68900314      33.24403601
Si      31.18289473      15.64229558      31.75322858
Si      31.86656635      15.94772841      35.57873092
Si      29.72429339      14.25395561      35.10409819
Si      32.69782221      15.05259229      33.51056993
Si      30.59927749      11.91708772      35.05096893
Si      27.58624684      18.62697708      29.28806636
Si      29.09535166      14.74666721      31.07908998
Si      27.66834808      10.59467235      34.71077290
Si      32.50215173      29.04543308       4.91410604
Si      34.22728029      30.70696002       8.38309322
Si      36.02440750      27.09700904       7.61952356
Si      33.59070873      26.68818222       7.42607546
Si      32.20083401      25.58543080       5.72702224
Si      30.35642987      26.67335470       6.86983953
Si      34.21255390      30.10464319      10.74312147
Si      30.50038790      29.61093465      12.03528821
Si      32.85909209      29.00919447       7.38677323
Si      29.39315576      31.10318666       6.39761672
Si      30.50227913      29.11294003       7.52756406
Si      29.30074394      26.27938167       9.12772851
Si      25.80339004      10.60906408      27.87031920
Si      27.01440558       6.91444766      28.18521283
Si      26.36312099       8.61760261      26.72551135
Si      26.56822431       6.22224132      25.01595967
Si      23.86550652       9.90222506      28.99823820
Si      22.69956079       8.90878301      27.21550694
Si      21.08119764       7.67479037      28.46384190
Si      24.36631836       7.32779092      26.45212211
Si      23.46955242       5.76281890      24.90463923
Si      21.36547877       4.83530934      25.76619126
Si      32.36343613      34.37753380      36.78340609
Si      29.61917764      36.38690013      38.38412360
Si      32.12937286      37.55132701      32.92095677
Si      34.18668901      36.48345250      33.94987145
Si      36.51610799      36.65344812      33.30243710
Si      37.40609888      36.21378858      35.48607449
Si      29.56595121      37.50244053      35.50638947
Si      31.84776499      36.55338196      37.57970391
Si      34.51202755      38.39515011      35.37890127
Si      36.07584865      39.04786023      37.17044305
Si      34.30300092      34.58906372      35.49802607
Si      36.03081442      35.10310474      37.10080415
Si      35.63828496      37.11887201      38.42578415
Si      38.12762332      38.22091852      36.40394478
Si      -0.30397601      28.11191459       6.09283652
Si      39.57113794      28.93491757       9.60929272
Si      37.78035094      26.92367663       5.74544390
Si      37.29025063      28.18587812       9.41783510
Si       0.17337649      29.89007091       7.52852518
Si      40.12860592      32.01305976       6.40750241
Si       1.60321043      37.17043550       8.66975609
Si      34.82543009      38.86428948      10.23649554
Si      37.46959436       2.53130642      10.74834603
Si      38.29478839       3.89054668       8.92242815
Si      34.31804319       1.18451712       8.81999884
Si      35.70510407       1.39189902       6.92442269
Si      37.67299628      38.75012969       9.30424211
Si       1.15127149      -0.60327081       7.99512891
Si      38.88586500      39.86872176       7.51685674
Si      39.00295679      39.05989099       5.22401628
Si      38.00080271       2.08541778       7.26095634
Si      37.05672726       5.90986122       9.60630334
Si       0.38937884      34.92003340      31.34785546
Si       1.28754350      34.63168931      27.76358734
Si       2.07648983      32.45939599      27.20417526
Si      39.96427759      32.21115212      25.99213938
Si      40.13604150      37.88378493      29.21663038
Si      38.37687924      35.26617047      32.59948916
Si      38.09132951      38.21471017      32.38958959
Si      38.02133138      38.71621779      30.03164213
Si      36.28871780      37.52550303      28.97660476
Si      39.71057960      35.55203964      29.21901735
Si      37.44906514      35.42897995      28.56938833
Si      37.69070252      35.08073010      26.28745579
Si       0.51337461      30.68109123      24.21054395
Si       7.62585256      30.15266111      26.03885821
Si       4.19365920      29.32409343      24.29309209
Si       4.09016334      28.41789518      26.46681285
Si       0.66199053      27.34792952      22.93715226
Si       2.04711408      24.50926145      24.01887275
Si       6.40668960      28.16366824      26.98563113
Si      39.58715551      28.42754498      24.83640658
Si      40.65137728      27.35575512      26.59282003
Si       2.98918853      29.33473923      28.32738952
Si      39.83551451      28.82548086      28.31986394
Si       2.70057878      26.43399799      25.76365047
Si       2.56577780      25.31810972      27.89105048
Si       6.74942082      25.98561066      33.65513238
Si      10.94736513      24.98167905      26.09309836
Si       8.62918948      25.99099496      31.99618770
Si      10.32307571      23.44133150      29.43000696
Si      14.09054412      24.77693366      30.78860528
Si      12.16598727      23.77191185      27.80070017
Si      15.98165806      23.80096218      28.98478221
Si      12.90988549      21.20093079      27.96238464
Si      12.27721367      23.33445539      32.19126839
Si      14.79863899      21.63615768      29.31315724
Si      14.36646322      22.28394220      31.54951953
Si      11.94714925      19.04467691      28.18613036
Si       3.56827697      29.09980775       9.55321956
Si       2.30176385      34.83036279       8.55515791
Si       4.03652391      34.79792385       6.92364893
Si       2.55758908      29.64752109       7.45146368
Si       3.89630983      30.94449128       5.82735403
Si       4.83854323      28.85863730       5.34262667
Si       3.79011197      25.83600393       6.96830404
Si       5.53915140      27.66399110       3.45836458
Si       2.92268835      27.76685505       6.00517685
Si       7.56568768      25.41489653      10.72246253
Si       6.68916446      24.18753217       8.84839166
Si       8.24835003      22.92118534       7.36155146
Si       6.15706876      25.42242866       6.88891781
Si      34.53717875      21.97011464      30.83765104
Si      34.93185757      24.14428576      29.90687352
Si      31.56365819      24.39978179      28.26697302
Si      31.30695799      23.58099163      26.02779488
Si      33.84045147      24.76379474      27.89978172
Si      33.77844086      26.89639337      26.91123321
Si      13.54647398       6.42929928      36.90408980
Si      17.01651100       3.53753485      37.67128482
Si      16.89669732       5.85124290      39.27826634
Si      16.72465520       6.91059868      37.00269202
Si      15.50853291       8.98919178      37.82322094
Si      14.99641933       9.70403471       0.16560745
Si       7.70378868      20.61573589       6.39645434
Si       8.63212054      21.97747837       4.43356646
Si      10.88059671      22.68307902       4.90352336
Si      11.81496751      24.42072255       3.57988610
Si       6.81425461      23.51952623       5.55223151
Si       7.66605123      24.26305471       3.41983603
Si       9.92377823      38.18702547      16.49737913
Si      11.75411072      36.69703415      16.58864595
Si       8.55041741      34.06352742      15.52638474
Si      10.46804791      34.62036091      16.90212661
Si      12.78311664      33.27793734      14.24528857
Si      12.15083960      33.04419729      16.49283950
Si      13.27404234      34.04039666      18.35137083
Si       5.86762621       1.92740019      23.31175969
Si      21.56183416       2.58945947      11.86310761
Si      15.74708828      26.96731358       0.96647850
Si       9.19556964      19.53703652      24.43008236
Si      35.28593033      40.49311619      34.48191515
Si      13.45900619      27.99205449       7.58740461
Si       4.80488537      22.95153051      11.92891871
Si      32.52780447      17.80056884      13.84699560
Si      10.40540594      15.50765926       1.84304059
Si      20.76266993       9.47696783      34.65850045
Si      38.76806497      30.09828503      26.50805051
Si       5.68817993       4.81940887      37.79877229
Si      16.29052126      11.45398259      34.37238321
Si      34.50911640      14.31584779      31.14173838
Si       6.74772672      20.83250914      18.53884775
Si      27.38714572      37.05075839      19.26037748
Si      30.60141078      30.62424488      17.64083967
Si      25.98502064       9.52927531      38.78084127
Si      19.14948651       8.84834979      38.63166715
Si      39.06079509      13.46738822      38.79043654
Si      26.85217315      36.48932344      25.31560301
Si      22.50851484      36.72706814      29.89635380
Si      20.72965799      20.41669334       9.90193920
Si      11.09869294      30.85475663      26.55798857
Si       6.73716393      14.33042480      11.68836977
Si      32.17521588      -0.44237463      38.13765804
Si      23.97144538      34.82738109      29.69719877
Si      38.37716866      20.34929154      30.25090881
Si      20.86379273      38.97098615      25.51319939
Si       3.02424856      27.44606839      23.46787999
Si      27.87093388      23.59494479      24.18547657
Si      13.22648833      29.11567422      29.65318728
Si      31.07195218      37.87318379      12.24978738
Si       9.81570510       5.11503157      21.31973435
Si      18.60632873      20.34064109      16.30181075
Si      22.15698859       3.36027320       7.15856867
Si      25.58321348      23.98509907       3.58180739
Si      28.73233326      31.17402947       1.25043258
Si      20.76598890       9.96210103      18.14724740
Si      38.01645233      29.18664831      16.34554434
Si      15.51783406       5.51040494      24.91293877
Si       9.39045937      26.53227660      26.99392830
Si      21.33500387      12.54058669      38.92968018
Si      29.49662248      32.74426828      29.19587146
Si       2.30692384      12.95152741      20.38669007
Si       3.64509485      21.48218453      32.13549844
Si      14.65524223      36.20341909       7.74459150
Si       8.71738587      38.46392922       7.42409120
Si      22.79510101      15.03032424       7.39356065
Si       1.80489161      33.71070224      22.27319449
Si      11.48840506      17.20220070      15.55712002
Si      27.74786434      31.63047478      36.94718020
Si      24.13742777       3.41451749      24.83696799
Si      30.80776288       9.45733278      23.13711703
Si       6.54254524       3.85987736      12.48599200
Si      29.97299891       7.92548648      19.58943246
Si      23.63127025       6.54710239      18.60780671
Si      37.41070371      11.65098311      10.88434424
Si      39.60150211      25.97655180      14.98626227
Si       4.11062423      25.08070407      37.59508618
Si      30.49180192       6.37205421      14.07946612
Si       3.48045651      13.96845626      34.79927917
Si      18.51446079      28.32929460      31.56227120
Si      28.51623159      16.39644047      29.43302677
Si      33.01358532      15.64220133      25.43875354
Si      36.11111338      31.55099094      24.74314038
Si       9.43198557      19.51218815       7.72745450
Si      31.58305977      27.99739694      38.84677584
Si       3.92613672      23.83657162       3.02293892
Si      34.49483337      35.11053009       9.73472300
Si      31.76492977       4.96325056      28.78097305
Si      35.21249101       2.95487091      10.15100883
Si      17.52829547       1.72479268      10.80086176
Si      21.51484743       6.52473962      39.77527533
Si      36.79863792      30.43837805      29.83805138
Si       4.35184994      31.45101115      39.82685848
Si      39.34328503      16.48544121      36.59566593
Si      10.53864133      34.83810227      32.63170443
Si       3.73202197      28.50882501      40.11500448
Si       8.87051606      10.43986535      34.93776110
Si       9.86520704      33.56755482      19.08758115
Si      24.43239171      21.11089373      22.45738860
Si      15.00274376      18.02338970      38.24245634
Si      17.31146709      25.68376234      37.78667675
Si      34.43320339      26.15226002      40.53143143
Si      13.43526299      38.41582057       3.90528527
Si      35.05346570      10.68769306      29.45625044
Si      22.75871389      23.83759150       5.99758001
Si      25.55095112      23.59173262      18.31504470
Si       3.09045461       8.19402842      27.15387826
Si      24.57254025      36.95988698      28.64314659
Si      34.72501120      25.77180834      35.19438339
Si       0.86441858      11.22422230      26.73456964
Si      16.10717964       7.93506657      30.08266070
Si      39.71584199      34.50819088      25.14176100
Si       7.15997287      27.50320080      18.87836647
Si      16.31574997       1.66133089      30.30523421
Si       1.44524575      27.96481923      12.38601899
Si      10.60999516      17.31092971      12.14965730
Si      25.84383739      17.30422162      13.78110259
Si      40.21421907      11.42602891      16.75642371
Si      16.25953630      20.95066798      13.34875566
Si      27.97567839       8.15395704      24.99850746
Si       8.84853143      19.41355085       0.22128681
Si      22.93373482      37.55558340       3.03133997
Si      24.99110515      28.37888381       0.20266934
Si      14.46145951      21.89557413      34.95092474
Si      17.18107081      37.40961514      12.18252329
Si      32.56404829      24.41772989      20.02559614
Si       5.83845040       6.56998539      16.25701138
Si       7.63822065      26.67038378       3.97122994
Si      13.73415989      24.55842795      37.19047518
Si      16.97869161      32.76915109       1.63213091
Si      14.20410837      24.40014664       4.21574230
Si       2.02999077      20.52459940      34.31267986
Si      23.68477290      15.47811132      21.13488166
Si      14.13883490      28.89141452       3.69392972
Si       0.78938350      15.83828511      34.74107979
Si      12.80545217      37.47216823       6.04839124
Si      37.63383119      40.23642752      11.41725147
Si      25.43661546       7.11308287       4.96616784
Si      15.14665694       7.27011597      32.71530069
Si      10.30107224       8.84564846      37.77944031
Si      35.10930053       3.73166104      27.96829171
Si      36.14852836      21.85457082      20.30158404
Si       5.20672478      26.51951209      13.47828621
Si      16.82165865      17.67120558       1.98789833
Si      14.55610535       9.70965458      34.42929912
Si      12.16708556      21.22685910       3.57305926
Si      26.38321232       7.15130219      16.43176861
Si      16.32523660      38.90555454       2.77758423
Si      16.00006295      13.86324249      16.49192770
Si       3.25928981      28.32749731      31.44433267
Si       5.93542631       1.92793570       0.32165253
Si      32.86834104      37.93188195      18.54665561
Si       6.82725573      34.21149741      26.98958404
Si      31.64945843      32.24471319      14.65105892
Si      32.83344399      31.21978495      17.12677353
Si      13.92415410       0.11398105      35.11563243
Si      28.80600981      17.14561103      18.23381463
Si      23.89647239      25.98033585      13.53881744
Si       7.72487693      30.67543858      35.76959341
Si      33.04389652      17.44040904      23.85700080
Si      32.65500991      24.62135402      16.46212338
Si      13.72242579      17.01340638      11.32594581
Si      19.79633640      19.24882415      24.81776894
Si      18.77964175      15.27010801      25.79689001
Si      25.26964617      34.95313005      14.12444231
Si      20.90667916      29.29127561      10.16188990
Si       8.58673896      37.57706223      18.44792574
Si      25.88309536      12.21665064       8.38207481
Si      25.69250653      15.10715933      35.56317781
Si      35.44729902      17.26830391      23.46804164
Si      36.55749119      37.63147773       7.48911438
Si      12.27613262      22.18295444       1.33006190
Si      12.82342587       7.52115072      27.15690466
Si      11.48488700      25.42876480      31.29966928
Si      17.28136959      37.27433262      19.63248786
Si      36.12021405      35.35652835       8.03431055
Si      17.80265498      22.31178159      30.16401252
Si      32.77538041      19.09286578      32.69237351
Si      20.37463577      11.62457525      29.89654530
Si       2.68566310      27.24476135      29.38706620
Si      22.43455376      10.67203588      25.29248174
Si      14.95558200      15.01511870       2.65356170
Si       6.98109315      27.75073472      10.40114370
Si      24.37951555      33.30374270      -0.04190225
Si      14.74939260      12.06099286       9.68042150
Si       6.86196984      38.61651649      14.41740232
Si      29.38551956      20.03302520      37.55143031
Si      13.76036305      13.92997766       5.59632900
Si      34.54724185      31.41754057      28.04417770
Si      12.79524556      18.14894963       1.25616477
Si       6.68720835      34.29232189      -0.12901743
Si       6.35965059      25.62847306      23.24803123
Si      25.57319258      19.92661933      16.84956188
Si       8.44637716      14.37014531       6.24782063
Si      15.24361282      35.11647235      17.82255309
Si      24.89279145      24.82576487      35.49557858
Si       2.07328642       1.22388641      32.68471815
Si      32.47119438       4.83720118      35.67404061
Si      22.80224166       8.71988804      13.73667325
Si      28.79180361      35.28858804      32.41596632
Si      22.27096799      27.59660147      29.20050245
Si       2.99779069      24.51998788      39.58547938
